generated by phonopy                    
   1.00000000000000     
    -0.0217200000000000    5.4191399999999996    5.4191399999999996
     5.4191399999999996   -0.0217200000000000    5.4191399999999996
     5.4191399999999996    5.4191399999999996   -0.0217200000000000
   Si
    16
Direct
  0.9985594106312021  0.9998642374043385  0.9998642377234930
  0.4998642374882891  0.9998642374043385  0.9998642377234930
  0.9998642374882891  0.4998642374043385  0.9998642377234930
  0.4998642374882891  0.4998642374043385  0.9998642377234930
  0.9998642374882891  0.9998642374043385  0.4998642377234930
  0.4998642374882891  0.9998642374043385  0.4998642377234930
  0.9998642374882891  0.4998642374043385  0.4998642377234930
  0.4998642374882891  0.4998642374043385  0.4998642377234930
  0.1251357625117109  0.1251357625956615  0.1251357622765070
  0.6251357625117109  0.1251357625956615  0.1251357622765070
  0.1251357625117109  0.6251357625956615  0.1251357622765070
  0.6251357625117109  0.6251357625956615  0.1251357622765070
  0.1251357625117109  0.1251357625956615  0.6251357622765070
  0.6251357625117109  0.1251357625956615  0.6251357622765070
  0.1251357625117109  0.6251357625956615  0.6251357622765070
  0.6251357625117109  0.6251357625956615  0.6251357622765070
 
  0.00000000E+00  0.00000000E+00  0.00000000E+00
  0.00000000E+00  0.00000000E+00  0.00000000E+00
  0.00000000E+00  0.00000000E+00  0.00000000E+00
  0.00000000E+00  0.00000000E+00  0.00000000E+00
  0.00000000E+00  0.00000000E+00  0.00000000E+00
  0.00000000E+00  0.00000000E+00  0.00000000E+00
  0.00000000E+00  0.00000000E+00  0.00000000E+00
  0.00000000E+00  0.00000000E+00  0.00000000E+00
  0.00000000E+00  0.00000000E+00  0.00000000E+00
  0.00000000E+00  0.00000000E+00  0.00000000E+00
  0.00000000E+00  0.00000000E+00  0.00000000E+00
  0.00000000E+00  0.00000000E+00  0.00000000E+00
  0.00000000E+00  0.00000000E+00  0.00000000E+00
  0.00000000E+00  0.00000000E+00  0.00000000E+00
  0.00000000E+00  0.00000000E+00  0.00000000E+00
  0.00000000E+00  0.00000000E+00  0.00000000E+00
