       N       E                     dE             d eps       ncg     rms          rms(c)
DAV:   1     0.917424449078E+01    0.91742E+01   -0.25868E+03  1280   0.510E+02
DAV:   2    -0.510619748089E+01   -0.14280E+02   -0.13284E+02  2128   0.673E+01
DAV:   3    -0.528465230519E+01   -0.17845E+00   -0.17845E+00  1672   0.957E+00
DAV:   4    -0.528525237323E+01   -0.60007E-03   -0.60007E-03  2088   0.558E-01
DAV:   5    -0.528525361292E+01   -0.12397E-05   -0.12397E-05  1552   0.162E-02
DAV:   6    -0.528525363507E+01   -0.22151E-07   -0.22103E-07  1528   0.180E-03
   1 F= -.52852536E+01 E0= -.52852536E+01  d E =-.299400E-11
