 vasp.6.3.0 20Jan22 (build Mar 29 2022 17:59:55) complex                        
  
 executed on           IFC91_ompi date 2026.07.23  12:30:55
 running on    1 total cores
 distrk:  each k-point on    1 cores,    1 groups
 distr:  one band on NCORE=   1 cores,    1 groups


--------------------------------------------------------------------------------------------------------


 INCAR:
   ISTART = 0
   ICHARG = 2
   ENCUT = 320
   PREC = Accurate
   ISMEAR = 0
   SIGMA = 0.05
   ISYM = 0
   EDIFF = 1E-7
   LCHARG = .TRUE.
   NSW = 0
   GGA = PE

 POTCAR:    PAW_PBE Si 05Jan2001                  
 POTCAR:    PAW_PBE Si 05Jan2001                  
   VRHFIN =Si: s2p2                                                                                 
   LEXCH  = PE                                                                                      
   EATOM  =   103.0669 eV,    7.5752 Ry                                                             
                                                                                                    
   TITEL  = PAW_PBE Si 05Jan2001                                                                    
   LULTRA =        F    use ultrasoft PP ?                                                          
   IUNSCR =        1    unscreen: 0-lin 1-nonlin 2-no                                               
   RPACOR =    1.500    partial core radius                                                         
   POMASS =   28.085; ZVAL   =    4.000    mass and valenz                                          
   RCORE  =    1.900    outmost cutoff radius                                                       
   RWIGS  =    2.480; RWIGS  =    1.312    wigner-seitz radius (au A)                               
   ENMAX  =  245.345; ENMIN  =  184.009 eV                                                          
   ICORE  =        2    local potential                                                             
   LCOR   =        T    correct aug charges                                                         
   LPAW   =        T    paw PP                                                                      
   EAUG   =  322.069                                                                                
   DEXC   =    0.000                                                                                
   RMAX   =    1.950    core radius for proj-oper                                                   
   RAUG   =    1.300    factor for augmentation sphere                                              
   RDEP   =    1.993    radius for radial grids                                                     
   RDEPT  =    1.837    core radius for aug-charge                                                  
                                                                                                    
   Atomic configuration                                                                             
    6 entries                                                                                       
     n  l   j            E        occ.                                                              
     1  0  0.50     -1785.8828   2.0000                                                             
     2  0  0.50      -139.4969   2.0000                                                             
     2  1  1.50       -95.5546   6.0000                                                             
     3  0  0.50       -10.8127   2.0000                                                             
     3  1  0.50        -4.0811   2.0000                                                             
     3  2  1.50        -4.0817   0.0000                                                             
   Description                                                                                      
     l       E           TYP  RCUT    TYP  RCUT                                                     
     0    -10.8127223     23  1.900                                                                 
     0     -7.6451159     23  1.900                                                                 
     1     -4.0811372     23  1.900                                                                 
     1      2.4879257     23  1.900                                                                 
     2     -4.0817478      7  1.900                                                                 
  local pseudopotential read in
  partial core-charges read in
  partial kinetic energy density read in
  atomic valenz-charges read in
  non local Contribution for L=           0  read in
    real space projection operators read in
  non local Contribution for L=           0  read in
    real space projection operators read in
  non local Contribution for L=           1  read in
    real space projection operators read in
  non local Contribution for L=           1  read in
    real space projection operators read in
    PAW grid and wavefunctions read in
 
   number of l-projection  operators is LMAX  =           4
   number of lm-projection operators is LMMAX =           8
 
  PAW_PBE Si 05Jan2001                  :
 energy of atom  1       EATOM= -103.0669
 kinetic energy error for atom=    0.0016 (will be added to EATOM!!)
 
 
 POSCAR: Si
  positions in cartesian coordinates
  No initial velocities read in
 exchange correlation table for  LEXCH =        8
   RHO(1)=    0.500       N(1)  =     2000
   RHO(2)=  100.500       N(2)  =     4000
 


--------------------------------------------------------------------------------------------------------


 ion  position               nearest neighbor table
   1  0.000  0.000  0.000-   2 2.35   2 2.35   2 2.35   2 2.35
   2  0.250  0.250  0.250-   1 2.35   1 2.35   1 2.35   1 2.35
 

IMPORTANT INFORMATION: All symmetrisations will be switched off!
NOSYMM: (Re-)initialisation of all symmetry stuff for point group C_1.


----------------------------------------------------------------------------------------

                                     Primitive cell                                     

  volume of cell :      40.0258

  direct lattice vectors                    reciprocal lattice vectors
     0.000000000  2.715000000  2.715000000    -0.184162063  0.184162063  0.184162063
     2.715000000  0.000000000  2.715000000     0.184162063 -0.184162063  0.184162063
     2.715000000  2.715000000  0.000000000     0.184162063  0.184162063 -0.184162063

  length of vectors
     3.839589822  3.839589822  3.839589822     0.318978049  0.318978049  0.318978049

  position of ions in fractional coordinates (direct lattice)
     0.000000000  0.000000000  0.000000000
     0.250000000  0.250000000  0.250000000

  ion indices of the primitive-cell ions
   primitive index   ion index
                 1           1
                 2           2

----------------------------------------------------------------------------------------

 
 
 KPOINTS: auto                                    

Automatic generation of k-mesh.
 Grid dimensions read from file:
 generate k-points for:    8    8    8

 Generating k-lattice:

  Cartesian coordinates                     Fractional coordinates (reciprocal lattice)
    -0.023020258  0.023020258  0.023020258     0.125000000  0.000000000 -0.000000000
     0.023020258 -0.023020258  0.023020258     0.000000000  0.125000000  0.000000000
     0.023020258  0.023020258 -0.023020258    -0.000000000 -0.000000000  0.125000000

  Length of vectors
     0.039872256  0.039872256  0.039872256

  Shift w.r.t. Gamma in fractional coordinates (k-lattice)
     0.000000000  0.000000000  0.000000000

 
 Subroutine IBZKPT returns following result:
 ===========================================
 
 Found    260 irreducible k-points:
 
 Following reciprocal coordinates:
            Coordinates               Weight
  0.000000  0.000000  0.000000      1.000000
  0.125000  0.000000 -0.000000      2.000000
  0.000000  0.125000  0.000000      2.000000
  0.000000  0.000000  0.125000      2.000000
  0.125000  0.125000  0.125000      2.000000
  0.250000  0.000000 -0.000000      2.000000
  0.000000  0.250000  0.000000      2.000000
  0.000000  0.000000  0.250000      2.000000
  0.250000  0.250000  0.250000      2.000000
  0.375000  0.000000 -0.000000      2.000000
  0.000000  0.375000  0.000000      2.000000
  0.000000  0.000000  0.375000      2.000000
  0.375000  0.375000  0.375000      2.000000
  0.500000  0.000000 -0.000000      1.000000
  0.000000  0.500000  0.000000      1.000000
  0.000000  0.000000  0.500000      1.000000
  0.500000  0.500000  0.500000      1.000000
  0.125000  0.125000  0.000000      2.000000
  0.000000  0.125000  0.125000      2.000000
  0.125000  0.000000  0.125000      2.000000
  0.250000  0.125000  0.000000      2.000000
  0.000000  0.250000  0.125000      2.000000
  0.125000  0.000000  0.250000      2.000000
  0.125000  0.125000 -0.125000      2.000000
  0.250000  0.125000  0.250000      2.000000
  0.125000  0.250000  0.000000      2.000000
  0.125000 -0.125000 -0.125000      2.000000
  0.250000  0.250000  0.125000      2.000000
  0.000000  0.125000  0.250000      2.000000
 -0.125000  0.125000 -0.125000      2.000000
  0.125000  0.250000  0.250000      2.000000
  0.250000  0.000000  0.125000      2.000000
  0.375000  0.125000 -0.000000      2.000000
  0.000000  0.375000  0.125000      2.000000
  0.125000  0.000000  0.375000      2.000000
  0.125000  0.125000 -0.250000      2.000000
  0.375000  0.250000  0.375000      2.000000
  0.125000  0.375000  0.000000      2.000000
  0.250000 -0.125000 -0.125000      2.000000
  0.375000  0.375000  0.250000      2.000000
  0.000000  0.125000  0.375000      2.000000
 -0.125000  0.250000 -0.125000      2.000000
  0.250000  0.375000  0.375000      2.000000
  0.375000  0.000000  0.125000      2.000000
  0.500000  0.125000 -0.000000      2.000000
 -0.000000  0.500000  0.125000      2.000000
  0.125000  0.000000  0.500000      2.000000
  0.125000  0.125000 -0.375000      2.000000
  0.500000  0.375000  0.500000      2.000000
  0.125000  0.500000  0.000000      2.000000
  0.375000 -0.125000 -0.125000      2.000000
  0.500000  0.500000  0.375000      2.000000
  0.000000  0.125000  0.500000      2.000000
 -0.125000  0.375000 -0.125000      2.000000
  0.375000  0.500000  0.500000      2.000000
  0.500000  0.000000  0.125000      2.000000
 -0.375000  0.125000  0.000000      2.000000
 -0.000000 -0.375000  0.125000      2.000000
  0.125000 -0.000000 -0.375000      2.000000
  0.125000  0.125000  0.500000      2.000000
 -0.375000  0.500000 -0.375000      2.000000
  0.125000 -0.375000 -0.000000      2.000000
  0.500000 -0.125000 -0.125000      2.000000
 -0.375000 -0.375000  0.500000      2.000000
  0.000000  0.125000 -0.375000      2.000000
 -0.125000  0.500000 -0.125000      2.000000
  0.500000 -0.375000 -0.375000      2.000000
 -0.375000 -0.000000  0.125000      2.000000
 -0.250000  0.125000  0.000000      2.000000
  0.000000 -0.250000  0.125000      2.000000
  0.125000 -0.000000 -0.250000      2.000000
  0.125000  0.125000  0.375000      2.000000
 -0.250000 -0.375000 -0.250000      2.000000
  0.125000 -0.250000 -0.000000      2.000000
 -0.375000 -0.125000 -0.125000      2.000000
 -0.250000 -0.250000 -0.375000      2.000000
 -0.000000  0.125000 -0.250000      2.000000
 -0.125000 -0.375000 -0.125000      2.000000
 -0.375000 -0.250000 -0.250000      2.000000
 -0.250000 -0.000000  0.125000      2.000000
 -0.125000  0.125000  0.000000      2.000000
  0.000000 -0.125000  0.125000      2.000000
  0.125000 -0.000000 -0.125000      2.000000
  0.125000  0.125000  0.250000      2.000000
 -0.125000 -0.250000 -0.125000      2.000000
 -0.250000 -0.125000 -0.125000      2.000000
  0.250000  0.250000  0.000000      2.000000
  0.000000  0.250000  0.250000      2.000000
  0.250000  0.000000  0.250000      2.000000
  0.375000  0.250000  0.000000      2.000000
  0.000000  0.375000  0.250000      2.000000
  0.250000  0.000000  0.375000      2.000000
  0.250000  0.250000 -0.125000      2.000000
  0.375000  0.125000  0.375000      2.000000
  0.250000  0.375000  0.000000      2.000000
  0.125000 -0.250000 -0.250000      2.000000
  0.375000  0.375000  0.125000      2.000000
  0.000000  0.250000  0.375000      2.000000
 -0.250000  0.125000 -0.250000      2.000000
  0.125000  0.375000  0.375000      2.000000
  0.375000  0.000000  0.250000      2.000000
  0.500000  0.250000  0.000000      2.000000
  0.000000  0.500000  0.250000      2.000000
  0.250000  0.000000  0.500000      2.000000
  0.250000  0.250000 -0.250000      2.000000
  0.500000  0.250000  0.500000      2.000000
  0.250000  0.500000  0.000000      2.000000
  0.250000 -0.250000 -0.250000      2.000000
  0.500000  0.500000  0.250000      2.000000
  0.000000  0.250000  0.500000      2.000000
 -0.250000  0.250000 -0.250000      2.000000
  0.250000  0.500000  0.500000      2.000000
  0.500000  0.000000  0.250000      2.000000
 -0.375000  0.250000  0.000000      2.000000
  0.000000 -0.375000  0.250000      2.000000
  0.250000 -0.000000 -0.375000      2.000000
  0.250000  0.250000 -0.375000      2.000000
 -0.375000  0.375000 -0.375000      2.000000
  0.250000 -0.375000 -0.000000      2.000000
  0.375000 -0.250000 -0.250000      2.000000
 -0.375000 -0.375000  0.375000      2.000000
 -0.000000  0.250000 -0.375000      2.000000
 -0.250000  0.375000 -0.250000      2.000000
  0.375000 -0.375000 -0.375000      2.000000
 -0.375000 -0.000000  0.250000      2.000000
 -0.250000  0.250000  0.000000      2.000000
 -0.000000 -0.250000  0.250000      2.000000
  0.250000  0.000000 -0.250000      2.000000
  0.250000  0.250000  0.500000      2.000000
 -0.250000  0.500000 -0.250000      2.000000
  0.500000 -0.250000 -0.250000      2.000000
  0.375000  0.375000  0.000000      2.000000
  0.000000  0.375000  0.375000      2.000000
  0.375000  0.000000  0.375000      2.000000
  0.500000  0.375000  0.000000      2.000000
  0.000000  0.500000  0.375000      2.000000
  0.375000  0.000000  0.500000      2.000000
  0.375000  0.375000 -0.125000      2.000000
  0.500000  0.125000  0.500000      2.000000
  0.375000  0.500000  0.000000      2.000000
  0.125000 -0.375000 -0.375000      2.000000
  0.500000  0.500000  0.125000      2.000000
  0.000000  0.375000  0.500000      2.000000
 -0.375000  0.125000 -0.375000      2.000000
  0.125000  0.500000  0.500000      2.000000
  0.500000  0.000000  0.375000      2.000000
 -0.375000  0.375000  0.000000      2.000000
  0.000000 -0.375000  0.375000      2.000000
  0.375000 -0.000000 -0.375000      2.000000
  0.375000  0.375000 -0.250000      2.000000
 -0.375000  0.250000 -0.375000      2.000000
  0.250000 -0.375000 -0.375000      2.000000
  0.500000  0.500000  0.000000      1.000000
  0.000000  0.500000  0.500000      1.000000
  0.500000  0.000000  0.500000      1.000000
  0.375000  0.250000  0.125000      2.000000
  0.125000  0.375000  0.250000      2.000000
  0.250000  0.125000  0.375000      2.000000
  0.250000  0.125000 -0.125000      2.000000
  0.375000  0.125000  0.250000      2.000000
  0.125000 -0.250000 -0.125000      2.000000
  0.125000  0.250000 -0.125000      2.000000
  0.125000 -0.125000 -0.250000      2.000000
  0.250000  0.375000  0.125000      2.000000
 -0.125000  0.125000 -0.250000      2.000000
 -0.250000  0.125000 -0.125000      2.000000
  0.125000  0.250000  0.375000      2.000000
  0.500000  0.250000  0.125000      2.000000
  0.125000  0.500000  0.250000      2.000000
  0.250000  0.125000  0.500000      2.000000
  0.250000  0.125000 -0.250000      2.000000
  0.500000  0.250000  0.375000      2.000000
  0.125000 -0.375000 -0.125000      2.000000
  0.125000  0.375000 -0.125000      2.000000
  0.250000 -0.125000 -0.250000      2.000000
 -0.375000 -0.250000  0.500000      2.000000
  0.375000  0.500000  0.250000      2.000000
 -0.125000  0.125000 -0.375000      2.000000
 -0.250000  0.250000  0.125000      2.000000
 -0.125000  0.125000  0.375000      2.000000
 -0.250000  0.250000 -0.125000      2.000000
  0.500000 -0.375000 -0.250000      2.000000
  0.250000  0.375000  0.500000      2.000000
 -0.375000 -0.125000  0.125000      2.000000
  0.125000 -0.250000  0.250000      2.000000
  0.375000 -0.125000  0.125000      2.000000
 -0.125000 -0.250000  0.250000      2.000000
 -0.250000  0.500000 -0.375000      2.000000
  0.500000 -0.125000 -0.250000      2.000000
 -0.250000  0.500000 -0.125000      2.000000
 -0.125000 -0.250000  0.500000      2.000000
 -0.375000  0.250000  0.125000      2.000000
  0.125000 -0.375000  0.250000      2.000000
  0.250000  0.125000 -0.375000      2.000000
 -0.375000  0.375000  0.500000      2.000000
  0.125000  0.500000 -0.125000      2.000000
  0.375000 -0.125000 -0.250000      2.000000
  0.500000 -0.375000  0.375000      2.000000
 -0.125000  0.125000  0.500000      2.000000
 -0.250000  0.375000 -0.125000      2.000000
  0.375000  0.500000 -0.375000      2.000000
  0.500000 -0.125000  0.125000      2.000000
 -0.125000 -0.250000  0.375000      2.000000
  0.500000  0.375000  0.125000      2.000000
  0.125000  0.500000  0.375000      2.000000
  0.375000  0.125000  0.500000      2.000000
  0.375000  0.250000 -0.125000      2.000000
  0.500000  0.125000  0.375000      2.000000
  0.125000 -0.375000 -0.250000      2.000000
  0.250000  0.375000 -0.125000      2.000000
  0.125000 -0.250000 -0.375000      2.000000
  0.375000  0.500000  0.125000      2.000000
 -0.250000  0.125000 -0.375000      2.000000
 -0.375000  0.125000 -0.250000      2.000000
  0.125000  0.375000  0.500000      2.000000
 -0.375000  0.375000  0.125000      2.000000
  0.125000 -0.375000  0.375000      2.000000
  0.375000  0.125000 -0.375000      2.000000
  0.375000  0.250000 -0.250000      2.000000
 -0.375000  0.250000  0.500000      2.000000
  0.125000  0.500000 -0.250000      2.000000
  0.250000  0.500000 -0.125000      2.000000
  0.250000 -0.250000 -0.375000      2.000000
  0.500000 -0.250000  0.375000      2.000000
  0.500000 -0.375000  0.250000      2.000000
 -0.250000  0.125000  0.500000      2.000000
 -0.250000  0.375000  0.250000      2.000000
 -0.125000  0.250000  0.500000      2.000000
 -0.375000  0.250000 -0.250000      2.000000
  0.375000  0.500000 -0.250000      2.000000
  0.250000  0.500000 -0.375000      2.000000
  0.500000 -0.250000  0.125000      2.000000
  0.250000 -0.250000  0.375000      2.000000
  0.500000 -0.125000  0.250000      2.000000
 -0.250000 -0.375000  0.250000      2.000000
 -0.250000  0.375000  0.500000      2.000000
  0.375000 -0.125000 -0.375000      2.000000
 -0.375000  0.375000 -0.125000      2.000000
 -0.125000 -0.375000  0.375000      2.000000
 -0.250000  0.375000  0.125000      2.000000
  0.125000 -0.250000  0.375000      2.000000
  0.375000  0.125000 -0.250000      2.000000
  0.375000  0.250000 -0.375000      2.000000
 -0.250000  0.375000 -0.375000      2.000000
  0.125000  0.375000 -0.250000      2.000000
  0.375000 -0.250000 -0.375000      2.000000
  0.375000 -0.375000  0.250000      2.000000
 -0.250000  0.125000  0.375000      2.000000
 -0.375000  0.375000  0.250000      2.000000
  0.250000  0.375000 -0.375000      2.000000
  0.375000 -0.250000  0.125000      2.000000
 -0.375000  0.500000  0.125000      2.000000
  0.125000 -0.375000  0.500000      2.000000
  0.500000  0.125000 -0.375000      2.000000
  0.500000  0.375000 -0.125000      2.000000
 -0.375000  0.125000  0.500000      2.000000
  0.125000  0.500000 -0.375000      2.000000
 -0.250000  0.500000  0.250000      2.000000
  0.250000 -0.250000  0.500000      2.000000
  0.500000  0.250000 -0.250000      2.000000
 
 Following cartesian coordinates:
            Coordinates               Weight
  0.000000  0.000000  0.000000      1.000000
 -0.023020  0.023020  0.023020      2.000000
  0.023020 -0.023020  0.023020      2.000000
  0.023020  0.023020 -0.023020      2.000000
  0.023020  0.023020  0.023020      2.000000
 -0.046041  0.046041  0.046041      2.000000
  0.046041 -0.046041  0.046041      2.000000
  0.046041  0.046041 -0.046041      2.000000
  0.046041  0.046041  0.046041      2.000000
 -0.069061  0.069061  0.069061      2.000000
  0.069061 -0.069061  0.069061      2.000000
  0.069061  0.069061 -0.069061      2.000000
  0.069061  0.069061  0.069061      2.000000
 -0.092081  0.092081  0.092081      1.000000
  0.092081 -0.092081  0.092081      1.000000
  0.092081  0.092081 -0.092081      1.000000
  0.092081  0.092081  0.092081      1.000000
  0.000000  0.000000  0.046041      2.000000
  0.046041  0.000000  0.000000      2.000000
 -0.000000  0.046041  0.000000      2.000000
 -0.023020  0.023020  0.069061      2.000000
  0.069061 -0.023020  0.023020      2.000000
  0.023020  0.069061 -0.023020      2.000000
 -0.023020 -0.023020  0.069061      2.000000
  0.023020  0.069061  0.023020      2.000000
  0.023020 -0.023020  0.069061      2.000000
 -0.069061  0.023020  0.023020      2.000000
  0.023020  0.023020  0.069061      2.000000
  0.069061  0.023020 -0.023020      2.000000
  0.023020 -0.069061  0.023020      2.000000
  0.069061  0.023020  0.023020      2.000000
 -0.023020  0.069061  0.023020      2.000000
 -0.046041  0.046041  0.092081      2.000000
  0.092081 -0.046041  0.046041      2.000000
  0.046041  0.092081 -0.046041      2.000000
 -0.046041 -0.046041  0.092081      2.000000
  0.046041  0.092081  0.046041      2.000000
  0.046041 -0.046041  0.092081      2.000000
 -0.092081  0.046041  0.046041      2.000000
  0.046041  0.046041  0.092081      2.000000
  0.092081  0.046041 -0.046041      2.000000
  0.046041 -0.092081  0.046041      2.000000
  0.092081  0.046041  0.046041      2.000000
 -0.046041  0.092081  0.046041      2.000000
 -0.069061  0.069061  0.115101      2.000000
  0.115101 -0.069061  0.069061      2.000000
  0.069061  0.115101 -0.069061      2.000000
 -0.069061 -0.069061  0.115101      2.000000
  0.069061  0.115101  0.069061      2.000000
  0.069061 -0.069061  0.115101      2.000000
 -0.115101  0.069061  0.069061      2.000000
  0.069061  0.069061  0.115101      2.000000
  0.115101  0.069061 -0.069061      2.000000
  0.069061 -0.115101  0.069061      2.000000
  0.115101  0.069061  0.069061      2.000000
 -0.069061  0.115101  0.069061      2.000000
  0.092081 -0.092081 -0.046041      2.000000
 -0.046041  0.092081 -0.092081      2.000000
 -0.092081 -0.046041  0.092081      2.000000
  0.092081  0.092081 -0.046041      2.000000
  0.092081 -0.230203  0.092081      2.000000
 -0.092081  0.092081 -0.046041      2.000000
 -0.138122  0.092081  0.092081      2.000000
  0.092081  0.092081 -0.230203      2.000000
 -0.046041 -0.092081  0.092081      2.000000
  0.092081 -0.138122  0.092081      2.000000
 -0.230203  0.092081  0.092081      2.000000
  0.092081 -0.046041 -0.092081      2.000000
  0.069061 -0.069061 -0.023020      2.000000
 -0.023020  0.069061 -0.069061      2.000000
 -0.069061 -0.023020  0.069061      2.000000
  0.069061  0.069061 -0.023020      2.000000
 -0.069061 -0.023020 -0.069061      2.000000
 -0.069061  0.069061 -0.023020      2.000000
  0.023020 -0.069061 -0.069061      2.000000
 -0.069061 -0.069061 -0.023020      2.000000
 -0.023020 -0.069061  0.069061      2.000000
 -0.069061  0.023020 -0.069061      2.000000
 -0.023020 -0.069061 -0.069061      2.000000
  0.069061 -0.023020 -0.069061      2.000000
  0.046041 -0.046041 -0.000000      2.000000
 -0.000000  0.046041 -0.046041      2.000000
 -0.046041 -0.000000  0.046041      2.000000
  0.046041  0.046041  0.000000      2.000000
 -0.046041 -0.000000 -0.046041      2.000000
  0.000000 -0.046041 -0.046041      2.000000
  0.000000  0.000000  0.092081      2.000000
  0.092081  0.000000  0.000000      2.000000
 -0.000000  0.092081  0.000000      2.000000
 -0.023020  0.023020  0.115101      2.000000
  0.115101 -0.023020  0.023020      2.000000
  0.023020  0.115101 -0.023020      2.000000
 -0.023020 -0.023020  0.115101      2.000000
  0.023020  0.115101  0.023020      2.000000
  0.023020 -0.023020  0.115101      2.000000
 -0.115101  0.023020  0.023020      2.000000
  0.023020  0.023020  0.115101      2.000000
  0.115101  0.023020 -0.023020      2.000000
  0.023020 -0.115101  0.023020      2.000000
  0.115101  0.023020  0.023020      2.000000
 -0.023020  0.115101  0.023020      2.000000
 -0.046041  0.046041  0.138122      2.000000
  0.138122 -0.046041  0.046041      2.000000
  0.046041  0.138122 -0.046041      2.000000
 -0.046041 -0.046041  0.138122      2.000000
  0.046041  0.138122  0.046041      2.000000
  0.046041 -0.046041  0.138122      2.000000
 -0.138122  0.046041  0.046041      2.000000
  0.046041  0.046041  0.138122      2.000000
  0.138122  0.046041 -0.046041      2.000000
  0.046041 -0.138122  0.046041      2.000000
  0.138122  0.046041  0.046041      2.000000
 -0.046041  0.138122  0.046041      2.000000
  0.115101 -0.115101 -0.023020      2.000000
 -0.023020  0.115101 -0.115101      2.000000
 -0.115101 -0.023020  0.115101      2.000000
 -0.069061 -0.069061  0.161142      2.000000
  0.069061 -0.207182  0.069061      2.000000
 -0.115101  0.115101 -0.023020      2.000000
 -0.161142  0.069061  0.069061      2.000000
  0.069061  0.069061 -0.207182      2.000000
 -0.023020 -0.115101  0.115101      2.000000
  0.069061 -0.161142  0.069061      2.000000
 -0.207182  0.069061  0.069061      2.000000
  0.115101 -0.023020 -0.115101      2.000000
  0.092081 -0.092081 -0.000000      2.000000
 -0.000000  0.092081 -0.092081      2.000000
 -0.092081  0.000000  0.092081      2.000000
  0.092081  0.092081  0.000000      2.000000
  0.092081 -0.184162  0.092081      2.000000
 -0.184162  0.092081  0.092081      2.000000
 -0.000000  0.000000  0.138122      2.000000
  0.138122  0.000000  0.000000      2.000000
 -0.000000  0.138122  0.000000      2.000000
 -0.023020  0.023020  0.161142      2.000000
  0.161142 -0.023020  0.023020      2.000000
  0.023020  0.161142 -0.023020      2.000000
 -0.023020 -0.023020  0.161142      2.000000
  0.023020  0.161142  0.023020      2.000000
  0.023020 -0.023020  0.161142      2.000000
 -0.161142  0.023020  0.023020      2.000000
  0.023020  0.023020  0.161142      2.000000
  0.161142  0.023020 -0.023020      2.000000
  0.023020 -0.161142  0.023020      2.000000
  0.161142  0.023020  0.023020      2.000000
 -0.023020  0.161142  0.023020      2.000000
  0.138122 -0.138122 -0.000000      2.000000
 -0.000000  0.138122 -0.138122      2.000000
 -0.138122  0.000000  0.138122      2.000000
 -0.046041 -0.046041  0.184162      2.000000
  0.046041 -0.184162  0.046041      2.000000
 -0.184162  0.046041  0.046041      2.000000
  0.000000  0.000000  0.184162      1.000000
  0.184162  0.000000  0.000000      1.000000
 -0.000000  0.184162  0.000000      1.000000
  0.000000  0.046041  0.092081      2.000000
  0.092081  0.000000  0.046041      2.000000
  0.046041  0.092081  0.000000      2.000000
 -0.046041  0.000000  0.092081      2.000000
 -0.000000  0.092081  0.046041      2.000000
 -0.092081  0.046041 -0.000000      2.000000
  0.000000 -0.046041  0.092081      2.000000
 -0.092081  0.000000  0.046041      2.000000
  0.046041 -0.000000  0.092081      2.000000
  0.000000 -0.092081  0.046041      2.000000
  0.046041 -0.092081 -0.000000      2.000000
  0.092081  0.046041  0.000000      2.000000
 -0.023020  0.069061  0.115101      2.000000
  0.115101 -0.023020  0.069061      2.000000
  0.069061  0.115101 -0.023020      2.000000
 -0.069061 -0.023020  0.115101      2.000000
  0.023020  0.115101  0.069061      2.000000
 -0.115101  0.069061 -0.023020      2.000000
  0.023020 -0.069061  0.115101      2.000000
 -0.115101  0.023020  0.069061      2.000000
  0.115101  0.069061 -0.207182      2.000000
  0.069061  0.023020  0.115101      2.000000
 -0.023020 -0.115101  0.069061      2.000000
  0.115101 -0.069061 -0.023020      2.000000
  0.115101  0.023020 -0.069061      2.000000
  0.069061 -0.115101  0.023020      2.000000
 -0.207182  0.115101  0.069061      2.000000
  0.115101  0.069061  0.023020      2.000000
  0.069061 -0.023020 -0.115101      2.000000
 -0.023020  0.115101 -0.069061      2.000000
 -0.069061  0.115101  0.023020      2.000000
  0.023020  0.069061 -0.115101      2.000000
  0.069061 -0.207182  0.115101      2.000000
 -0.161142  0.069061  0.115101      2.000000
  0.115101 -0.161142  0.069061      2.000000
  0.069061  0.115101 -0.161142      2.000000
  0.138122 -0.092081 -0.046041      2.000000
 -0.046041  0.138122 -0.092081      2.000000
 -0.092081 -0.046041  0.138122      2.000000
  0.230203 -0.046041 -0.092081      2.000000
  0.046041 -0.092081  0.138122      2.000000
 -0.138122  0.046041  0.092081      2.000000
 -0.092081  0.230203 -0.046041      2.000000
  0.138122  0.046041 -0.092081      2.000000
  0.092081 -0.138122  0.046041      2.000000
 -0.046041 -0.092081  0.230203      2.000000
 -0.092081  0.138122  0.046041      2.000000
  0.046041  0.092081 -0.138122      2.000000
 -0.000000  0.046041  0.138122      2.000000
  0.138122  0.000000  0.046041      2.000000
  0.046041  0.138122  0.000000      2.000000
 -0.046041  0.000000  0.138122      2.000000
 -0.000000  0.138122  0.046041      2.000000
 -0.138122  0.046041  0.000000      2.000000
  0.000000 -0.046041  0.138122      2.000000
 -0.138122 -0.000000  0.046041      2.000000
  0.046041  0.000000  0.138122      2.000000
  0.000000 -0.138122  0.046041      2.000000
  0.046041 -0.138122 -0.000000      2.000000
  0.138122  0.046041  0.000000      2.000000
  0.161142 -0.115101 -0.023020      2.000000
 -0.023020  0.161142 -0.115101      2.000000
 -0.115101 -0.023020  0.161142      2.000000
 -0.069061 -0.023020  0.161142      2.000000
  0.207182 -0.023020 -0.115101      2.000000
  0.023020 -0.115101  0.161142      2.000000
  0.023020 -0.069061  0.161142      2.000000
 -0.161142  0.023020  0.069061      2.000000
 -0.069061  0.207182 -0.023020      2.000000
 -0.115101  0.207182 -0.023020      2.000000
  0.161142  0.023020 -0.115101      2.000000
  0.161142 -0.069061 -0.023020      2.000000
  0.161142  0.023020 -0.069061      2.000000
  0.069061 -0.161142  0.023020      2.000000
 -0.023020 -0.069061  0.207182      2.000000
 -0.023020 -0.115101  0.207182      2.000000
 -0.115101  0.161142  0.023020      2.000000
 -0.023020  0.161142 -0.069061      2.000000
 -0.069061  0.161142  0.023020      2.000000
  0.023020  0.069061 -0.161142      2.000000
  0.207182 -0.023020 -0.069061      2.000000
 -0.161142  0.023020  0.115101      2.000000
  0.115101 -0.161142  0.023020      2.000000
  0.023020  0.115101 -0.161142      2.000000
  0.138122 -0.092081 -0.000000      2.000000
 -0.000000  0.138122 -0.092081      2.000000
 -0.092081  0.000000  0.138122      2.000000
 -0.092081 -0.046041  0.184162      2.000000
  0.046041 -0.184162  0.092081      2.000000
  0.000000 -0.092081  0.138122      2.000000
 -0.184162  0.046041  0.092081      2.000000
 -0.092081  0.184162 -0.046041      2.000000
  0.138122 -0.000000 -0.092081      2.000000
  0.184162 -0.092081 -0.046041      2.000000
 -0.046041 -0.092081  0.184162      2.000000
 -0.092081  0.138122  0.000000      2.000000
  0.184162 -0.138122 -0.000000      2.000000
 -0.000000  0.184162 -0.138122      2.000000
 -0.138122  0.000000  0.184162      2.000000
 -0.046041 -0.000000  0.184162      2.000000
  0.184162 -0.000000 -0.138122      2.000000
  0.000000 -0.138122  0.184162      2.000000
  0.184162 -0.092081  0.000000      2.000000
 -0.000000  0.184162 -0.092081      2.000000
 -0.092081  0.000000  0.184162      2.000000
 


--------------------------------------------------------------------------------------------------------




 Dimension of arrays:
   k-points           NKPTS =    260   k-points in BZ     NKDIM =    260   number of bands    NBANDS=      8
   number of dos      NEDOS =    301   number of ions     NIONS =      2
   non local maximal  LDIM  =      4   non local SUM 2l+1 LMDIM =      8
   total plane-waves  NPLWV =  13824
   max r-space proj   IRMAX =      1   max aug-charges    IRDMAX=  11746
   dimension x,y,z NGX =    24 NGY =   24 NGZ =   24
   dimension x,y,z NGXF=    48 NGYF=   48 NGZF=   48
   support grid    NGXF=    48 NGYF=   48 NGZF=   48
   ions per type =               2
   NGX,Y,Z   is equivalent  to a cutoff of  10.39, 10.39, 10.39 a.u.
   NGXF,Y,Z  is equivalent  to a cutoff of  20.78, 20.78, 20.78 a.u.

 SYSTEM =  unknown system                          
 POSCAR =  Si                                      

 Startparameter for this run:
   NWRITE =      2    write-flag & timer
   PREC   = accura    normal or accurate (medium, high low for compatibility)
   ISTART =      0    job   : 0-new  1-cont  2-samecut
   ICHARG =      2    charge: 1-file 2-atom 10-const
   ISPIN  =      1    spin polarized calculation?
   LNONCOLLINEAR =      F non collinear calculations
   LSORBIT =      F    spin-orbit coupling
   INIWAV =      1    electr: 0-lowe 1-rand  2-diag
   LASPH  =      F    aspherical Exc in radial PAW
 Electronic Relaxation 1
   ENCUT  =  320.0 eV  23.52 Ry    4.85 a.u.   5.60  5.60  5.60*2*pi/ulx,y,z
   ENINI  =  320.0     initial cutoff
   ENAUG  =  322.1 eV  augmentation charge cutoff
   NELM   =     60;   NELMIN=  2; NELMDL= -5     # of ELM steps 
   EDIFF  = 0.1E-06   stopping-criterion for ELM
   LREAL  =      F    real-space projection
   NLSPLINE    = F    spline interpolate recip. space projectors
   LCOMPAT=      F    compatible to vasp.4.4
   GGA_COMPAT  = T    GGA compatible to vasp.4.4-vasp.4.6
   LMAXPAW     = -100 max onsite density
   LMAXMIX     =    2 max onsite mixed and CHGCAR
   VOSKOWN=      0    Vosko Wilk Nusair interpolation
   ROPT   =    0.00000
 Ionic relaxation
   EDIFFG = 0.1E-05   stopping-criterion for IOM
   NSW    =      0    number of steps for IOM
   NBLOCK =      1;   KBLOCK =      1    inner block; outer block 
   IBRION =     -1    ionic relax: 0-MD 1-quasi-New 2-CG
   NFREE  =      0    steps in history (QN), initial steepest desc. (CG)
   ISIF   =      2    stress and relaxation
   IWAVPR =     10    prediction:  0-non 1-charg 2-wave 3-comb
   ISYM   =      0    0-nonsym 1-usesym 2-fastsym
   LCORR  =      T    Harris-Foulkes like correction to forces

   POTIM  = 0.5000    time-step for ionic-motion
   TEIN   =    0.0    initial temperature
   TEBEG  =    0.0;   TEEND  =   0.0 temperature during run
   SMASS  =  -3.00    Nose mass-parameter (am)
   estimated Nose-frequenzy (Omega)   =  0.10E-29 period in steps = 0.13E+47 mass=  -0.337E-27a.u.
   SCALEE = 1.0000    scale energy and forces
   NPACO  =    256;   APACO  = 10.0  distance and # of slots for P.C.
   PSTRESS=    0.0 pullay stress

  Mass of Ions in am
   POMASS =  28.09
  Ionic Valenz
   ZVAL   =   4.00
  Atomic Wigner-Seitz radii
   RWIGS  =  -1.00
  virtual crystal weights 
   VCA    =   1.00
   NELECT =       8.0000    total number of electrons
   NUPDOWN=      -1.0000    fix difference up-down

 DOS related values:
   EMIN   =  10.00;   EMAX   =-10.00  energy-range for DOS
   EFERMI =   0.00
   ISMEAR =     0;   SIGMA  =   0.05  broadening in eV -4-tet -1-fermi 0-gaus

 Electronic relaxation 2 (details)
   IALGO  =     38    algorithm
   LDIAG  =      T    sub-space diagonalisation (order eigenvalues)
   LSUBROT=      F    optimize rotation matrix (better conditioning)
   TURBO    =      0    0=normal 1=particle mesh
   IRESTART =      0    0=no restart 2=restart with 2 vectors
   NREBOOT  =      0    no. of reboots
   NMIN     =      0    reboot dimension
   EREF     =   0.00    reference energy to select bands
   IMIX   =      4    mixing-type and parameters
     AMIX     =   0.40;   BMIX     =  1.00
     AMIX_MAG =   1.60;   BMIX_MAG =  1.00
     AMIN     =   0.10
     WC   =   100.;   INIMIX=   1;  MIXPRE=   1;  MAXMIX= -45

 Intra band minimization:
   WEIMIN = 0.0000     energy-eigenvalue tresh-hold
   EBREAK =  0.31E-08  absolut break condition
   DEPER  =   0.30     relativ break condition  

   TIME   =   0.40     timestep for ELM

  volume/ion in A,a.u.               =      20.01       135.05
  Fermi-wavevector in a.u.,A,eV,Ry     =   0.957176  1.808800 12.465458  0.916185
  Thomas-Fermi vector in A             =   2.086170
 
 Write flags
   LWAVE        =      T    write WAVECAR
   LDOWNSAMPLE  =      F    k-point downsampling of WAVECAR
   LCHARG       =      T    write CHGCAR
   LVTOT        =      F    write LOCPOT, total local potential
   LVHAR        =      F    write LOCPOT, Hartree potential only
   LELF         =      F    write electronic localiz. function (ELF)
   LORBIT       =      0    0 simple, 1 ext, 2 COOP (PROOUT), +10 PAW based schemes


 Dipole corrections
   LMONO  =      F    monopole corrections only (constant potential shift)
   LDIPOL =      F    correct potential (dipole corrections)
   IDIPOL =      0    1-x, 2-y, 3-z, 4-all directions 
   EPSILON=  1.0000000 bulk dielectric constant

 Exchange correlation treatment:
   GGA     =    PE    GGA type
   LEXCH   =     8    internal setting for exchange type
   LIBXC   =     F    Libxc                    
   VOSKOWN =     0    Vosko Wilk Nusair interpolation
   LHFCALC =     F    Hartree Fock is set to
   LHFONE  =     F    Hartree Fock one center treatment
   AEXX    =    0.0000 exact exchange contribution

 Linear response parameters
   LEPSILON=     F    determine dielectric tensor
   LRPA    =     F    only Hartree local field effects (RPA)
   LNABLA  =     F    use nabla operator in PAW spheres
   LVEL    =     F    velocity operator in full k-point grid
   CSHIFT  =0.1000    complex shift for real part using Kramers Kronig
   OMEGAMAX=  -1.0    maximum frequency
   DEG_THRESHOLD= 0.2000000E-02 threshold for treating states as degnerate
   RTIME   =   -0.100 relaxation time in fs
  (WPLASMAI=    0.000 imaginary part of plasma frequency in eV, 0.658/RTIME)
   DFIELD  = 0.0000000 0.0000000 0.0000000 field for delta impulse in time
 
  Optional k-point grid parameters
   LKPOINTS_OPT  =     F    use optional k-point grid
   KPOINTS_OPT_MODE=     1    mode for optional k-point grid
 
 Orbital magnetization related:
   ORBITALMAG=     F  switch on orbital magnetization
   LCHIMAG   =     F  perturbation theory with respect to B field
   DQ        =  0.001000  dq finite difference perturbation B field
   LLRAUG    =     F  two centre corrections for induced B field



--------------------------------------------------------------------------------------------------------


 Static calculation
 charge density and potential will be updated during run
 non-spin polarized calculation
 Variant of blocked Davidson
 Davidson routine will perform the subspace rotation
 perform sub-space diagonalisation
    after iterative eigenvector-optimisation
 modified Broyden-mixing scheme, WC =      100.0
 initial mixing is a Kerker type mixing with AMIX =  0.4000 and BMIX =      1.0000
 Hartree-type preconditioning will be used
 using additional bands            4
 reciprocal scheme for non local part
 use partial core corrections
 calculate Harris-corrections to forces 
   (improved forces if not selfconsistent)
 use gradient corrections 
 use of overlap-Matrix (Vanderbilt PP)
 Gauss-broadening in eV      SIGMA  =   0.05


--------------------------------------------------------------------------------------------------------


  energy-cutoff  :      320.00
  volume of cell :       40.03
      direct lattice vectors                 reciprocal lattice vectors
     0.000000000  2.715000000  2.715000000    -0.184162063  0.184162063  0.184162063
     2.715000000  0.000000000  2.715000000     0.184162063 -0.184162063  0.184162063
     2.715000000  2.715000000  0.000000000     0.184162063  0.184162063 -0.184162063

  length of vectors
     3.839589822  3.839589822  3.839589822     0.318978049  0.318978049  0.318978049


 
 k-points in units of 2pi/SCALE and weight: auto                                    
   0.00000000  0.00000000  0.00000000       0.002
  -0.02302026  0.02302026  0.02302026       0.004
   0.02302026 -0.02302026  0.02302026       0.004
   0.02302026  0.02302026 -0.02302026       0.004
   0.02302026  0.02302026  0.02302026       0.004
  -0.04604052  0.04604052  0.04604052       0.004
   0.04604052 -0.04604052  0.04604052       0.004
   0.04604052  0.04604052 -0.04604052       0.004
   0.04604052  0.04604052  0.04604052       0.004
  -0.06906077  0.06906077  0.06906077       0.004
   0.06906077 -0.06906077  0.06906077       0.004
   0.06906077  0.06906077 -0.06906077       0.004
   0.06906077  0.06906077  0.06906077       0.004
  -0.09208103  0.09208103  0.09208103       0.002
   0.09208103 -0.09208103  0.09208103       0.002
   0.09208103  0.09208103 -0.09208103       0.002
   0.09208103  0.09208103  0.09208103       0.002
   0.00000000  0.00000000  0.04604052       0.004
   0.04604052  0.00000000  0.00000000       0.004
  -0.00000000  0.04604052  0.00000000       0.004
  -0.02302026  0.02302026  0.06906077       0.004
   0.06906077 -0.02302026  0.02302026       0.004
   0.02302026  0.06906077 -0.02302026       0.004
  -0.02302026 -0.02302026  0.06906077       0.004
   0.02302026  0.06906077  0.02302026       0.004
   0.02302026 -0.02302026  0.06906077       0.004
  -0.06906077  0.02302026  0.02302026       0.004
   0.02302026  0.02302026  0.06906077       0.004
   0.06906077  0.02302026 -0.02302026       0.004
   0.02302026 -0.06906077  0.02302026       0.004
   0.06906077  0.02302026  0.02302026       0.004
  -0.02302026  0.06906077  0.02302026       0.004
  -0.04604052  0.04604052  0.09208103       0.004
   0.09208103 -0.04604052  0.04604052       0.004
   0.04604052  0.09208103 -0.04604052       0.004
  -0.04604052 -0.04604052  0.09208103       0.004
   0.04604052  0.09208103  0.04604052       0.004
   0.04604052 -0.04604052  0.09208103       0.004
  -0.09208103  0.04604052  0.04604052       0.004
   0.04604052  0.04604052  0.09208103       0.004
   0.09208103  0.04604052 -0.04604052       0.004
   0.04604052 -0.09208103  0.04604052       0.004
   0.09208103  0.04604052  0.04604052       0.004
  -0.04604052  0.09208103  0.04604052       0.004
  -0.06906077  0.06906077  0.11510129       0.004
   0.11510129 -0.06906077  0.06906077       0.004
   0.06906077  0.11510129 -0.06906077       0.004
  -0.06906077 -0.06906077  0.11510129       0.004
   0.06906077  0.11510129  0.06906077       0.004
   0.06906077 -0.06906077  0.11510129       0.004
  -0.11510129  0.06906077  0.06906077       0.004
   0.06906077  0.06906077  0.11510129       0.004
   0.11510129  0.06906077 -0.06906077       0.004
   0.06906077 -0.11510129  0.06906077       0.004
   0.11510129  0.06906077  0.06906077       0.004
  -0.06906077  0.11510129  0.06906077       0.004
   0.09208103 -0.09208103 -0.04604052       0.004
  -0.04604052  0.09208103 -0.09208103       0.004
  -0.09208103 -0.04604052  0.09208103       0.004
   0.09208103  0.09208103 -0.04604052       0.004
   0.09208103 -0.23020258  0.09208103       0.004
  -0.09208103  0.09208103 -0.04604052       0.004
  -0.13812155  0.09208103  0.09208103       0.004
   0.09208103  0.09208103 -0.23020258       0.004
  -0.04604052 -0.09208103  0.09208103       0.004
   0.09208103 -0.13812155  0.09208103       0.004
  -0.23020258  0.09208103  0.09208103       0.004
   0.09208103 -0.04604052 -0.09208103       0.004
   0.06906077 -0.06906077 -0.02302026       0.004
  -0.02302026  0.06906077 -0.06906077       0.004
  -0.06906077 -0.02302026  0.06906077       0.004
   0.06906077  0.06906077 -0.02302026       0.004
  -0.06906077 -0.02302026 -0.06906077       0.004
  -0.06906077  0.06906077 -0.02302026       0.004
   0.02302026 -0.06906077 -0.06906077       0.004
  -0.06906077 -0.06906077 -0.02302026       0.004
  -0.02302026 -0.06906077  0.06906077       0.004
  -0.06906077  0.02302026 -0.06906077       0.004
  -0.02302026 -0.06906077 -0.06906077       0.004
   0.06906077 -0.02302026 -0.06906077       0.004
   0.04604052 -0.04604052 -0.00000000       0.004
  -0.00000000  0.04604052 -0.04604052       0.004
  -0.04604052 -0.00000000  0.04604052       0.004
   0.04604052  0.04604052  0.00000000       0.004
  -0.04604052 -0.00000000 -0.04604052       0.004
   0.00000000 -0.04604052 -0.04604052       0.004
   0.00000000  0.00000000  0.09208103       0.004
   0.09208103  0.00000000  0.00000000       0.004
  -0.00000000  0.09208103  0.00000000       0.004
  -0.02302026  0.02302026  0.11510129       0.004
   0.11510129 -0.02302026  0.02302026       0.004
   0.02302026  0.11510129 -0.02302026       0.004
  -0.02302026 -0.02302026  0.11510129       0.004
   0.02302026  0.11510129  0.02302026       0.004
   0.02302026 -0.02302026  0.11510129       0.004
  -0.11510129  0.02302026  0.02302026       0.004
   0.02302026  0.02302026  0.11510129       0.004
   0.11510129  0.02302026 -0.02302026       0.004
   0.02302026 -0.11510129  0.02302026       0.004
   0.11510129  0.02302026  0.02302026       0.004
  -0.02302026  0.11510129  0.02302026       0.004
  -0.04604052  0.04604052  0.13812155       0.004
   0.13812155 -0.04604052  0.04604052       0.004
   0.04604052  0.13812155 -0.04604052       0.004
  -0.04604052 -0.04604052  0.13812155       0.004
   0.04604052  0.13812155  0.04604052       0.004
   0.04604052 -0.04604052  0.13812155       0.004
  -0.13812155  0.04604052  0.04604052       0.004
   0.04604052  0.04604052  0.13812155       0.004
   0.13812155  0.04604052 -0.04604052       0.004
   0.04604052 -0.13812155  0.04604052       0.004
   0.13812155  0.04604052  0.04604052       0.004
  -0.04604052  0.13812155  0.04604052       0.004
   0.11510129 -0.11510129 -0.02302026       0.004
  -0.02302026  0.11510129 -0.11510129       0.004
  -0.11510129 -0.02302026  0.11510129       0.004
  -0.06906077 -0.06906077  0.16114180       0.004
   0.06906077 -0.20718232  0.06906077       0.004
  -0.11510129  0.11510129 -0.02302026       0.004
  -0.16114180  0.06906077  0.06906077       0.004
   0.06906077  0.06906077 -0.20718232       0.004
  -0.02302026 -0.11510129  0.11510129       0.004
   0.06906077 -0.16114180  0.06906077       0.004
  -0.20718232  0.06906077  0.06906077       0.004
   0.11510129 -0.02302026 -0.11510129       0.004
   0.09208103 -0.09208103 -0.00000000       0.004
  -0.00000000  0.09208103 -0.09208103       0.004
  -0.09208103 -0.00000000  0.09208103       0.004
   0.09208103  0.09208103  0.00000000       0.004
   0.09208103 -0.18416206  0.09208103       0.004
  -0.18416206  0.09208103  0.09208103       0.004
  -0.00000000  0.00000000  0.13812155       0.004
   0.13812155  0.00000000  0.00000000       0.004
  -0.00000000  0.13812155  0.00000000       0.004
  -0.02302026  0.02302026  0.16114180       0.004
   0.16114180 -0.02302026  0.02302026       0.004
   0.02302026  0.16114180 -0.02302026       0.004
  -0.02302026 -0.02302026  0.16114180       0.004
   0.02302026  0.16114180  0.02302026       0.004
   0.02302026 -0.02302026  0.16114180       0.004
  -0.16114180  0.02302026  0.02302026       0.004
   0.02302026  0.02302026  0.16114180       0.004
   0.16114180  0.02302026 -0.02302026       0.004
   0.02302026 -0.16114180  0.02302026       0.004
   0.16114180  0.02302026  0.02302026       0.004
  -0.02302026  0.16114180  0.02302026       0.004
   0.13812155 -0.13812155 -0.00000000       0.004
  -0.00000000  0.13812155 -0.13812155       0.004
  -0.13812155  0.00000000  0.13812155       0.004
  -0.04604052 -0.04604052  0.18416206       0.004
   0.04604052 -0.18416206  0.04604052       0.004
  -0.18416206  0.04604052  0.04604052       0.004
   0.00000000  0.00000000  0.18416206       0.002
   0.18416206  0.00000000  0.00000000       0.002
  -0.00000000  0.18416206  0.00000000       0.002
   0.00000000  0.04604052  0.09208103       0.004
   0.09208103  0.00000000  0.04604052       0.004
   0.04604052  0.09208103  0.00000000       0.004
  -0.04604052  0.00000000  0.09208103       0.004
  -0.00000000  0.09208103  0.04604052       0.004
  -0.09208103  0.04604052  0.00000000       0.004
   0.00000000 -0.04604052  0.09208103       0.004
  -0.09208103 -0.00000000  0.04604052       0.004
   0.04604052 -0.00000000  0.09208103       0.004
   0.00000000 -0.09208103  0.04604052       0.004
   0.04604052 -0.09208103 -0.00000000       0.004
   0.09208103  0.04604052  0.00000000       0.004
  -0.02302026  0.06906077  0.11510129       0.004
   0.11510129 -0.02302026  0.06906077       0.004
   0.06906077  0.11510129 -0.02302026       0.004
  -0.06906077 -0.02302026  0.11510129       0.004
   0.02302026  0.11510129  0.06906077       0.004
  -0.11510129  0.06906077 -0.02302026       0.004
   0.02302026 -0.06906077  0.11510129       0.004
  -0.11510129  0.02302026  0.06906077       0.004
   0.11510129  0.06906077 -0.20718232       0.004
   0.06906077  0.02302026  0.11510129       0.004
  -0.02302026 -0.11510129  0.06906077       0.004
   0.11510129 -0.06906077 -0.02302026       0.004
   0.11510129  0.02302026 -0.06906077       0.004
   0.06906077 -0.11510129  0.02302026       0.004
  -0.20718232  0.11510129  0.06906077       0.004
   0.11510129  0.06906077  0.02302026       0.004
   0.06906077 -0.02302026 -0.11510129       0.004
  -0.02302026  0.11510129 -0.06906077       0.004
  -0.06906077  0.11510129  0.02302026       0.004
   0.02302026  0.06906077 -0.11510129       0.004
   0.06906077 -0.20718232  0.11510129       0.004
  -0.16114180  0.06906077  0.11510129       0.004
   0.11510129 -0.16114180  0.06906077       0.004
   0.06906077  0.11510129 -0.16114180       0.004
   0.13812155 -0.09208103 -0.04604052       0.004
  -0.04604052  0.13812155 -0.09208103       0.004
  -0.09208103 -0.04604052  0.13812155       0.004
   0.23020258 -0.04604052 -0.09208103       0.004
   0.04604052 -0.09208103  0.13812155       0.004
  -0.13812155  0.04604052  0.09208103       0.004
  -0.09208103  0.23020258 -0.04604052       0.004
   0.13812155  0.04604052 -0.09208103       0.004
   0.09208103 -0.13812155  0.04604052       0.004
  -0.04604052 -0.09208103  0.23020258       0.004
  -0.09208103  0.13812155  0.04604052       0.004
   0.04604052  0.09208103 -0.13812155       0.004
  -0.00000000  0.04604052  0.13812155       0.004
   0.13812155  0.00000000  0.04604052       0.004
   0.04604052  0.13812155  0.00000000       0.004
  -0.04604052  0.00000000  0.13812155       0.004
  -0.00000000  0.13812155  0.04604052       0.004
  -0.13812155  0.04604052  0.00000000       0.004
   0.00000000 -0.04604052  0.13812155       0.004
  -0.13812155 -0.00000000  0.04604052       0.004
   0.04604052 -0.00000000  0.13812155       0.004
   0.00000000 -0.13812155  0.04604052       0.004
   0.04604052 -0.13812155 -0.00000000       0.004
   0.13812155  0.04604052  0.00000000       0.004
   0.16114180 -0.11510129 -0.02302026       0.004
  -0.02302026  0.16114180 -0.11510129       0.004
  -0.11510129 -0.02302026  0.16114180       0.004
  -0.06906077 -0.02302026  0.16114180       0.004
   0.20718232 -0.02302026 -0.11510129       0.004
   0.02302026 -0.11510129  0.16114180       0.004
   0.02302026 -0.06906077  0.16114180       0.004
  -0.16114180  0.02302026  0.06906077       0.004
  -0.06906077  0.20718232 -0.02302026       0.004
  -0.11510129  0.20718232 -0.02302026       0.004
   0.16114180  0.02302026 -0.11510129       0.004
   0.16114180 -0.06906077 -0.02302026       0.004
   0.16114180  0.02302026 -0.06906077       0.004
   0.06906077 -0.16114180  0.02302026       0.004
  -0.02302026 -0.06906077  0.20718232       0.004
  -0.02302026 -0.11510129  0.20718232       0.004
  -0.11510129  0.16114180  0.02302026       0.004
  -0.02302026  0.16114180 -0.06906077       0.004
  -0.06906077  0.16114180  0.02302026       0.004
   0.02302026  0.06906077 -0.16114180       0.004
   0.20718232 -0.02302026 -0.06906077       0.004
  -0.16114180  0.02302026  0.11510129       0.004
   0.11510129 -0.16114180  0.02302026       0.004
   0.02302026  0.11510129 -0.16114180       0.004
   0.13812155 -0.09208103 -0.00000000       0.004
  -0.00000000  0.13812155 -0.09208103       0.004
  -0.09208103  0.00000000  0.13812155       0.004
  -0.09208103 -0.04604052  0.18416206       0.004
   0.04604052 -0.18416206  0.09208103       0.004
   0.00000000 -0.09208103  0.13812155       0.004
  -0.18416206  0.04604052  0.09208103       0.004
  -0.09208103  0.18416206 -0.04604052       0.004
   0.13812155 -0.00000000 -0.09208103       0.004
   0.18416206 -0.09208103 -0.04604052       0.004
  -0.04604052 -0.09208103  0.18416206       0.004
  -0.09208103  0.13812155  0.00000000       0.004
   0.18416206 -0.13812155 -0.00000000       0.004
  -0.00000000  0.18416206 -0.13812155       0.004
  -0.13812155  0.00000000  0.18416206       0.004
  -0.04604052 -0.00000000  0.18416206       0.004
   0.18416206  0.00000000 -0.13812155       0.004
   0.00000000 -0.13812155  0.18416206       0.004
   0.18416206 -0.09208103 -0.00000000       0.004
  -0.00000000  0.18416206 -0.09208103       0.004
  -0.09208103  0.00000000  0.18416206       0.004
 
 k-points in reciprocal lattice and weights: auto                                    
   0.00000000  0.00000000  0.00000000       0.002
   0.12500000  0.00000000 -0.00000000       0.004
   0.00000000  0.12500000  0.00000000       0.004
   0.00000000  0.00000000  0.12500000       0.004
   0.12500000  0.12500000  0.12500000       0.004
   0.25000000  0.00000000 -0.00000000       0.004
   0.00000000  0.25000000  0.00000000       0.004
   0.00000000  0.00000000  0.25000000       0.004
   0.25000000  0.25000000  0.25000000       0.004
   0.37500000  0.00000000 -0.00000000       0.004
   0.00000000  0.37500000  0.00000000       0.004
   0.00000000  0.00000000  0.37500000       0.004
   0.37500000  0.37500000  0.37500000       0.004
   0.50000000  0.00000000 -0.00000000       0.002
   0.00000000  0.50000000  0.00000000       0.002
   0.00000000  0.00000000  0.50000000       0.002
   0.50000000  0.50000000  0.50000000       0.002
   0.12500000  0.12500000  0.00000000       0.004
   0.00000000  0.12500000  0.12500000       0.004
   0.12500000  0.00000000  0.12500000       0.004
   0.25000000  0.12500000  0.00000000       0.004
   0.00000000  0.25000000  0.12500000       0.004
   0.12500000  0.00000000  0.25000000       0.004
   0.12500000  0.12500000 -0.12500000       0.004
   0.25000000  0.12500000  0.25000000       0.004
   0.12500000  0.25000000  0.00000000       0.004
   0.12500000 -0.12500000 -0.12500000       0.004
   0.25000000  0.25000000  0.12500000       0.004
   0.00000000  0.12500000  0.25000000       0.004
  -0.12500000  0.12500000 -0.12500000       0.004
   0.12500000  0.25000000  0.25000000       0.004
   0.25000000  0.00000000  0.12500000       0.004
   0.37500000  0.12500000 -0.00000000       0.004
   0.00000000  0.37500000  0.12500000       0.004
   0.12500000  0.00000000  0.37500000       0.004
   0.12500000  0.12500000 -0.25000000       0.004
   0.37500000  0.25000000  0.37500000       0.004
   0.12500000  0.37500000  0.00000000       0.004
   0.25000000 -0.12500000 -0.12500000       0.004
   0.37500000  0.37500000  0.25000000       0.004
   0.00000000  0.12500000  0.37500000       0.004
  -0.12500000  0.25000000 -0.12500000       0.004
   0.25000000  0.37500000  0.37500000       0.004
   0.37500000  0.00000000  0.12500000       0.004
   0.50000000  0.12500000 -0.00000000       0.004
  -0.00000000  0.50000000  0.12500000       0.004
   0.12500000  0.00000000  0.50000000       0.004
   0.12500000  0.12500000 -0.37500000       0.004
   0.50000000  0.37500000  0.50000000       0.004
   0.12500000  0.50000000  0.00000000       0.004
   0.37500000 -0.12500000 -0.12500000       0.004
   0.50000000  0.50000000  0.37500000       0.004
   0.00000000  0.12500000  0.50000000       0.004
  -0.12500000  0.37500000 -0.12500000       0.004
   0.37500000  0.50000000  0.50000000       0.004
   0.50000000  0.00000000  0.12500000       0.004
  -0.37500000  0.12500000  0.00000000       0.004
  -0.00000000 -0.37500000  0.12500000       0.004
   0.12500000 -0.00000000 -0.37500000       0.004
   0.12500000  0.12500000  0.50000000       0.004
  -0.37500000  0.50000000 -0.37500000       0.004
   0.12500000 -0.37500000 -0.00000000       0.004
   0.50000000 -0.12500000 -0.12500000       0.004
  -0.37500000 -0.37500000  0.50000000       0.004
   0.00000000  0.12500000 -0.37500000       0.004
  -0.12500000  0.50000000 -0.12500000       0.004
   0.50000000 -0.37500000 -0.37500000       0.004
  -0.37500000 -0.00000000  0.12500000       0.004
  -0.25000000  0.12500000  0.00000000       0.004
   0.00000000 -0.25000000  0.12500000       0.004
   0.12500000 -0.00000000 -0.25000000       0.004
   0.12500000  0.12500000  0.37500000       0.004
  -0.25000000 -0.37500000 -0.25000000       0.004
   0.12500000 -0.25000000 -0.00000000       0.004
  -0.37500000 -0.12500000 -0.12500000       0.004
  -0.25000000 -0.25000000 -0.37500000       0.004
  -0.00000000  0.12500000 -0.25000000       0.004
  -0.12500000 -0.37500000 -0.12500000       0.004
  -0.37500000 -0.25000000 -0.25000000       0.004
  -0.25000000 -0.00000000  0.12500000       0.004
  -0.12500000  0.12500000  0.00000000       0.004
   0.00000000 -0.12500000  0.12500000       0.004
   0.12500000 -0.00000000 -0.12500000       0.004
   0.12500000  0.12500000  0.25000000       0.004
  -0.12500000 -0.25000000 -0.12500000       0.004
  -0.25000000 -0.12500000 -0.12500000       0.004
   0.25000000  0.25000000  0.00000000       0.004
   0.00000000  0.25000000  0.25000000       0.004
   0.25000000  0.00000000  0.25000000       0.004
   0.37500000  0.25000000  0.00000000       0.004
   0.00000000  0.37500000  0.25000000       0.004
   0.25000000  0.00000000  0.37500000       0.004
   0.25000000  0.25000000 -0.12500000       0.004
   0.37500000  0.12500000  0.37500000       0.004
   0.25000000  0.37500000  0.00000000       0.004
   0.12500000 -0.25000000 -0.25000000       0.004
   0.37500000  0.37500000  0.12500000       0.004
   0.00000000  0.25000000  0.37500000       0.004
  -0.25000000  0.12500000 -0.25000000       0.004
   0.12500000  0.37500000  0.37500000       0.004
   0.37500000  0.00000000  0.25000000       0.004
   0.50000000  0.25000000  0.00000000       0.004
   0.00000000  0.50000000  0.25000000       0.004
   0.25000000  0.00000000  0.50000000       0.004
   0.25000000  0.25000000 -0.25000000       0.004
   0.50000000  0.25000000  0.50000000       0.004
   0.25000000  0.50000000  0.00000000       0.004
   0.25000000 -0.25000000 -0.25000000       0.004
   0.50000000  0.50000000  0.25000000       0.004
   0.00000000  0.25000000  0.50000000       0.004
  -0.25000000  0.25000000 -0.25000000       0.004
   0.25000000  0.50000000  0.50000000       0.004
   0.50000000  0.00000000  0.25000000       0.004
  -0.37500000  0.25000000  0.00000000       0.004
   0.00000000 -0.37500000  0.25000000       0.004
   0.25000000 -0.00000000 -0.37500000       0.004
   0.25000000  0.25000000 -0.37500000       0.004
  -0.37500000  0.37500000 -0.37500000       0.004
   0.25000000 -0.37500000 -0.00000000       0.004
   0.37500000 -0.25000000 -0.25000000       0.004
  -0.37500000 -0.37500000  0.37500000       0.004
  -0.00000000  0.25000000 -0.37500000       0.004
  -0.25000000  0.37500000 -0.25000000       0.004
   0.37500000 -0.37500000 -0.37500000       0.004
  -0.37500000 -0.00000000  0.25000000       0.004
  -0.25000000  0.25000000  0.00000000       0.004
  -0.00000000 -0.25000000  0.25000000       0.004
   0.25000000  0.00000000 -0.25000000       0.004
   0.25000000  0.25000000  0.50000000       0.004
  -0.25000000  0.50000000 -0.25000000       0.004
   0.50000000 -0.25000000 -0.25000000       0.004
   0.37500000  0.37500000  0.00000000       0.004
   0.00000000  0.37500000  0.37500000       0.004
   0.37500000  0.00000000  0.37500000       0.004
   0.50000000  0.37500000  0.00000000       0.004
   0.00000000  0.50000000  0.37500000       0.004
   0.37500000  0.00000000  0.50000000       0.004
   0.37500000  0.37500000 -0.12500000       0.004
   0.50000000  0.12500000  0.50000000       0.004
   0.37500000  0.50000000  0.00000000       0.004
   0.12500000 -0.37500000 -0.37500000       0.004
   0.50000000  0.50000000  0.12500000       0.004
   0.00000000  0.37500000  0.50000000       0.004
  -0.37500000  0.12500000 -0.37500000       0.004
   0.12500000  0.50000000  0.50000000       0.004
   0.50000000  0.00000000  0.37500000       0.004
  -0.37500000  0.37500000  0.00000000       0.004
   0.00000000 -0.37500000  0.37500000       0.004
   0.37500000 -0.00000000 -0.37500000       0.004
   0.37500000  0.37500000 -0.25000000       0.004
  -0.37500000  0.25000000 -0.37500000       0.004
   0.25000000 -0.37500000 -0.37500000       0.004
   0.50000000  0.50000000  0.00000000       0.002
   0.00000000  0.50000000  0.50000000       0.002
   0.50000000  0.00000000  0.50000000       0.002
   0.37500000  0.25000000  0.12500000       0.004
   0.12500000  0.37500000  0.25000000       0.004
   0.25000000  0.12500000  0.37500000       0.004
   0.25000000  0.12500000 -0.12500000       0.004
   0.37500000  0.12500000  0.25000000       0.004
   0.12500000 -0.25000000 -0.12500000       0.004
   0.12500000  0.25000000 -0.12500000       0.004
   0.12500000 -0.12500000 -0.25000000       0.004
   0.25000000  0.37500000  0.12500000       0.004
  -0.12500000  0.12500000 -0.25000000       0.004
  -0.25000000  0.12500000 -0.12500000       0.004
   0.12500000  0.25000000  0.37500000       0.004
   0.50000000  0.25000000  0.12500000       0.004
   0.12500000  0.50000000  0.25000000       0.004
   0.25000000  0.12500000  0.50000000       0.004
   0.25000000  0.12500000 -0.25000000       0.004
   0.50000000  0.25000000  0.37500000       0.004
   0.12500000 -0.37500000 -0.12500000       0.004
   0.12500000  0.37500000 -0.12500000       0.004
   0.25000000 -0.12500000 -0.25000000       0.004
  -0.37500000 -0.25000000  0.50000000       0.004
   0.37500000  0.50000000  0.25000000       0.004
  -0.12500000  0.12500000 -0.37500000       0.004
  -0.25000000  0.25000000  0.12500000       0.004
  -0.12500000  0.12500000  0.37500000       0.004
  -0.25000000  0.25000000 -0.12500000       0.004
   0.50000000 -0.37500000 -0.25000000       0.004
   0.25000000  0.37500000  0.50000000       0.004
  -0.37500000 -0.12500000  0.12500000       0.004
   0.12500000 -0.25000000  0.25000000       0.004
   0.37500000 -0.12500000  0.12500000       0.004
  -0.12500000 -0.25000000  0.25000000       0.004
  -0.25000000  0.50000000 -0.37500000       0.004
   0.50000000 -0.12500000 -0.25000000       0.004
  -0.25000000  0.50000000 -0.12500000       0.004
  -0.12500000 -0.25000000  0.50000000       0.004
  -0.37500000  0.25000000  0.12500000       0.004
   0.12500000 -0.37500000  0.25000000       0.004
   0.25000000  0.12500000 -0.37500000       0.004
  -0.37500000  0.37500000  0.50000000       0.004
   0.12500000  0.50000000 -0.12500000       0.004
   0.37500000 -0.12500000 -0.25000000       0.004
   0.50000000 -0.37500000  0.37500000       0.004
  -0.12500000  0.12500000  0.50000000       0.004
  -0.25000000  0.37500000 -0.12500000       0.004
   0.37500000  0.50000000 -0.37500000       0.004
   0.50000000 -0.12500000  0.12500000       0.004
  -0.12500000 -0.25000000  0.37500000       0.004
   0.50000000  0.37500000  0.12500000       0.004
   0.12500000  0.50000000  0.37500000       0.004
   0.37500000  0.12500000  0.50000000       0.004
   0.37500000  0.25000000 -0.12500000       0.004
   0.50000000  0.12500000  0.37500000       0.004
   0.12500000 -0.37500000 -0.25000000       0.004
   0.25000000  0.37500000 -0.12500000       0.004
   0.12500000 -0.25000000 -0.37500000       0.004
   0.37500000  0.50000000  0.12500000       0.004
  -0.25000000  0.12500000 -0.37500000       0.004
  -0.37500000  0.12500000 -0.25000000       0.004
   0.12500000  0.37500000  0.50000000       0.004
  -0.37500000  0.37500000  0.12500000       0.004
   0.12500000 -0.37500000  0.37500000       0.004
   0.37500000  0.12500000 -0.37500000       0.004
   0.37500000  0.25000000 -0.25000000       0.004
  -0.37500000  0.25000000  0.50000000       0.004
   0.12500000  0.50000000 -0.25000000       0.004
   0.25000000  0.50000000 -0.12500000       0.004
   0.25000000 -0.25000000 -0.37500000       0.004
   0.50000000 -0.25000000  0.37500000       0.004
   0.50000000 -0.37500000  0.25000000       0.004
  -0.25000000  0.12500000  0.50000000       0.004
  -0.25000000  0.37500000  0.25000000       0.004
  -0.12500000  0.25000000  0.50000000       0.004
  -0.37500000  0.25000000 -0.25000000       0.004
   0.37500000  0.50000000 -0.25000000       0.004
   0.25000000  0.50000000 -0.37500000       0.004
   0.50000000 -0.25000000  0.12500000       0.004
   0.25000000 -0.25000000  0.37500000       0.004
   0.50000000 -0.12500000  0.25000000       0.004
  -0.25000000 -0.37500000  0.25000000       0.004
  -0.25000000  0.37500000  0.50000000       0.004
   0.37500000 -0.12500000 -0.37500000       0.004
  -0.37500000  0.37500000 -0.12500000       0.004
  -0.12500000 -0.37500000  0.37500000       0.004
  -0.25000000  0.37500000  0.12500000       0.004
   0.12500000 -0.25000000  0.37500000       0.004
   0.37500000  0.12500000 -0.25000000       0.004
   0.37500000  0.25000000 -0.37500000       0.004
  -0.25000000  0.37500000 -0.37500000       0.004
   0.12500000  0.37500000 -0.25000000       0.004
   0.37500000 -0.25000000 -0.37500000       0.004
   0.37500000 -0.37500000  0.25000000       0.004
  -0.25000000  0.12500000  0.37500000       0.004
  -0.37500000  0.37500000  0.25000000       0.004
   0.25000000  0.37500000 -0.37500000       0.004
   0.37500000 -0.25000000  0.12500000       0.004
  -0.37500000  0.50000000  0.12500000       0.004
   0.12500000 -0.37500000  0.50000000       0.004
   0.50000000  0.12500000 -0.37500000       0.004
   0.50000000  0.37500000 -0.12500000       0.004
  -0.37500000  0.12500000  0.50000000       0.004
   0.12500000  0.50000000 -0.37500000       0.004
  -0.25000000  0.50000000  0.25000000       0.004
   0.25000000 -0.25000000  0.50000000       0.004
   0.50000000  0.25000000 -0.25000000       0.004
 
 position of ions in fractional coordinates (direct lattice) 
   0.00000000  0.00000000  0.00000000
   0.25000000  0.25000000  0.25000000
 
 position of ions in cartesian coordinates  (Angst):
   0.00000000  0.00000000  0.00000000
   1.35750000  1.35750000  1.35750000
 


--------------------------------------------------------------------------------------------------------


 k-point   1 :   0.0000 0.0000 0.0000  plane waves:     531
 k-point   2 :   0.1250 0.0000-0.0000  plane waves:     534
 k-point   3 :   0.0000 0.1250 0.0000  plane waves:     534
 k-point   4 :   0.0000 0.0000 0.1250  plane waves:     534
 k-point   5 :   0.1250 0.1250 0.1250  plane waves:     534
 k-point   6 :   0.2500 0.0000-0.0000  plane waves:     525
 k-point   7 :   0.0000 0.2500 0.0000  plane waves:     525
 k-point   8 :   0.0000 0.0000 0.2500  plane waves:     525
 k-point   9 :   0.2500 0.2500 0.2500  plane waves:     525
 k-point  10 :   0.3750 0.0000-0.0000  plane waves:     522
 k-point  11 :   0.0000 0.3750 0.0000  plane waves:     522
 k-point  12 :   0.0000 0.0000 0.3750  plane waves:     522
 k-point  13 :   0.3750 0.3750 0.3750  plane waves:     522
 k-point  14 :   0.5000 0.0000-0.0000  plane waves:     502
 k-point  15 :   0.0000 0.5000 0.0000  plane waves:     502
 k-point  16 :   0.0000 0.0000 0.5000  plane waves:     502
 k-point  17 :   0.5000 0.5000 0.5000  plane waves:     502
 k-point  18 :   0.1250 0.1250 0.0000  plane waves:     532
 k-point  19 :   0.0000 0.1250 0.1250  plane waves:     532
 k-point  20 :   0.1250 0.0000 0.1250  plane waves:     532
 k-point  21 :   0.2500 0.1250 0.0000  plane waves:     529
 k-point  22 :   0.0000 0.2500 0.1250  plane waves:     529
 k-point  23 :   0.1250 0.0000 0.2500  plane waves:     529
 k-point  24 :   0.1250 0.1250-0.1250  plane waves:     529
 k-point  25 :   0.2500 0.1250 0.2500  plane waves:     529
 k-point  26 :   0.1250 0.2500 0.0000  plane waves:     529
 k-point  27 :   0.1250-0.1250-0.1250  plane waves:     529
 k-point  28 :   0.2500 0.2500 0.1250  plane waves:     529
 k-point  29 :   0.0000 0.1250 0.2500  plane waves:     529
 k-point  30 :  -0.1250 0.1250-0.1250  plane waves:     529
 k-point  31 :   0.1250 0.2500 0.2500  plane waves:     529
 k-point  32 :   0.2500 0.0000 0.1250  plane waves:     529
 k-point  33 :   0.3750 0.1250-0.0000  plane waves:     522
 k-point  34 :   0.0000 0.3750 0.1250  plane waves:     522
 k-point  35 :   0.1250 0.0000 0.3750  plane waves:     522
 k-point  36 :   0.1250 0.1250-0.2500  plane waves:     522
 k-point  37 :   0.3750 0.2500 0.3750  plane waves:     522
 k-point  38 :   0.1250 0.3750 0.0000  plane waves:     522
 k-point  39 :   0.2500-0.1250-0.1250  plane waves:     522
 k-point  40 :   0.3750 0.3750 0.2500  plane waves:     522
 k-point  41 :   0.0000 0.1250 0.3750  plane waves:     522
 k-point  42 :  -0.1250 0.2500-0.1250  plane waves:     522
 k-point  43 :   0.2500 0.3750 0.3750  plane waves:     522
 k-point  44 :   0.3750 0.0000 0.1250  plane waves:     522
 k-point  45 :   0.5000 0.1250-0.0000  plane waves:     526
 k-point  46 :  -0.0000 0.5000 0.1250  plane waves:     526
 k-point  47 :   0.1250 0.0000 0.5000  plane waves:     526
 k-point  48 :   0.1250 0.1250-0.3750  plane waves:     526
 k-point  49 :   0.5000 0.3750 0.5000  plane waves:     526
 k-point  50 :   0.1250 0.5000 0.0000  plane waves:     526
 k-point  51 :   0.3750-0.1250-0.1250  plane waves:     526
 k-point  52 :   0.5000 0.5000 0.3750  plane waves:     526
 k-point  53 :   0.0000 0.1250 0.5000  plane waves:     526
 k-point  54 :  -0.1250 0.3750-0.1250  plane waves:     526
 k-point  55 :   0.3750 0.5000 0.5000  plane waves:     526
 k-point  56 :   0.5000 0.0000 0.1250  plane waves:     526
 k-point  57 :  -0.3750 0.1250 0.0000  plane waves:     523
 k-point  58 :  -0.0000-0.3750 0.1250  plane waves:     523
 k-point  59 :   0.1250-0.0000-0.3750  plane waves:     523
 k-point  60 :   0.1250 0.1250 0.5000  plane waves:     523
 k-point  61 :  -0.3750 0.5000-0.3750  plane waves:     523
 k-point  62 :   0.1250-0.3750-0.0000  plane waves:     523
 k-point  63 :   0.5000-0.1250-0.1250  plane waves:     523
 k-point  64 :  -0.3750-0.3750 0.5000  plane waves:     523
 k-point  65 :   0.0000 0.1250-0.3750  plane waves:     523
 k-point  66 :  -0.1250 0.5000-0.1250  plane waves:     523
 k-point  67 :   0.5000-0.3750-0.3750  plane waves:     523
 k-point  68 :  -0.3750-0.0000 0.1250  plane waves:     523
 k-point  69 :  -0.2500 0.1250 0.0000  plane waves:     522
 k-point  70 :   0.0000-0.2500 0.1250  plane waves:     522
 k-point  71 :   0.1250-0.0000-0.2500  plane waves:     522
 k-point  72 :   0.1250 0.1250 0.3750  plane waves:     522
 k-point  73 :  -0.2500-0.3750-0.2500  plane waves:     522
 k-point  74 :   0.1250-0.2500-0.0000  plane waves:     522
 k-point  75 :  -0.3750-0.1250-0.1250  plane waves:     522
 k-point  76 :  -0.2500-0.2500-0.3750  plane waves:     522
 k-point  77 :  -0.0000 0.1250-0.2500  plane waves:     522
 k-point  78 :  -0.1250-0.3750-0.1250  plane waves:     522
 k-point  79 :  -0.3750-0.2500-0.2500  plane waves:     522
 k-point  80 :  -0.2500-0.0000 0.1250  plane waves:     522
 k-point  81 :  -0.1250 0.1250 0.0000  plane waves:     523
 k-point  82 :   0.0000-0.1250 0.1250  plane waves:     523
 k-point  83 :   0.1250-0.0000-0.1250  plane waves:     523
 k-point  84 :   0.1250 0.1250 0.2500  plane waves:     523
 k-point  85 :  -0.1250-0.2500-0.1250  plane waves:     523
 k-point  86 :  -0.2500-0.1250-0.1250  plane waves:     523
 k-point  87 :   0.2500 0.2500 0.0000  plane waves:     528
 k-point  88 :   0.0000 0.2500 0.2500  plane waves:     528
 k-point  89 :   0.2500 0.0000 0.2500  plane waves:     528
 k-point  90 :   0.3750 0.2500 0.0000  plane waves:     521
 k-point  91 :   0.0000 0.3750 0.2500  plane waves:     521
 k-point  92 :   0.2500 0.0000 0.3750  plane waves:     521
 k-point  93 :   0.2500 0.2500-0.1250  plane waves:     521
 k-point  94 :   0.3750 0.1250 0.3750  plane waves:     521
 k-point  95 :   0.2500 0.3750 0.0000  plane waves:     521
 k-point  96 :   0.1250-0.2500-0.2500  plane waves:     521
 k-point  97 :   0.3750 0.3750 0.1250  plane waves:     521
 k-point  98 :   0.0000 0.2500 0.3750  plane waves:     521
 k-point  99 :  -0.2500 0.1250-0.2500  plane waves:     521
 k-point 100 :   0.1250 0.3750 0.3750  plane waves:     521
 k-point 101 :   0.3750 0.0000 0.2500  plane waves:     521
 k-point 102 :   0.5000 0.2500 0.0000  plane waves:     519
 k-point 103 :   0.0000 0.5000 0.2500  plane waves:     519
 k-point 104 :   0.2500 0.0000 0.5000  plane waves:     519
 k-point 105 :   0.2500 0.2500-0.2500  plane waves:     519
 k-point 106 :   0.5000 0.2500 0.5000  plane waves:     519
 k-point 107 :   0.2500 0.5000 0.0000  plane waves:     519
 k-point 108 :   0.2500-0.2500-0.2500  plane waves:     519
 k-point 109 :   0.5000 0.5000 0.2500  plane waves:     519
 k-point 110 :   0.0000 0.2500 0.5000  plane waves:     519
 k-point 111 :  -0.2500 0.2500-0.2500  plane waves:     519
 k-point 112 :   0.2500 0.5000 0.5000  plane waves:     519
 k-point 113 :   0.5000 0.0000 0.2500  plane waves:     519
 k-point 114 :  -0.3750 0.2500 0.0000  plane waves:     519
 k-point 115 :   0.0000-0.3750 0.2500  plane waves:     519
 k-point 116 :   0.2500-0.0000-0.3750  plane waves:     519
 k-point 117 :   0.2500 0.2500-0.3750  plane waves:     519
 k-point 118 :  -0.3750 0.3750-0.3750  plane waves:     519
 k-point 119 :   0.2500-0.3750-0.0000  plane waves:     519
 k-point 120 :   0.3750-0.2500-0.2500  plane waves:     519
 k-point 121 :  -0.3750-0.3750 0.3750  plane waves:     519
 k-point 122 :  -0.0000 0.2500-0.3750  plane waves:     519
 k-point 123 :  -0.2500 0.3750-0.2500  plane waves:     519
 k-point 124 :   0.3750-0.3750-0.3750  plane waves:     519
 k-point 125 :  -0.3750-0.0000 0.2500  plane waves:     519
 k-point 126 :  -0.2500 0.2500 0.0000  plane waves:     524
 k-point 127 :  -0.0000-0.2500 0.2500  plane waves:     524
 k-point 128 :   0.2500 0.0000-0.2500  plane waves:     524
 k-point 129 :   0.2500 0.2500 0.5000  plane waves:     524
 k-point 130 :  -0.2500 0.5000-0.2500  plane waves:     524
 k-point 131 :   0.5000-0.2500-0.2500  plane waves:     524
 k-point 132 :   0.3750 0.3750 0.0000  plane waves:     520
 k-point 133 :   0.0000 0.3750 0.3750  plane waves:     520
 k-point 134 :   0.3750 0.0000 0.3750  plane waves:     520
 k-point 135 :   0.5000 0.3750 0.0000  plane waves:     513
 k-point 136 :   0.0000 0.5000 0.3750  plane waves:     513
 k-point 137 :   0.3750 0.0000 0.5000  plane waves:     513
 k-point 138 :   0.3750 0.3750-0.1250  plane waves:     513
 k-point 139 :   0.5000 0.1250 0.5000  plane waves:     513
 k-point 140 :   0.3750 0.5000 0.0000  plane waves:     513
 k-point 141 :   0.1250-0.3750-0.3750  plane waves:     513
 k-point 142 :   0.5000 0.5000 0.1250  plane waves:     513
 k-point 143 :   0.0000 0.3750 0.5000  plane waves:     513
 k-point 144 :  -0.3750 0.1250-0.3750  plane waves:     513
 k-point 145 :   0.1250 0.5000 0.5000  plane waves:     513
 k-point 146 :   0.5000 0.0000 0.3750  plane waves:     513
 k-point 147 :  -0.3750 0.3750 0.0000  plane waves:     512
 k-point 148 :   0.0000-0.3750 0.3750  plane waves:     512
 k-point 149 :   0.3750-0.0000-0.3750  plane waves:     512
 k-point 150 :   0.3750 0.3750-0.2500  plane waves:     512
 k-point 151 :  -0.3750 0.2500-0.3750  plane waves:     512
 k-point 152 :   0.2500-0.3750-0.3750  plane waves:     512
 k-point 153 :   0.5000 0.5000 0.0000  plane waves:     524
 k-point 154 :   0.0000 0.5000 0.5000  plane waves:     524
 k-point 155 :   0.5000 0.0000 0.5000  plane waves:     524
 k-point 156 :   0.3750 0.2500 0.1250  plane waves:     522
 k-point 157 :   0.1250 0.3750 0.2500  plane waves:     522
 k-point 158 :   0.2500 0.1250 0.3750  plane waves:     522
 k-point 159 :   0.2500 0.1250-0.1250  plane waves:     522
 k-point 160 :   0.3750 0.1250 0.2500  plane waves:     522
 k-point 161 :   0.1250-0.2500-0.1250  plane waves:     522
 k-point 162 :   0.1250 0.2500-0.1250  plane waves:     522
 k-point 163 :   0.1250-0.1250-0.2500  plane waves:     522
 k-point 164 :   0.2500 0.3750 0.1250  plane waves:     522
 k-point 165 :  -0.1250 0.1250-0.2500  plane waves:     522
 k-point 166 :  -0.2500 0.1250-0.1250  plane waves:     522
 k-point 167 :   0.1250 0.2500 0.3750  plane waves:     522
 k-point 168 :   0.5000 0.2500 0.1250  plane waves:     520
 k-point 169 :   0.1250 0.5000 0.2500  plane waves:     520
 k-point 170 :   0.2500 0.1250 0.5000  plane waves:     520
 k-point 171 :   0.2500 0.1250-0.2500  plane waves:     520
 k-point 172 :   0.5000 0.2500 0.3750  plane waves:     520
 k-point 173 :   0.1250-0.3750-0.1250  plane waves:     520
 k-point 174 :   0.1250 0.3750-0.1250  plane waves:     520
 k-point 175 :   0.2500-0.1250-0.2500  plane waves:     520
 k-point 176 :  -0.3750-0.2500 0.5000  plane waves:     520
 k-point 177 :   0.3750 0.5000 0.2500  plane waves:     520
 k-point 178 :  -0.1250 0.1250-0.3750  plane waves:     520
 k-point 179 :  -0.2500 0.2500 0.1250  plane waves:     520
 k-point 180 :  -0.1250 0.1250 0.3750  plane waves:     520
 k-point 181 :  -0.2500 0.2500-0.1250  plane waves:     520
 k-point 182 :   0.5000-0.3750-0.2500  plane waves:     520
 k-point 183 :   0.2500 0.3750 0.5000  plane waves:     520
 k-point 184 :  -0.3750-0.1250 0.1250  plane waves:     520
 k-point 185 :   0.1250-0.2500 0.2500  plane waves:     520
 k-point 186 :   0.3750-0.1250 0.1250  plane waves:     520
 k-point 187 :  -0.1250-0.2500 0.2500  plane waves:     520
 k-point 188 :  -0.2500 0.5000-0.3750  plane waves:     520
 k-point 189 :   0.5000-0.1250-0.2500  plane waves:     520
 k-point 190 :  -0.2500 0.5000-0.1250  plane waves:     520
 k-point 191 :  -0.1250-0.2500 0.5000  plane waves:     520
 k-point 192 :  -0.3750 0.2500 0.1250  plane waves:     520
 k-point 193 :   0.1250-0.3750 0.2500  plane waves:     520
 k-point 194 :   0.2500 0.1250-0.3750  plane waves:     520
 k-point 195 :  -0.3750 0.3750 0.5000  plane waves:     520
 k-point 196 :   0.1250 0.5000-0.1250  plane waves:     520
 k-point 197 :   0.3750-0.1250-0.2500  plane waves:     520
 k-point 198 :   0.5000-0.3750 0.3750  plane waves:     520
 k-point 199 :  -0.1250 0.1250 0.5000  plane waves:     520
 k-point 200 :  -0.2500 0.3750-0.1250  plane waves:     520
 k-point 201 :   0.3750 0.5000-0.3750  plane waves:     520
 k-point 202 :   0.5000-0.1250 0.1250  plane waves:     520
 k-point 203 :  -0.1250-0.2500 0.3750  plane waves:     520
 k-point 204 :   0.5000 0.3750 0.1250  plane waves:     522
 k-point 205 :   0.1250 0.5000 0.3750  plane waves:     522
 k-point 206 :   0.3750 0.1250 0.5000  plane waves:     522
 k-point 207 :   0.3750 0.2500-0.1250  plane waves:     522
 k-point 208 :   0.5000 0.1250 0.3750  plane waves:     522
 k-point 209 :   0.1250-0.3750-0.2500  plane waves:     522
 k-point 210 :   0.2500 0.3750-0.1250  plane waves:     522
 k-point 211 :   0.1250-0.2500-0.3750  plane waves:     522
 k-point 212 :   0.3750 0.5000 0.1250  plane waves:     522
 k-point 213 :  -0.2500 0.1250-0.3750  plane waves:     522
 k-point 214 :  -0.3750 0.1250-0.2500  plane waves:     522
 k-point 215 :   0.1250 0.3750 0.5000  plane waves:     522
 k-point 216 :  -0.3750 0.3750 0.1250  plane waves:     517
 k-point 217 :   0.1250-0.3750 0.3750  plane waves:     517
 k-point 218 :   0.3750 0.1250-0.3750  plane waves:     517
 k-point 219 :   0.3750 0.2500-0.2500  plane waves:     517
 k-point 220 :  -0.3750 0.2500 0.5000  plane waves:     517
 k-point 221 :   0.1250 0.5000-0.2500  plane waves:     517
 k-point 222 :   0.2500 0.5000-0.1250  plane waves:     517
 k-point 223 :   0.2500-0.2500-0.3750  plane waves:     517
 k-point 224 :   0.5000-0.2500 0.3750  plane waves:     517
 k-point 225 :   0.5000-0.3750 0.2500  plane waves:     517
 k-point 226 :  -0.2500 0.1250 0.5000  plane waves:     517
 k-point 227 :  -0.2500 0.3750 0.2500  plane waves:     517
 k-point 228 :  -0.1250 0.2500 0.5000  plane waves:     517
 k-point 229 :  -0.3750 0.2500-0.2500  plane waves:     517
 k-point 230 :   0.3750 0.5000-0.2500  plane waves:     517
 k-point 231 :   0.2500 0.5000-0.3750  plane waves:     517
 k-point 232 :   0.5000-0.2500 0.1250  plane waves:     517
 k-point 233 :   0.2500-0.2500 0.3750  plane waves:     517
 k-point 234 :   0.5000-0.1250 0.2500  plane waves:     517
 k-point 235 :  -0.2500-0.3750 0.2500  plane waves:     517
 k-point 236 :  -0.2500 0.3750 0.5000  plane waves:     517
 k-point 237 :   0.3750-0.1250-0.3750  plane waves:     517
 k-point 238 :  -0.3750 0.3750-0.1250  plane waves:     517
 k-point 239 :  -0.1250-0.3750 0.3750  plane waves:     517
 k-point 240 :  -0.2500 0.3750 0.1250  plane waves:     517
 k-point 241 :   0.1250-0.2500 0.3750  plane waves:     517
 k-point 242 :   0.3750 0.1250-0.2500  plane waves:     517
 k-point 243 :   0.3750 0.2500-0.3750  plane waves:     517
 k-point 244 :  -0.2500 0.3750-0.3750  plane waves:     517
 k-point 245 :   0.1250 0.3750-0.2500  plane waves:     517
 k-point 246 :   0.3750-0.2500-0.3750  plane waves:     517
 k-point 247 :   0.3750-0.3750 0.2500  plane waves:     517
 k-point 248 :  -0.2500 0.1250 0.3750  plane waves:     517
 k-point 249 :  -0.3750 0.3750 0.2500  plane waves:     517
 k-point 250 :   0.2500 0.3750-0.3750  plane waves:     517
 k-point 251 :   0.3750-0.2500 0.1250  plane waves:     517
 k-point 252 :  -0.3750 0.5000 0.1250  plane waves:     512
 k-point 253 :   0.1250-0.3750 0.5000  plane waves:     512
 k-point 254 :   0.5000 0.1250-0.3750  plane waves:     512
 k-point 255 :   0.5000 0.3750-0.1250  plane waves:     512
 k-point 256 :  -0.3750 0.1250 0.5000  plane waves:     512
 k-point 257 :   0.1250 0.5000-0.3750  plane waves:     512
 k-point 258 :  -0.2500 0.5000 0.2500  plane waves:     516
 k-point 259 :   0.2500-0.2500 0.5000  plane waves:     516
 k-point 260 :   0.5000 0.2500-0.2500  plane waves:     516

 maximum and minimum number of plane-waves per node :       534      502

 maximum number of plane-waves:       534
 maximum index in each direction: 
   IXMAX=    5   IYMAX=    5   IZMAX=    5
   IXMIN=   -6   IYMIN=   -6   IZMIN=   -6


 serial   3D FFT for wavefunctions
 parallel 3D FFT for charge:
    minimum data exchange during FFTs selected (reduces bandwidth)


 total amount of memory used by VASP MPI-rank0    67146. kBytes
=======================================================================

   base      :      30000. kBytes
   nonl-proj :       8902. kBytes
   fftplans  :       3916. kBytes
   grid      :       6018. kBytes
   one-center:          6. kBytes
   wavefun   :      18304. kBytes
 
     INWAV:  cpu time      0.0000: real time      0.0000
 Broyden mixing: mesh for mixing (old mesh)
   NGX = 11   NGY = 11   NGZ = 11
  (NGX  = 48   NGY  = 48   NGZ  = 48)
  gives a total of   1331 points

 initial charge density was supplied:
 charge density of overlapping atoms calculated
 number of electron       8.0000000 magnetization 
 keeping initial charge density in first step


--------------------------------------------------------------------------------------------------------


 Maximum index for augmentation-charges        11057 (set IRDMAX)


--------------------------------------------------------------------------------------------------------


 First call to EWALD:  gamma=   0.518
 Maximum number of real-space cells 3x 3x 3
 Maximum number of reciprocal cells 3x 3x 3

    FEWALD:  cpu time      0.0014: real time      0.0014


--------------------------------------- Iteration      1(   1)  ---------------------------------------


    POTLOK:  cpu time      0.0471: real time      0.0471
    SETDIJ:  cpu time      0.0034: real time      0.0034
     EDDAV:  cpu time      2.8188: real time      2.8190
       DOS:  cpu time      0.0047: real time      0.0047
    --------------------------------------------
      LOOP:  cpu time      2.8741: real time      2.8742

 eigenvalue-minimisations  :  4184
 total energy-change (2. order) : 0.1943870E+01  (-0.2539979E+03)
 number of electron       8.0000000 magnetization 
 augmentation part        8.0000000 magnetization 

 Free energy of the ion-electron system (eV)
  ---------------------------------------------------
  alpha Z        PSCENC =         3.36414726
  Ewald energy   TEWEN  =      -228.56352493
  -Hartree energ DENC   =       -11.00108242
  -exchange      EXHF   =         0.00000000
  -V(xc)+E(xc)   XCENC  =       -18.60186599
  PAW double counting   =       176.24759923     -141.06103558
  entropy T*S    EENTRO =        -0.00069053
  eigenvalues    EBANDS =        15.42965601
  atomic energy  EATOM  =       206.13066687
  Solvation  Ediel_sol  =         0.00000000
  ---------------------------------------------------
  free energy    TOTEN  =         1.94386992 eV

  energy without entropy =        1.94456045  energy(sigma->0) =        1.94421519


--------------------------------------------------------------------------------------------------------




--------------------------------------- Iteration      1(   2)  ---------------------------------------


     EDDAV:  cpu time      3.8888: real time      3.8890
       DOS:  cpu time      0.0026: real time      0.0026
    --------------------------------------------
      LOOP:  cpu time      3.8914: real time      3.8916

 eigenvalue-minimisations  :  6376
 total energy-change (2. order) :-0.1280270E+02  (-0.1231604E+02)
 number of electron       8.0000000 magnetization 
 augmentation part        8.0000000 magnetization 

 Free energy of the ion-electron system (eV)
  ---------------------------------------------------
  alpha Z        PSCENC =         3.36414726
  Ewald energy   TEWEN  =      -228.56352493
  -Hartree energ DENC   =       -11.00108242
  -exchange      EXHF   =         0.00000000
  -V(xc)+E(xc)   XCENC  =       -18.60186599
  PAW double counting   =       176.24759923     -141.06103558
  entropy T*S    EENTRO =        -0.00000000
  eigenvalues    EBANDS =         2.62626132
  atomic energy  EATOM  =       206.13066687
  Solvation  Ediel_sol  =         0.00000000
  ---------------------------------------------------
  free energy    TOTEN  =       -10.85883424 eV

  energy without entropy =      -10.85883424  energy(sigma->0) =      -10.85883424


--------------------------------------------------------------------------------------------------------




--------------------------------------- Iteration      1(   3)  ---------------------------------------


     EDDAV:  cpu time      3.3806: real time      3.3808
       DOS:  cpu time      0.0028: real time      0.0028
    --------------------------------------------
      LOOP:  cpu time      3.3833: real time      3.3836

 eigenvalue-minimisations  :  5312
 total energy-change (2. order) :-0.1582592E+00  (-0.1582592E+00)
 number of electron       8.0000000 magnetization 
 augmentation part        8.0000000 magnetization 

 Free energy of the ion-electron system (eV)
  ---------------------------------------------------
  alpha Z        PSCENC =         3.36414726
  Ewald energy   TEWEN  =      -228.56352493
  -Hartree energ DENC   =       -11.00108242
  -exchange      EXHF   =         0.00000000
  -V(xc)+E(xc)   XCENC  =       -18.60186599
  PAW double counting   =       176.24759923     -141.06103558
  entropy T*S    EENTRO =        -0.00000000
  eigenvalues    EBANDS =         2.46800214
  atomic energy  EATOM  =       206.13066687
  Solvation  Ediel_sol  =         0.00000000
  ---------------------------------------------------
  free energy    TOTEN  =       -11.01709342 eV

  energy without entropy =      -11.01709342  energy(sigma->0) =      -11.01709342


--------------------------------------------------------------------------------------------------------




--------------------------------------- Iteration      1(   4)  ---------------------------------------


     EDDAV:  cpu time      4.0425: real time      4.0427
       DOS:  cpu time      0.0028: real time      0.0028
    --------------------------------------------
      LOOP:  cpu time      4.0453: real time      4.0455

 eigenvalue-minimisations  :  6680
 total energy-change (2. order) :-0.6222652E-03  (-0.6222652E-03)
 number of electron       8.0000000 magnetization 
 augmentation part        8.0000000 magnetization 

 Free energy of the ion-electron system (eV)
  ---------------------------------------------------
  alpha Z        PSCENC =         3.36414726
  Ewald energy   TEWEN  =      -228.56352493
  -Hartree energ DENC   =       -11.00108242
  -exchange      EXHF   =         0.00000000
  -V(xc)+E(xc)   XCENC  =       -18.60186599
  PAW double counting   =       176.24759923     -141.06103558
  entropy T*S    EENTRO =        -0.00000000
  eigenvalues    EBANDS =         2.46737987
  atomic energy  EATOM  =       206.13066687
  Solvation  Ediel_sol  =         0.00000000
  ---------------------------------------------------
  free energy    TOTEN  =       -11.01771569 eV

  energy without entropy =      -11.01771569  energy(sigma->0) =      -11.01771569


--------------------------------------------------------------------------------------------------------




--------------------------------------- Iteration      1(   5)  ---------------------------------------


     EDDAV:  cpu time      3.3680: real time      3.3681
       DOS:  cpu time      0.0028: real time      0.0028
    CHARGE:  cpu time      0.2333: real time      0.2335
    MIXING:  cpu time      0.0018: real time      0.0018
    --------------------------------------------
      LOOP:  cpu time      3.6060: real time      3.6062

 eigenvalue-minimisations  :  5288
 total energy-change (2. order) :-0.4534477E-06  (-0.4534480E-06)
 number of electron       7.9999999 magnetization 
 augmentation part       -0.4704888 magnetization 

 Broyden mixing:
  rms(total) = 0.49548E+00    rms(broyden)= 0.49547E+00
  rms(prec ) = 0.95869E+00
  weight for this iteration     100.00

 Free energy of the ion-electron system (eV)
  ---------------------------------------------------
  alpha Z        PSCENC =         3.36414726
  Ewald energy   TEWEN  =      -228.56352493
  -Hartree energ DENC   =       -11.00108242
  -exchange      EXHF   =         0.00000000
  -V(xc)+E(xc)   XCENC  =       -18.60186599
  PAW double counting   =       176.24759923     -141.06103558
  entropy T*S    EENTRO =        -0.00000000
  eigenvalues    EBANDS =         2.46737942
  atomic energy  EATOM  =       206.13066687
  Solvation  Ediel_sol  =         0.00000000
  ---------------------------------------------------
  free energy    TOTEN  =       -11.01771614 eV

  energy without entropy =      -11.01771614  energy(sigma->0) =      -11.01771614


--------------------------------------------------------------------------------------------------------




--------------------------------------- Iteration      1(   6)  ---------------------------------------


    POTLOK:  cpu time      0.0442: real time      0.0442
    SETDIJ:  cpu time      0.0034: real time      0.0034
     EDDAV:  cpu time      3.1950: real time      3.1950
       DOS:  cpu time      0.0027: real time      0.0027
    CHARGE:  cpu time      0.2329: real time      0.2329
    MIXING:  cpu time      0.0018: real time      0.0018
    --------------------------------------------
      LOOP:  cpu time      3.4800: real time      3.4801

 eigenvalue-minimisations  :  4832
 total energy-change (2. order) : 0.1251839E+00  (-0.8262718E-02)
 number of electron       7.9999999 magnetization 
 augmentation part       -0.4645980 magnetization 

 Broyden mixing:
  rms(total) = 0.30346E+00    rms(broyden)= 0.30346E+00
  rms(prec ) = 0.57003E+00
  weight for this iteration     100.00

 eigenvalues of (default mixing * dielectric matrix)
  average eigenvalue GAMMA=   2.5708
  2.5708

 Free energy of the ion-electron system (eV)
  ---------------------------------------------------
  alpha Z        PSCENC =         3.36414726
  Ewald energy   TEWEN  =      -228.56352493
  -Hartree energ DENC   =       -12.50146440
  -exchange      EXHF   =         0.00000000
  -V(xc)+E(xc)   XCENC  =       -18.36377299
  PAW double counting   =       385.50217354     -350.42702643
  entropy T*S    EENTRO =        -0.00000000
  eigenvalues    EBANDS =         3.96626881
  atomic energy  EATOM  =       206.13066687
  Solvation  Ediel_sol  =         0.00000000
  ---------------------------------------------------
  free energy    TOTEN  =       -10.89253228 eV

  energy without entropy =      -10.89253228  energy(sigma->0) =      -10.89253228


--------------------------------------------------------------------------------------------------------




--------------------------------------- Iteration      1(   7)  ---------------------------------------


    POTLOK:  cpu time      0.0439: real time      0.0439
    SETDIJ:  cpu time      0.0034: real time      0.0034
     EDDAV:  cpu time      3.2955: real time      3.2957
       DOS:  cpu time      0.0028: real time      0.0028
    CHARGE:  cpu time      0.2327: real time      0.2327
    MIXING:  cpu time      0.0019: real time      0.0019
    --------------------------------------------
      LOOP:  cpu time      3.5802: real time      3.5805

 eigenvalue-minimisations  :  5088
 total energy-change (2. order) : 0.5699467E-01  (-0.1564744E-01)
 number of electron       7.9999999 magnetization 
 augmentation part       -0.4574110 magnetization 

 Broyden mixing:
  rms(total) = 0.19463E-01    rms(broyden)= 0.19462E-01
  rms(prec ) = 0.42150E-01
  weight for this iteration     100.00

 eigenvalues of (default mixing * dielectric matrix)
  average eigenvalue GAMMA=   2.0768
  1.7662  2.3874

 Free energy of the ion-electron system (eV)
  ---------------------------------------------------
  alpha Z        PSCENC =         3.36414726
  Ewald energy   TEWEN  =      -228.56352493
  -Hartree energ DENC   =       -14.95153930
  -exchange      EXHF   =         0.00000000
  -V(xc)+E(xc)   XCENC  =       -17.96762067
  PAW double counting   =       890.10786133     -855.17727836
  entropy T*S    EENTRO =        -0.00000000
  eigenvalues    EBANDS =         6.22175019
  atomic energy  EATOM  =       206.13066687
  Solvation  Ediel_sol  =         0.00000000
  ---------------------------------------------------
  free energy    TOTEN  =       -10.83553761 eV

  energy without entropy =      -10.83553761  energy(sigma->0) =      -10.83553761


--------------------------------------------------------------------------------------------------------




--------------------------------------- Iteration      1(   8)  ---------------------------------------


    POTLOK:  cpu time      0.0440: real time      0.0440
    SETDIJ:  cpu time      0.0034: real time      0.0034
     EDDAV:  cpu time      3.0933: real time      3.0935
       DOS:  cpu time      0.0028: real time      0.0028
    CHARGE:  cpu time      0.2328: real time      0.2328
    MIXING:  cpu time      0.0019: real time      0.0019
    --------------------------------------------
      LOOP:  cpu time      3.3781: real time      3.3783

 eigenvalue-minimisations  :  4712
 total energy-change (2. order) :-0.1064672E-02  (-0.3971544E-03)
 number of electron       7.9999999 magnetization 
 augmentation part       -0.4583981 magnetization 

 Broyden mixing:
  rms(total) = 0.74627E-02    rms(broyden)= 0.74625E-02
  rms(prec ) = 0.13161E-01
  weight for this iteration     100.00

 eigenvalues of (default mixing * dielectric matrix)
  average eigenvalue GAMMA=   2.2538
  2.8253  1.9680  1.9680

 Free energy of the ion-electron system (eV)
  ---------------------------------------------------
  alpha Z        PSCENC =         3.36414726
  Ewald energy   TEWEN  =      -228.56352493
  -Hartree energ DENC   =       -14.87735760
  -exchange      EXHF   =         0.00000000
  -V(xc)+E(xc)   XCENC  =       -17.96763678
  PAW double counting   =       902.26526763     -867.30741097
  entropy T*S    EENTRO =        -0.00000000
  eigenvalues    EBANDS =         6.11924624
  atomic energy  EATOM  =       206.13066687
  Solvation  Ediel_sol  =         0.00000000
  ---------------------------------------------------
  free energy    TOTEN  =       -10.83660228 eV

  energy without entropy =      -10.83660228  energy(sigma->0) =      -10.83660228


--------------------------------------------------------------------------------------------------------




--------------------------------------- Iteration      1(   9)  ---------------------------------------


    POTLOK:  cpu time      0.0440: real time      0.0440
    SETDIJ:  cpu time      0.0034: real time      0.0034
     EDDAV:  cpu time      3.7828: real time      3.7830
       DOS:  cpu time      0.0028: real time      0.0028
    CHARGE:  cpu time      0.2327: real time      0.2327
    MIXING:  cpu time      0.0019: real time      0.0019
    --------------------------------------------
      LOOP:  cpu time      4.0676: real time      4.0678

 eigenvalue-minimisations  :  6048
 total energy-change (2. order) :-0.1893791E-03  (-0.1812980E-04)
 number of electron       7.9999999 magnetization 
 augmentation part       -0.4585080 magnetization 

 Broyden mixing:
  rms(total) = 0.56991E-02    rms(broyden)= 0.56991E-02
  rms(prec ) = 0.66035E-02
  weight for this iteration     100.00

 eigenvalues of (default mixing * dielectric matrix)
  average eigenvalue GAMMA=   2.1222
  0.9531  2.6087  2.6087  2.3183

 Free energy of the ion-electron system (eV)
  ---------------------------------------------------
  alpha Z        PSCENC =         3.36414726
  Ewald energy   TEWEN  =      -228.56352493
  -Hartree energ DENC   =       -14.92035783
  -exchange      EXHF   =         0.00000000
  -V(xc)+E(xc)   XCENC  =       -17.95926636
  PAW double counting   =       904.96944534     -870.00946227
  entropy T*S    EENTRO =        -0.00000000
  eigenvalues    EBANDS =         6.15156027
  atomic energy  EATOM  =       206.13066687
  Solvation  Ediel_sol  =         0.00000000
  ---------------------------------------------------
  free energy    TOTEN  =       -10.83679166 eV

  energy without entropy =      -10.83679166  energy(sigma->0) =      -10.83679166


--------------------------------------------------------------------------------------------------------




--------------------------------------- Iteration      1(  10)  ---------------------------------------


    POTLOK:  cpu time      0.0439: real time      0.0439
    SETDIJ:  cpu time      0.0034: real time      0.0034
     EDDAV:  cpu time      3.1442: real time      3.1443
       DOS:  cpu time      0.0028: real time      0.0028
    CHARGE:  cpu time      0.2326: real time      0.2328
    MIXING:  cpu time      0.0019: real time      0.0019
    --------------------------------------------
      LOOP:  cpu time      3.4289: real time      3.4291

 eigenvalue-minimisations  :  4792
 total energy-change (2. order) :-0.2689192E-04  (-0.3247347E-05)
 number of electron       7.9999999 magnetization 
 augmentation part       -0.4584909 magnetization 

 Broyden mixing:
  rms(total) = 0.10095E-02    rms(broyden)= 0.10095E-02
  rms(prec ) = 0.10906E-02
  weight for this iteration     100.00

 eigenvalues of (default mixing * dielectric matrix)
  average eigenvalue GAMMA=   1.9107
  2.8961  2.4350  2.0684  1.0770  1.0770

 Free energy of the ion-electron system (eV)
  ---------------------------------------------------
  alpha Z        PSCENC =         3.36414726
  Ewald energy   TEWEN  =      -228.56352493
  -Hartree energ DENC   =       -14.92781762
  -exchange      EXHF   =         0.00000000
  -V(xc)+E(xc)   XCENC  =       -17.95895741
  PAW double counting   =       893.07941046     -858.11916917
  entropy T*S    EENTRO =        -0.00000000
  eigenvalues    EBANDS =         6.15842599
  atomic energy  EATOM  =       206.13066687
  Solvation  Ediel_sol  =         0.00000000
  ---------------------------------------------------
  free energy    TOTEN  =       -10.83681855 eV

  energy without entropy =      -10.83681855  energy(sigma->0) =      -10.83681855


--------------------------------------------------------------------------------------------------------




--------------------------------------- Iteration      1(  11)  ---------------------------------------


    POTLOK:  cpu time      0.0440: real time      0.0440
    SETDIJ:  cpu time      0.0034: real time      0.0034
     EDDAV:  cpu time      4.0243: real time      4.0245
       DOS:  cpu time      0.0028: real time      0.0028
    CHARGE:  cpu time      0.2329: real time      0.2329
    MIXING:  cpu time      0.0019: real time      0.0019
    --------------------------------------------
      LOOP:  cpu time      4.3094: real time      4.3096

 eigenvalue-minimisations  :  6576
 total energy-change (2. order) : 0.3146964E-06  (-0.5656995E-07)
 number of electron       7.9999999 magnetization 
 augmentation part       -0.4585080 magnetization 

 Broyden mixing:
  rms(total) = 0.23066E-03    rms(broyden)= 0.23066E-03
  rms(prec ) = 0.44298E-03
  weight for this iteration     100.00

 eigenvalues of (default mixing * dielectric matrix)
  average eigenvalue GAMMA=   2.1466
  3.2251  2.9966  2.4902  2.2480  0.9810  0.9386

 Free energy of the ion-electron system (eV)
  ---------------------------------------------------
  alpha Z        PSCENC =         3.36414726
  Ewald energy   TEWEN  =      -228.56352493
  -Hartree energ DENC   =       -14.92660174
  -exchange      EXHF   =         0.00000000
  -V(xc)+E(xc)   XCENC  =       -17.95897479
  PAW double counting   =       894.65750252     -859.69681474
  entropy T*S    EENTRO =        -0.00000000
  eigenvalues    EBANDS =         6.15678132
  atomic energy  EATOM  =       206.13066687
  Solvation  Ediel_sol  =         0.00000000
  ---------------------------------------------------
  free energy    TOTEN  =       -10.83681823 eV

  energy without entropy =      -10.83681823  energy(sigma->0) =      -10.83681823


--------------------------------------------------------------------------------------------------------




--------------------------------------- Iteration      1(  12)  ---------------------------------------


    POTLOK:  cpu time      0.0439: real time      0.0439
    SETDIJ:  cpu time      0.0034: real time      0.0034
     EDDAV:  cpu time      3.0944: real time      3.0945
       DOS:  cpu time      0.0028: real time      0.0028
    CHARGE:  cpu time      0.2332: real time      0.2332
    MIXING:  cpu time      0.0020: real time      0.0020
    --------------------------------------------
      LOOP:  cpu time      3.3797: real time      3.3798

 eigenvalue-minimisations  :  4680
 total energy-change (2. order) :-0.3169268E-06  (-0.5621994E-07)
 number of electron       7.9999999 magnetization 
 augmentation part       -0.4584971 magnetization 

 Broyden mixing:
  rms(total) = 0.10466E-03    rms(broyden)= 0.10466E-03
  rms(prec ) = 0.10805E-03
  weight for this iteration     100.00

 eigenvalues of (default mixing * dielectric matrix)
  average eigenvalue GAMMA=   1.9112
  3.2364  2.6923  2.4782  2.2402  0.9853  0.9853  0.7607

 Free energy of the ion-electron system (eV)
  ---------------------------------------------------
  alpha Z        PSCENC =         3.36414726
  Ewald energy   TEWEN  =      -228.56352493
  -Hartree energ DENC   =       -14.92815681
  -exchange      EXHF   =         0.00000000
  -V(xc)+E(xc)   XCENC  =       -17.95898220
  PAW double counting   =       894.54486247     -859.58418902
  entropy T*S    EENTRO =        -0.00000000
  eigenvalues    EBANDS =         6.15835781
  atomic energy  EATOM  =       206.13066687
  Solvation  Ediel_sol  =         0.00000000
  ---------------------------------------------------
  free energy    TOTEN  =       -10.83681855 eV

  energy without entropy =      -10.83681855  energy(sigma->0) =      -10.83681855


--------------------------------------------------------------------------------------------------------




--------------------------------------- Iteration      1(  13)  ---------------------------------------


    POTLOK:  cpu time      0.0439: real time      0.0439
    SETDIJ:  cpu time      0.0034: real time      0.0034
     EDDAV:  cpu time      2.4590: real time      2.4593
       DOS:  cpu time      0.0028: real time      0.0028
    --------------------------------------------
      LOOP:  cpu time      2.5092: real time      2.5094

 eigenvalue-minimisations  :  3280
 total energy-change (2. order) :-0.1375741E-07  (-0.1926938E-09)
 number of electron       7.9999999 magnetization 
 augmentation part       -0.4584971 magnetization 

 Free energy of the ion-electron system (eV)
  ---------------------------------------------------
  alpha Z        PSCENC =         3.36414726
  Ewald energy   TEWEN  =      -228.56352493
  -Hartree energ DENC   =       -14.92813037
  -exchange      EXHF   =         0.00000000
  -V(xc)+E(xc)   XCENC  =       -17.95897812
  PAW double counting   =       894.38703582     -859.42637068
  entropy T*S    EENTRO =        -0.00000000
  eigenvalues    EBANDS =         6.15833559
  atomic energy  EATOM  =       206.13066687
  Solvation  Ediel_sol  =         0.00000000
  ---------------------------------------------------
  free energy    TOTEN  =       -10.83681856 eV

  energy without entropy =      -10.83681856  energy(sigma->0) =      -10.83681856


--------------------------------------------------------------------------------------------------------




 average (electrostatic) potential at core
  the test charge radii are     0.9892
  (the norm of the test charge is              1.0000)
       1 -83.2423       2 -83.2423
 
 
 
 E-fermi :   6.0495     XC(G=0):  -9.4099     alpha+bet :-11.9845

 Fermi energy:         6.0494717167

 k-point     1 :       0.0000    0.0000    0.0000
  band No.  band energies     occupation 
      1      -6.1291      2.00000
      2       5.8325      2.00000
      3       5.8325      2.00000
      4       5.8325      2.00000
      5       8.3995      0.00000
      6       8.3995      0.00000
      7       8.3995      0.00000
      8       9.2095      0.00000

 k-point     2 :       0.1250    0.0000   -0.0000
  band No.  band energies     occupation 
      1      -5.9249      2.00000
      2       4.2352      2.00000
      3       5.5438      2.00000
      4       5.5438      2.00000
      5       8.3397      0.00000
      6       8.8240      0.00000
      7       8.8240      0.00000
      8      10.5528      0.00000

 k-point     3 :       0.0000    0.1250    0.0000
  band No.  band energies     occupation 
      1      -5.9249      2.00000
      2       4.2352      2.00000
      3       5.5438      2.00000
      4       5.5438      2.00000
      5       8.3397      0.00000
      6       8.8240      0.00000
      7       8.8240      0.00000
      8      10.5528      0.00000

 k-point     4 :       0.0000    0.0000    0.1250
  band No.  band energies     occupation 
      1      -5.9249      2.00000
      2       4.2352      2.00000
      3       5.5438      2.00000
      4       5.5438      2.00000
      5       8.3397      0.00000
      6       8.8240      0.00000
      7       8.8240      0.00000
      8      10.5528      0.00000

 k-point     5 :       0.1250    0.1250    0.1250
  band No.  band energies     occupation 
      1      -5.9249      2.00000
      2       4.2352      2.00000
      3       5.5438      2.00000
      4       5.5438      2.00000
      5       8.3397      0.00000
      6       8.8240      0.00000
      7       8.8240      0.00000
      8      10.5528      0.00000

 k-point     6 :       0.2500    0.0000   -0.0000
  band No.  band energies     occupation 
      1      -5.3290      2.00000
      2       1.9070      2.00000
      3       5.0735      2.00000
      4       5.0735      2.00000
      5       7.8667      0.00000
      6       9.3431      0.00000
      7       9.3431      0.00000
      8      12.7601      0.00000

 k-point     7 :       0.0000    0.2500    0.0000
  band No.  band energies     occupation 
      1      -5.3290      2.00000
      2       1.9070      2.00000
      3       5.0735      2.00000
      4       5.0735      2.00000
      5       7.8667      0.00000
      6       9.3431      0.00000
      7       9.3431      0.00000
      8      12.7601      0.00000

 k-point     8 :       0.0000    0.0000    0.2500
  band No.  band energies     occupation 
      1      -5.3290      2.00000
      2       1.9070      2.00000
      3       5.0735      2.00000
      4       5.0735      2.00000
      5       7.8667      0.00000
      6       9.3431      0.00000
      7       9.3431      0.00000
      8      12.7601      0.00000

 k-point     9 :       0.2500    0.2500    0.2500
  band No.  band energies     occupation 
      1      -5.3290      2.00000
      2       1.9070      2.00000
      3       5.0735      2.00000
      4       5.0735      2.00000
      5       7.8667      0.00000
      6       9.3431      0.00000
      7       9.3431      0.00000
      8      12.7601      0.00000

 k-point    10 :       0.3750    0.0000   -0.0000
  band No.  band energies     occupation 
      1      -4.4348      2.00000
      2      -0.1134      2.00000
      3       4.7466      2.00000
      4       4.7466      2.00000
      5       7.5036      0.00000
      6       9.2877      0.00000
      7       9.2877      0.00000
      8      13.7191      0.00000

 k-point    11 :       0.0000    0.3750    0.0000
  band No.  band energies     occupation 
      1      -4.4348      2.00000
      2      -0.1134      2.00000
      3       4.7466      2.00000
      4       4.7466      2.00000
      5       7.5036      0.00000
      6       9.2877      0.00000
      7       9.2877      0.00000
      8      13.7191      0.00000

 k-point    12 :       0.0000    0.0000    0.3750
  band No.  band energies     occupation 
      1      -4.4348      2.00000
      2      -0.1134      2.00000
      3       4.7466      2.00000
      4       4.7466      2.00000
      5       7.5036      0.00000
      6       9.2877      0.00000
      7       9.2877      0.00000
      8      13.7191      0.00000

 k-point    13 :       0.3750    0.3750    0.3750
  band No.  band energies     occupation 
      1      -4.4348      2.00000
      2      -0.1134      2.00000
      3       4.7466      2.00000
      4       4.7466      2.00000
      5       7.5036      0.00000
      6       9.2877      0.00000
      7       9.2877      0.00000
      8      13.7191      0.00000

 k-point    14 :       0.5000    0.0000   -0.0000
  band No.  band energies     occupation 
      1      -3.7965      2.00000
      2      -1.1363      2.00000
      3       4.6350      2.00000
      4       4.6350      2.00000
      5       7.3769      0.00000
      6       9.1780      0.00000
      7       9.1780      0.00000
      8      13.5638      0.00000

 k-point    15 :       0.0000    0.5000    0.0000
  band No.  band energies     occupation 
      1      -3.7965      2.00000
      2      -1.1363      2.00000
      3       4.6350      2.00000
      4       4.6350      2.00000
      5       7.3769      0.00000
      6       9.1780      0.00000
      7       9.1780      0.00000
      8      13.5638      0.00000

 k-point    16 :       0.0000    0.0000    0.5000
  band No.  band energies     occupation 
      1      -3.7965      2.00000
      2      -1.1363      2.00000
      3       4.6350      2.00000
      4       4.6350      2.00000
      5       7.3769      0.00000
      6       9.1780      0.00000
      7       9.1780      0.00000
      8      13.5638      0.00000

 k-point    17 :       0.5000    0.5000    0.5000
  band No.  band energies     occupation 
      1      -3.7965      2.00000
      2      -1.1363      2.00000
      3       4.6350      2.00000
      4       4.6350      2.00000
      5       7.3769      0.00000
      6       9.1780      0.00000
      7       9.1780      0.00000
      8      13.5638      0.00000

 k-point    18 :       0.1250    0.1250    0.0000
  band No.  band energies     occupation 
      1      -5.8561      2.00000
      2       4.5008      2.00000
      3       5.0263      2.00000
      4       5.0263      2.00000
      5       7.8475      0.00000
      6       9.5401      0.00000
      7       9.5401      0.00000
      8      10.2398      0.00000

 k-point    19 :       0.0000    0.1250    0.1250
  band No.  band energies     occupation 
      1      -5.8561      2.00000
      2       4.5008      2.00000
      3       5.0263      2.00000
      4       5.0263      2.00000
      5       7.8475      0.00000
      6       9.5401      0.00000
      7       9.5402      0.00000
      8      10.2398      0.00000

 k-point    20 :       0.1250    0.0000    0.1250
  band No.  band energies     occupation 
      1      -5.8561      2.00000
      2       4.5008      2.00000
      3       5.0263      2.00000
      4       5.0263      2.00000
      5       7.8475      0.00000
      6       9.5401      0.00000
      7       9.5401      0.00000
      8      10.2398      0.00000

 k-point    21 :       0.2500    0.1250    0.0000
  band No.  band energies     occupation 
      1      -5.3872      2.00000
      2       2.6102      2.00000
      3       4.5148      2.00000
      4       4.5912      2.00000
      5       7.9836      0.00000
      6       9.5471      0.00000
      7      10.3059      0.00000
      8      10.5873      0.00000

 k-point    22 :       0.0000    0.2500    0.1250
  band No.  band energies     occupation 
      1      -5.3872      2.00000
      2       2.6102      2.00000
      3       4.5148      2.00000
      4       4.5912      2.00000
      5       7.9836      0.00000
      6       9.5471      0.00000
      7      10.3059      0.00000
      8      10.5873      0.00000

 k-point    23 :       0.1250    0.0000    0.2500
  band No.  band energies     occupation 
      1      -5.3872      2.00000
      2       2.6102      2.00000
      3       4.5148      2.00000
      4       4.5912      2.00000
      5       7.9836      0.00000
      6       9.5471      0.00000
      7      10.3059      0.00000
      8      10.5873      0.00000

 k-point    24 :       0.1250    0.1250   -0.1250
  band No.  band energies     occupation 
      1      -5.3872      2.00000
      2       2.6102      2.00000
      3       4.5148      2.00000
      4       4.5912      2.00000
      5       7.9836      0.00000
      6       9.5471      0.00000
      7      10.3059      0.00000
      8      10.5873      0.00000

 k-point    25 :       0.2500    0.1250    0.2500
  band No.  band energies     occupation 
      1      -5.3872      2.00000
      2       2.6102      2.00000
      3       4.5148      2.00000
      4       4.5912      2.00000
      5       7.9836      0.00000
      6       9.5471      0.00000
      7      10.3059      0.00000
      8      10.5873      0.00000

 k-point    26 :       0.1250    0.2500    0.0000
  band No.  band energies     occupation 
      1      -5.3872      2.00000
      2       2.6102      2.00000
      3       4.5148      2.00000
      4       4.5912      2.00000
      5       7.9836      0.00000
      6       9.5471      0.00000
      7      10.3059      0.00000
      8      10.5873      0.00000

 k-point    27 :       0.1250   -0.1250   -0.1250
  band No.  band energies     occupation 
      1      -5.3872      2.00000
      2       2.6102      2.00000
      3       4.5148      2.00000
      4       4.5912      2.00000
      5       7.9836      0.00000
      6       9.5471      0.00000
      7      10.3059      0.00000
      8      10.5873      0.00000

 k-point    28 :       0.2500    0.2500    0.1250
  band No.  band energies     occupation 
      1      -5.3872      2.00000
      2       2.6102      2.00000
      3       4.5148      2.00000
      4       4.5912      2.00000
      5       7.9836      0.00000
      6       9.5471      0.00000
      7      10.3059      0.00000
      8      10.5873      0.00000

 k-point    29 :       0.0000    0.1250    0.2500
  band No.  band energies     occupation 
      1      -5.3872      2.00000
      2       2.6102      2.00000
      3       4.5148      2.00000
      4       4.5912      2.00000
      5       7.9836      0.00000
      6       9.5471      0.00000
      7      10.3059      0.00000
      8      10.5873      0.00000

 k-point    30 :      -0.1250    0.1250   -0.1250
  band No.  band energies     occupation 
      1      -5.3872      2.00000
      2       2.6102      2.00000
      3       4.5148      2.00000
      4       4.5912      2.00000
      5       7.9836      0.00000
      6       9.5471      0.00000
      7      10.3059      0.00000
      8      10.5873      0.00000

 k-point    31 :       0.1250    0.2500    0.2500
  band No.  band energies     occupation 
      1      -5.3872      2.00000
      2       2.6102      2.00000
      3       4.5148      2.00000
      4       4.5912      2.00000
      5       7.9836      0.00000
      6       9.5471      0.00000
      7      10.3059      0.00000
      8      10.5873      0.00000

 k-point    32 :       0.2500    0.0000    0.1250
  band No.  band energies     occupation 
      1      -5.3872      2.00000
      2       2.6102      2.00000
      3       4.5148      2.00000
      4       4.5912      2.00000
      5       7.9836      0.00000
      6       9.5471      0.00000
      7      10.3059      0.00000
      8      10.5873      0.00000

 k-point    33 :       0.3750    0.1250   -0.0000
  band No.  band energies     occupation 
      1      -4.5718      2.00000
      2       0.5493      2.00000
      3       3.9997      2.00000
      4       4.2468      2.00000
      5       8.0836      0.00000
      6       9.4797      0.00000
      7      10.3022      0.00000
      8      11.3054      0.00000

 k-point    34 :       0.0000    0.3750    0.1250
  band No.  band energies     occupation 
      1      -4.5718      2.00000
      2       0.5493      2.00000
      3       3.9997      2.00000
      4       4.2468      2.00000
      5       8.0836      0.00000
      6       9.4797      0.00000
      7      10.3022      0.00000
      8      11.3054      0.00000

 k-point    35 :       0.1250    0.0000    0.3750
  band No.  band energies     occupation 
      1      -4.5718      2.00000
      2       0.5493      2.00000
      3       3.9997      2.00000
      4       4.2468      2.00000
      5       8.0836      0.00000
      6       9.4797      0.00000
      7      10.3022      0.00000
      8      11.3054      0.00000

 k-point    36 :       0.1250    0.1250   -0.2500
  band No.  band energies     occupation 
      1      -4.5718      2.00000
      2       0.5493      2.00000
      3       3.9997      2.00000
      4       4.2468      2.00000
      5       8.0836      0.00000
      6       9.4797      0.00000
      7      10.3022      0.00000
      8      11.3054      0.00000

 k-point    37 :       0.3750    0.2500    0.3750
  band No.  band energies     occupation 
      1      -4.5718      2.00000
      2       0.5493      2.00000
      3       3.9997      2.00000
      4       4.2468      2.00000
      5       8.0836      0.00000
      6       9.4797      0.00000
      7      10.3022      0.00000
      8      11.3054      0.00000

 k-point    38 :       0.1250    0.3750    0.0000
  band No.  band energies     occupation 
      1      -4.5718      2.00000
      2       0.5493      2.00000
      3       3.9997      2.00000
      4       4.2468      2.00000
      5       8.0836      0.00000
      6       9.4797      0.00000
      7      10.3022      0.00000
      8      11.3054      0.00000

 k-point    39 :       0.2500   -0.1250   -0.1250
  band No.  band energies     occupation 
      1      -4.5718      2.00000
      2       0.5493      2.00000
      3       3.9997      2.00000
      4       4.2468      2.00000
      5       8.0836      0.00000
      6       9.4797      0.00000
      7      10.3022      0.00000
      8      11.3054      0.00000

 k-point    40 :       0.3750    0.3750    0.2500
  band No.  band energies     occupation 
      1      -4.5718      2.00000
      2       0.5493      2.00000
      3       3.9997      2.00000
      4       4.2468      2.00000
      5       8.0836      0.00000
      6       9.4797      0.00000
      7      10.3022      0.00000
      8      11.3054      0.00000

 k-point    41 :       0.0000    0.1250    0.3750
  band No.  band energies     occupation 
      1      -4.5718      2.00000
      2       0.5493      2.00000
      3       3.9997      2.00000
      4       4.2468      2.00000
      5       8.0836      0.00000
      6       9.4797      0.00000
      7      10.3022      0.00000
      8      11.3054      0.00000

 k-point    42 :      -0.1250    0.2500   -0.1250
  band No.  band energies     occupation 
      1      -4.5718      2.00000
      2       0.5493      2.00000
      3       3.9997      2.00000
      4       4.2468      2.00000
      5       8.0836      0.00000
      6       9.4797      0.00000
      7      10.3022      0.00000
      8      11.3054      0.00000

 k-point    43 :       0.2500    0.3750    0.3750
  band No.  band energies     occupation 
      1      -4.5718      2.00000
      2       0.5493      2.00000
      3       3.9997      2.00000
      4       4.2468      2.00000
      5       8.0836      0.00000
      6       9.4797      0.00000
      7      10.3022      0.00000
      8      11.3054      0.00000

 k-point    44 :       0.3750    0.0000    0.1250
  band No.  band energies     occupation 
      1      -4.5718      2.00000
      2       0.5493      2.00000
      3       3.9997      2.00000
      4       4.2468      2.00000
      5       8.0836      0.00000
      6       9.4797      0.00000
      7      10.3022      0.00000
      8      11.3054      0.00000

 k-point    45 :       0.5000    0.1250   -0.0000
  band No.  band energies     occupation 
      1      -3.7099      2.00000
      2      -0.9147      2.00000
      3       3.5540      2.00000
      4       4.2712      2.00000
      5       8.0307      0.00000
      6       9.3518      0.00000
      7       9.9376      0.00000
      8      13.2094      0.00000

 k-point    46 :      -0.0000    0.5000    0.1250
  band No.  band energies     occupation 
      1      -3.7099      2.00000
      2      -0.9147      2.00000
      3       3.5540      2.00000
      4       4.2712      2.00000
      5       8.0307      0.00000
      6       9.3518      0.00000
      7       9.9376      0.00000
      8      13.2094      0.00000

 k-point    47 :       0.1250    0.0000    0.5000
  band No.  band energies     occupation 
      1      -3.7099      2.00000
      2      -0.9147      2.00000
      3       3.5540      2.00000
      4       4.2712      2.00000
      5       8.0307      0.00000
      6       9.3518      0.00000
      7       9.9376      0.00000
      8      13.2094      0.00000

 k-point    48 :       0.1250    0.1250   -0.3750
  band No.  band energies     occupation 
      1      -3.7099      2.00000
      2      -0.9147      2.00000
      3       3.5540      2.00000
      4       4.2712      2.00000
      5       8.0307      0.00000
      6       9.3518      0.00000
      7       9.9376      0.00000
      8      13.2094      0.00000

 k-point    49 :       0.5000    0.3750    0.5000
  band No.  band energies     occupation 
      1      -3.7099      2.00000
      2      -0.9147      2.00000
      3       3.5540      2.00000
      4       4.2712      2.00000
      5       8.0307      0.00000
      6       9.3518      0.00000
      7       9.9376      0.00000
      8      13.2094      0.00000

 k-point    50 :       0.1250    0.5000    0.0000
  band No.  band energies     occupation 
      1      -3.7099      2.00000
      2      -0.9147      2.00000
      3       3.5540      2.00000
      4       4.2712      2.00000
      5       8.0307      0.00000
      6       9.3518      0.00000
      7       9.9376      0.00000
      8      13.2094      0.00000

 k-point    51 :       0.3750   -0.1250   -0.1250
  band No.  band energies     occupation 
      1      -3.7099      2.00000
      2      -0.9147      2.00000
      3       3.5540      2.00000
      4       4.2712      2.00000
      5       8.0307      0.00000
      6       9.3518      0.00000
      7       9.9376      0.00000
      8      13.2094      0.00000

 k-point    52 :       0.5000    0.5000    0.3750
  band No.  band energies     occupation 
      1      -3.7099      2.00000
      2      -0.9147      2.00000
      3       3.5540      2.00000
      4       4.2712      2.00000
      5       8.0307      0.00000
      6       9.3518      0.00000
      7       9.9376      0.00000
      8      13.2094      0.00000

 k-point    53 :       0.0000    0.1250    0.5000
  band No.  band energies     occupation 
      1      -3.7099      2.00000
      2      -0.9147      2.00000
      3       3.5540      2.00000
      4       4.2712      2.00000
      5       8.0307      0.00000
      6       9.3518      0.00000
      7       9.9376      0.00000
      8      13.2094      0.00000

 k-point    54 :      -0.1250    0.3750   -0.1250
  band No.  band energies     occupation 
      1      -3.7099      2.00000
      2      -0.9147      2.00000
      3       3.5540      2.00000
      4       4.2712      2.00000
      5       8.0307      0.00000
      6       9.3518      0.00000
      7       9.9376      0.00000
      8      13.2094      0.00000

 k-point    55 :       0.3750    0.5000    0.5000
  band No.  band energies     occupation 
      1      -3.7099      2.00000
      2      -0.9147      2.00000
      3       3.5540      2.00000
      4       4.2712      2.00000
      5       8.0307      0.00000
      6       9.3518      0.00000
      7       9.9376      0.00000
      8      13.2094      0.00000

 k-point    56 :       0.5000    0.0000    0.1250
  band No.  band energies     occupation 
      1      -3.7099      2.00000
      2      -0.9147      2.00000
      3       3.5540      2.00000
      4       4.2712      2.00000
      5       8.0307      0.00000
      6       9.3518      0.00000
      7       9.9376      0.00000
      8      13.2094      0.00000

 k-point    57 :      -0.3750    0.1250    0.0000
  band No.  band energies     occupation 
      1      -3.9546      2.00000
      2      -0.5439      2.00000
      3       3.3722      2.00000
      4       4.5678      2.00000
      5       8.1981      0.00000
      6       9.4597      0.00000
      7       9.7056      0.00000
      8      13.7559      0.00000

 k-point    58 :      -0.0000   -0.3750    0.1250
  band No.  band energies     occupation 
      1      -3.9546      2.00000
      2      -0.5439      2.00000
      3       3.3722      2.00000
      4       4.5678      2.00000
      5       8.1981      0.00000
      6       9.4597      0.00000
      7       9.7056      0.00000
      8      13.7559      0.00000

 k-point    59 :       0.1250   -0.0000   -0.3750
  band No.  band energies     occupation 
      1      -3.9546      2.00000
      2      -0.5439      2.00000
      3       3.3722      2.00000
      4       4.5678      2.00000
      5       8.1981      0.00000
      6       9.4597      0.00000
      7       9.7056      0.00000
      8      13.7559      0.00000

 k-point    60 :       0.1250    0.1250    0.5000
  band No.  band energies     occupation 
      1      -3.9546      2.00000
      2      -0.5439      2.00000
      3       3.3722      2.00000
      4       4.5678      2.00000
      5       8.1981      0.00000
      6       9.4597      0.00000
      7       9.7056      0.00000
      8      13.7559      0.00000

 k-point    61 :      -0.3750    0.5000   -0.3750
  band No.  band energies     occupation 
      1      -3.9546      2.00000
      2      -0.5439      2.00000
      3       3.3722      2.00000
      4       4.5678      2.00000
      5       8.1981      0.00000
      6       9.4597      0.00000
      7       9.7056      0.00000
      8      13.7559      0.00000

 k-point    62 :       0.1250   -0.3750   -0.0000
  band No.  band energies     occupation 
      1      -3.9546      2.00000
      2      -0.5439      2.00000
      3       3.3722      2.00000
      4       4.5678      2.00000
      5       8.1981      0.00000
      6       9.4597      0.00000
      7       9.7056      0.00000
      8      13.7559      0.00000

 k-point    63 :       0.5000   -0.1250   -0.1250
  band No.  band energies     occupation 
      1      -3.9546      2.00000
      2      -0.5439      2.00000
      3       3.3722      2.00000
      4       4.5678      2.00000
      5       8.1981      0.00000
      6       9.4597      0.00000
      7       9.7056      0.00000
      8      13.7559      0.00000

 k-point    64 :      -0.3750   -0.3750    0.5000
  band No.  band energies     occupation 
      1      -3.9546      2.00000
      2      -0.5439      2.00000
      3       3.3722      2.00000
      4       4.5678      2.00000
      5       8.1981      0.00000
      6       9.4597      0.00000
      7       9.7056      0.00000
      8      13.7559      0.00000

 k-point    65 :       0.0000    0.1250   -0.3750
  band No.  band energies     occupation 
      1      -3.9546      2.00000
      2      -0.5439      2.00000
      3       3.3722      2.00000
      4       4.5678      2.00000
      5       8.1981      0.00000
      6       9.4597      0.00000
      7       9.7056      0.00000
      8      13.7559      0.00000

 k-point    66 :      -0.1250    0.5000   -0.1250
  band No.  band energies     occupation 
      1      -3.9546      2.00000
      2      -0.5439      2.00000
      3       3.3722      2.00000
      4       4.5678      2.00000
      5       8.1981      0.00000
      6       9.4597      0.00000
      7       9.7056      0.00000
      8      13.7559      0.00000

 k-point    67 :       0.5000   -0.3750   -0.3750
  band No.  band energies     occupation 
      1      -3.9546      2.00000
      2      -0.5439      2.00000
      3       3.3722      2.00000
      4       4.5678      2.00000
      5       8.1981      0.00000
      6       9.4597      0.00000
      7       9.7056      0.00000
      8      13.7559      0.00000

 k-point    68 :      -0.3750   -0.0000    0.1250
  band No.  band energies     occupation 
      1      -3.9546      2.00000
      2      -0.5439      2.00000
      3       3.3722      2.00000
      4       4.5678      2.00000
      5       8.1981      0.00000
      6       9.4597      0.00000
      7       9.7056      0.00000
      8      13.7559      0.00000

 k-point    69 :      -0.2500    0.1250    0.0000
  band No.  band energies     occupation 
      1      -4.8783      2.00000
      2       1.2088      2.00000
      3       3.5230      2.00000
      4       5.0595      2.00000
      5       8.5574      0.00000
      6       9.5147      0.00000
      7       9.6933      0.00000
      8      12.1383      0.00000

 k-point    70 :       0.0000   -0.2500    0.1250
  band No.  band energies     occupation 
      1      -4.8783      2.00000
      2       1.2088      2.00000
      3       3.5230      2.00000
      4       5.0595      2.00000
      5       8.5574      0.00000
      6       9.5147      0.00000
      7       9.6933      0.00000
      8      12.1383      0.00000

 k-point    71 :       0.1250   -0.0000   -0.2500
  band No.  band energies     occupation 
      1      -4.8783      2.00000
      2       1.2088      2.00000
      3       3.5230      2.00000
      4       5.0595      2.00000
      5       8.5574      0.00000
      6       9.5147      0.00000
      7       9.6933      0.00000
      8      12.1383      0.00000

 k-point    72 :       0.1250    0.1250    0.3750
  band No.  band energies     occupation 
      1      -4.8783      2.00000
      2       1.2088      2.00000
      3       3.5230      2.00000
      4       5.0595      2.00000
      5       8.5574      0.00000
      6       9.5147      0.00000
      7       9.6933      0.00000
      8      12.1383      0.00000

 k-point    73 :      -0.2500   -0.3750   -0.2500
  band No.  band energies     occupation 
      1      -4.8783      2.00000
      2       1.2088      2.00000
      3       3.5230      2.00000
      4       5.0595      2.00000
      5       8.5574      0.00000
      6       9.5147      0.00000
      7       9.6933      0.00000
      8      12.1383      0.00000

 k-point    74 :       0.1250   -0.2500   -0.0000
  band No.  band energies     occupation 
      1      -4.8783      2.00000
      2       1.2088      2.00000
      3       3.5230      2.00000
      4       5.0595      2.00000
      5       8.5574      0.00000
      6       9.5147      0.00000
      7       9.6933      0.00000
      8      12.1383      0.00000

 k-point    75 :      -0.3750   -0.1250   -0.1250
  band No.  band energies     occupation 
      1      -4.8783      2.00000
      2       1.2088      2.00000
      3       3.5230      2.00000
      4       5.0595      2.00000
      5       8.5574      0.00000
      6       9.5147      0.00000
      7       9.6933      0.00000
      8      12.1383      0.00000

 k-point    76 :      -0.2500   -0.2500   -0.3750
  band No.  band energies     occupation 
      1      -4.8783      2.00000
      2       1.2088      2.00000
      3       3.5230      2.00000
      4       5.0595      2.00000
      5       8.5574      0.00000
      6       9.5147      0.00000
      7       9.6933      0.00000
      8      12.1383      0.00000

 k-point    77 :      -0.0000    0.1250   -0.2500
  band No.  band energies     occupation 
      1      -4.8783      2.00000
      2       1.2088      2.00000
      3       3.5230      2.00000
      4       5.0595      2.00000
      5       8.5574      0.00000
      6       9.5147      0.00000
      7       9.6933      0.00000
      8      12.1383      0.00000

 k-point    78 :      -0.1250   -0.3750   -0.1250
  band No.  band energies     occupation 
      1      -4.8783      2.00000
      2       1.2088      2.00000
      3       3.5230      2.00000
      4       5.0595      2.00000
      5       8.5574      0.00000
      6       9.5147      0.00000
      7       9.6933      0.00000
      8      12.1383      0.00000

 k-point    79 :      -0.3750   -0.2500   -0.2500
  band No.  band energies     occupation 
      1      -4.8783      2.00000
      2       1.2088      2.00000
      3       3.5230      2.00000
      4       5.0595      2.00000
      5       8.5574      0.00000
      6       9.5147      0.00000
      7       9.6933      0.00000
      8      12.1383      0.00000

 k-point    80 :      -0.2500   -0.0000    0.1250
  band No.  band energies     occupation 
      1      -4.8783      2.00000
      2       1.2088      2.00000
      3       3.5230      2.00000
      4       5.0595      2.00000
      5       8.5574      0.00000
      6       9.5147      0.00000
      7       9.6933      0.00000
      8      12.1383      0.00000

 k-point    81 :      -0.1250    0.1250    0.0000
  band No.  band energies     occupation 
      1      -5.5885      2.00000
      2       3.1507      2.00000
      3       4.2049      2.00000
      4       5.5403      2.00000
      5       8.8815      0.00000
      6       8.9606      0.00000
      7       9.1958      0.00000
      8      11.3904      0.00000

 k-point    82 :       0.0000   -0.1250    0.1250
  band No.  band energies     occupation 
      1      -5.5885      2.00000
      2       3.1507      2.00000
      3       4.2049      2.00000
      4       5.5403      2.00000
      5       8.8815      0.00000
      6       8.9606      0.00000
      7       9.1958      0.00000
      8      11.3904      0.00000

 k-point    83 :       0.1250   -0.0000   -0.1250
  band No.  band energies     occupation 
      1      -5.5885      2.00000
      2       3.1507      2.00000
      3       4.2049      2.00000
      4       5.5403      2.00000
      5       8.8815      0.00000
      6       8.9606      0.00000
      7       9.1958      0.00000
      8      11.3904      0.00000

 k-point    84 :       0.1250    0.1250    0.2500
  band No.  band energies     occupation 
      1      -5.5885      2.00000
      2       3.1507      2.00000
      3       4.2049      2.00000
      4       5.5403      2.00000
      5       8.8815      0.00000
      6       8.9606      0.00000
      7       9.1958      0.00000
      8      11.3904      0.00000

 k-point    85 :      -0.1250   -0.2500   -0.1250
  band No.  band energies     occupation 
      1      -5.5885      2.00000
      2       3.1507      2.00000
      3       4.2049      2.00000
      4       5.5403      2.00000
      5       8.8815      0.00000
      6       8.9606      0.00000
      7       9.1958      0.00000
      8      11.3904      0.00000

 k-point    86 :      -0.2500   -0.1250   -0.1250
  band No.  band energies     occupation 
      1      -5.5885      2.00000
      2       3.1507      2.00000
      3       4.2049      2.00000
      4       5.5403      2.00000
      5       8.8815      0.00000
      6       8.9606      0.00000
      7       9.1958      0.00000
      8      11.3904      0.00000

 k-point    87 :       0.2500    0.2500    0.0000
  band No.  band energies     occupation 
      1      -5.0466      2.00000
      2       2.3178      2.00000
      3       3.9436      2.00000
      4       3.9436      2.00000
      5       6.9652      0.00000
      6       8.9685      0.00000
      7      11.5952      0.00000
      8      11.5952      0.00000

 k-point    88 :       0.0000    0.2500    0.2500
  band No.  band energies     occupation 
      1      -5.0466      2.00000
      2       2.3178      2.00000
      3       3.9436      2.00000
      4       3.9436      2.00000
      5       6.9652      0.00000
      6       8.9685      0.00000
      7      11.5952      0.00000
      8      11.5952      0.00000

 k-point    89 :       0.2500    0.0000    0.2500
  band No.  band energies     occupation 
      1      -5.0466      2.00000
      2       2.3178      2.00000
      3       3.9436      2.00000
      4       3.9436      2.00000
      5       6.9652      0.00000
      6       8.9685      0.00000
      7      11.5952      0.00000
      8      11.5952      0.00000

 k-point    90 :       0.3750    0.2500    0.0000
  band No.  band energies     occupation 
      1      -4.3363      2.00000
      2       0.8939      2.00000
      3       3.1629      2.00000
      4       3.6255      2.00000
      5       7.1860      0.00000
      6       8.7297      0.00000
      7      11.8372      0.00000
      8      12.1085      0.00000

 k-point    91 :       0.0000    0.3750    0.2500
  band No.  band energies     occupation 
      1      -4.3363      2.00000
      2       0.8939      2.00000
      3       3.1629      2.00000
      4       3.6255      2.00000
      5       7.1860      0.00000
      6       8.7297      0.00000
      7      11.8372      0.00000
      8      12.1085      0.00000

 k-point    92 :       0.2500    0.0000    0.3750
  band No.  band energies     occupation 
      1      -4.3363      2.00000
      2       0.8939      2.00000
      3       3.1629      2.00000
      4       3.6255      2.00000
      5       7.1860      0.00000
      6       8.7297      0.00000
      7      11.8372      0.00000
      8      12.1085      0.00000

 k-point    93 :       0.2500    0.2500   -0.1250
  band No.  band energies     occupation 
      1      -4.3363      2.00000
      2       0.8939      2.00000
      3       3.1629      2.00000
      4       3.6255      2.00000
      5       7.1860      0.00000
      6       8.7297      0.00000
      7      11.8372      0.00000
      8      12.1085      0.00000

 k-point    94 :       0.3750    0.1250    0.3750
  band No.  band energies     occupation 
      1      -4.3363      2.00000
      2       0.8939      2.00000
      3       3.1629      2.00000
      4       3.6255      2.00000
      5       7.1860      0.00000
      6       8.7297      0.00000
      7      11.8372      0.00000
      8      12.1085      0.00000

 k-point    95 :       0.2500    0.3750    0.0000
  band No.  band energies     occupation 
      1      -4.3363      2.00000
      2       0.8939      2.00000
      3       3.1629      2.00000
      4       3.6255      2.00000
      5       7.1860      0.00000
      6       8.7297      0.00000
      7      11.8372      0.00000
      8      12.1085      0.00000

 k-point    96 :       0.1250   -0.2500   -0.2500
  band No.  band energies     occupation 
      1      -4.3363      2.00000
      2       0.8939      2.00000
      3       3.1629      2.00000
      4       3.6255      2.00000
      5       7.1860      0.00000
      6       8.7297      0.00000
      7      11.8372      0.00000
      8      12.1085      0.00000

 k-point    97 :       0.3750    0.3750    0.1250
  band No.  band energies     occupation 
      1      -4.3363      2.00000
      2       0.8939      2.00000
      3       3.1629      2.00000
      4       3.6255      2.00000
      5       7.1860      0.00000
      6       8.7297      0.00000
      7      11.8372      0.00000
      8      12.1085      0.00000

 k-point    98 :       0.0000    0.2500    0.3750
  band No.  band energies     occupation 
      1      -4.3363      2.00000
      2       0.8939      2.00000
      3       3.1629      2.00000
      4       3.6255      2.00000
      5       7.1860      0.00000
      6       8.7297      0.00000
      7      11.8372      0.00000
      8      12.1085      0.00000

 k-point    99 :      -0.2500    0.1250   -0.2500
  band No.  band energies     occupation 
      1      -4.3363      2.00000
      2       0.8939      2.00000
      3       3.1629      2.00000
      4       3.6255      2.00000
      5       7.1860      0.00000
      6       8.7297      0.00000
      7      11.8372      0.00000
      8      12.1085      0.00000

 k-point   100 :       0.1250    0.3750    0.3750
  band No.  band energies     occupation 
      1      -4.3363      2.00000
      2       0.8939      2.00000
      3       3.1629      2.00000
      4       3.6255      2.00000
      5       7.1860      0.00000
      6       8.7297      0.00000
      7      11.8372      0.00000
      8      12.1085      0.00000

 k-point   101 :       0.3750    0.0000    0.2500
  band No.  band energies     occupation 
      1      -4.3363      2.00000
      2       0.8939      2.00000
      3       3.1629      2.00000
      4       3.6255      2.00000
      5       7.1860      0.00000
      6       8.7297      0.00000
      7      11.8372      0.00000
      8      12.1085      0.00000

 k-point   102 :       0.5000    0.2500    0.0000
  band No.  band energies     occupation 
      1      -3.4098      2.00000
      2      -0.5486      2.00000
      3       2.2993      2.00000
      4       3.6286      2.00000
      5       7.3549      0.00000
      6      10.2850      0.00000
      7      11.5850      0.00000
      8      11.7585      0.00000

 k-point   103 :       0.0000    0.5000    0.2500
  band No.  band energies     occupation 
      1      -3.4098      2.00000
      2      -0.5486      2.00000
      3       2.2993      2.00000
      4       3.6286      2.00000
      5       7.3549      0.00000
      6      10.2850      0.00000
      7      11.5850      0.00000
      8      11.7585      0.00000

 k-point   104 :       0.2500    0.0000    0.5000
  band No.  band energies     occupation 
      1      -3.4098      2.00000
      2      -0.5486      2.00000
      3       2.2993      2.00000
      4       3.6286      2.00000
      5       7.3549      0.00000
      6      10.2850      0.00000
      7      11.5850      0.00000
      8      11.7585      0.00000

 k-point   105 :       0.2500    0.2500   -0.2500
  band No.  band energies     occupation 
      1      -3.4098      2.00000
      2      -0.5486      2.00000
      3       2.2993      2.00000
      4       3.6286      2.00000
      5       7.3549      0.00000
      6      10.2850      0.00000
      7      11.5850      0.00000
      8      11.7585      0.00000

 k-point   106 :       0.5000    0.2500    0.5000
  band No.  band energies     occupation 
      1      -3.4098      2.00000
      2      -0.5486      2.00000
      3       2.2993      2.00000
      4       3.6286      2.00000
      5       7.3549      0.00000
      6      10.2850      0.00000
      7      11.5850      0.00000
      8      11.7585      0.00000

 k-point   107 :       0.2500    0.5000    0.0000
  band No.  band energies     occupation 
      1      -3.4098      2.00000
      2      -0.5486      2.00000
      3       2.2993      2.00000
      4       3.6286      2.00000
      5       7.3549      0.00000
      6      10.2850      0.00000
      7      11.5850      0.00000
      8      11.7585      0.00000

 k-point   108 :       0.2500   -0.2500   -0.2500
  band No.  band energies     occupation 
      1      -3.4098      2.00000
      2      -0.5486      2.00000
      3       2.2993      2.00000
      4       3.6286      2.00000
      5       7.3549      0.00000
      6      10.2850      0.00000
      7      11.5850      0.00000
      8      11.7585      0.00000

 k-point   109 :       0.5000    0.5000    0.2500
  band No.  band energies     occupation 
      1      -3.4098      2.00000
      2      -0.5486      2.00000
      3       2.2993      2.00000
      4       3.6286      2.00000
      5       7.3549      0.00000
      6      10.2850      0.00000
      7      11.5850      0.00000
      8      11.7585      0.00000

 k-point   110 :       0.0000    0.2500    0.5000
  band No.  band energies     occupation 
      1      -3.4098      2.00000
      2      -0.5486      2.00000
      3       2.2993      2.00000
      4       3.6286      2.00000
      5       7.3549      0.00000
      6      10.2850      0.00000
      7      11.5850      0.00000
      8      11.7585      0.00000

 k-point   111 :      -0.2500    0.2500   -0.2500
  band No.  band energies     occupation 
      1      -3.4098      2.00000
      2      -0.5486      2.00000
      3       2.2993      2.00000
      4       3.6286      2.00000
      5       7.3549      0.00000
      6      10.2850      0.00000
      7      11.5850      0.00000
      8      11.7585      0.00000

 k-point   112 :       0.2500    0.5000    0.5000
  band No.  band energies     occupation 
      1      -3.4098      2.00000
      2      -0.5486      2.00000
      3       2.2993      2.00000
      4       3.6286      2.00000
      5       7.3549      0.00000
      6      10.2850      0.00000
      7      11.5850      0.00000
      8      11.7585      0.00000

 k-point   113 :       0.5000    0.0000    0.2500
  band No.  band energies     occupation 
      1      -3.4098      2.00000
      2      -0.5486      2.00000
      3       2.2993      2.00000
      4       3.6286      2.00000
      5       7.3549      0.00000
      6      10.2850      0.00000
      7      11.5850      0.00000
      8      11.7585      0.00000

 k-point   114 :      -0.3750    0.2500    0.0000
  band No.  band energies     occupation 
      1      -3.2054      2.00000
      2      -0.8071      2.00000
      3       1.8407      2.00000
      4       3.9471      2.00000
      5       7.6800      0.00000
      6      11.3028      0.00000
      7      11.3188      0.00000
      8      12.8000      0.00000

 k-point   115 :       0.0000   -0.3750    0.2500
  band No.  band energies     occupation 
      1      -3.2054      2.00000
      2      -0.8071      2.00000
      3       1.8407      2.00000
      4       3.9471      2.00000
      5       7.6800      0.00000
      6      11.3028      0.00000
      7      11.3188      0.00000
      8      12.8000      0.00000

 k-point   116 :       0.2500   -0.0000   -0.3750
  band No.  band energies     occupation 
      1      -3.2054      2.00000
      2      -0.8071      2.00000
      3       1.8407      2.00000
      4       3.9471      2.00000
      5       7.6800      0.00000
      6      11.3028      0.00000
      7      11.3188      0.00000
      8      12.8000      0.00000

 k-point   117 :       0.2500    0.2500   -0.3750
  band No.  band energies     occupation 
      1      -3.2054      2.00000
      2      -0.8071      2.00000
      3       1.8407      2.00000
      4       3.9471      2.00000
      5       7.6800      0.00000
      6      11.3028      0.00000
      7      11.3188      0.00000
      8      12.8000      0.00000

 k-point   118 :      -0.3750    0.3750   -0.3750
  band No.  band energies     occupation 
      1      -3.2054      2.00000
      2      -0.8071      2.00000
      3       1.8407      2.00000
      4       3.9471      2.00000
      5       7.6800      0.00000
      6      11.3028      0.00000
      7      11.3188      0.00000
      8      12.8000      0.00000

 k-point   119 :       0.2500   -0.3750   -0.0000
  band No.  band energies     occupation 
      1      -3.2054      2.00000
      2      -0.8071      2.00000
      3       1.8407      2.00000
      4       3.9471      2.00000
      5       7.6800      0.00000
      6      11.3028      0.00000
      7      11.3188      0.00000
      8      12.8000      0.00000

 k-point   120 :       0.3750   -0.2500   -0.2500
  band No.  band energies     occupation 
      1      -3.2054      2.00000
      2      -0.8071      2.00000
      3       1.8407      2.00000
      4       3.9471      2.00000
      5       7.6800      0.00000
      6      11.3028      0.00000
      7      11.3188      0.00000
      8      12.8000      0.00000

 k-point   121 :      -0.3750   -0.3750    0.3750
  band No.  band energies     occupation 
      1      -3.2054      2.00000
      2      -0.8071      2.00000
      3       1.8407      2.00000
      4       3.9471      2.00000
      5       7.6800      0.00000
      6      11.3028      0.00000
      7      11.3188      0.00000
      8      12.8000      0.00000

 k-point   122 :      -0.0000    0.2500   -0.3750
  band No.  band energies     occupation 
      1      -3.2054      2.00000
      2      -0.8071      2.00000
      3       1.8407      2.00000
      4       3.9471      2.00000
      5       7.6800      0.00000
      6      11.3028      0.00000
      7      11.3188      0.00000
      8      12.8000      0.00000

 k-point   123 :      -0.2500    0.3750   -0.2500
  band No.  band energies     occupation 
      1      -3.2054      2.00000
      2      -0.8071      2.00000
      3       1.8407      2.00000
      4       3.9471      2.00000
      5       7.6800      0.00000
      6      11.3028      0.00000
      7      11.3188      0.00000
      8      12.8000      0.00000

 k-point   124 :       0.3750   -0.3750   -0.3750
  band No.  band energies     occupation 
      1      -3.2054      2.00000
      2      -0.8071      2.00000
      3       1.8407      2.00000
      4       3.9471      2.00000
      5       7.6800      0.00000
      6      11.3028      0.00000
      7      11.3188      0.00000
      8      12.8000      0.00000

 k-point   125 :      -0.3750   -0.0000    0.2500
  band No.  band energies     occupation 
      1      -3.2054      2.00000
      2      -0.8071      2.00000
      3       1.8407      2.00000
      4       3.9471      2.00000
      5       7.6800      0.00000
      6      11.3028      0.00000
      7      11.3188      0.00000
      8      12.8000      0.00000

 k-point   126 :      -0.2500    0.2500    0.0000
  band No.  band energies     occupation 
      1      -4.0844      2.00000
      2       0.3542      2.00000
      3       2.0807      2.00000
      4       4.5055      2.00000
      5       8.2865      0.00000
      6      10.6282      0.00000
      7      10.9702      0.00000
      8      11.9869      0.00000

 k-point   127 :      -0.0000   -0.2500    0.2500
  band No.  band energies     occupation 
      1      -4.0844      2.00000
      2       0.3542      2.00000
      3       2.0807      2.00000
      4       4.5055      2.00000
      5       8.2865      0.00000
      6      10.6282      0.00000
      7      10.9702      0.00000
      8      11.9869      0.00000

 k-point   128 :       0.2500    0.0000   -0.2500
  band No.  band energies     occupation 
      1      -4.0844      2.00000
      2       0.3542      2.00000
      3       2.0807      2.00000
      4       4.5055      2.00000
      5       8.2865      0.00000
      6      10.6282      0.00000
      7      10.9702      0.00000
      8      11.9869      0.00000

 k-point   129 :       0.2500    0.2500    0.5000
  band No.  band energies     occupation 
      1      -4.0844      2.00000
      2       0.3542      2.00000
      3       2.0807      2.00000
      4       4.5055      2.00000
      5       8.2865      0.00000
      6      10.6282      0.00000
      7      10.9702      0.00000
      8      11.9869      0.00000

 k-point   130 :      -0.2500    0.5000   -0.2500
  band No.  band energies     occupation 
      1      -4.0844      2.00000
      2       0.3542      2.00000
      3       2.0807      2.00000
      4       4.5055      2.00000
      5       8.2865      0.00000
      6      10.6282      0.00000
      7      10.9702      0.00000
      8      11.9869      0.00000

 k-point   131 :       0.5000   -0.2500   -0.2500
  band No.  band energies     occupation 
      1      -4.0844      2.00000
      2       0.3542      2.00000
      3       2.0807      2.00000
      4       4.5055      2.00000
      5       8.2865      0.00000
      6      10.6282      0.00000
      7      10.9702      0.00000
      8      11.9869      0.00000

 k-point   132 :       0.3750    0.3750    0.0000
  band No.  band energies     occupation 
      1      -3.7336      2.00000
      2       0.0893      2.00000
      3       3.2271      2.00000
      4       3.2271      2.00000
      5       6.4493      0.00000
      6       7.3740      0.00000
      7      13.8825      0.00000
      8      13.8825      0.00000

 k-point   133 :       0.0000    0.3750    0.3750
  band No.  band energies     occupation 
      1      -3.7336      2.00000
      2       0.0893      2.00000
      3       3.2271      2.00000
      4       3.2271      2.00000
      5       6.4493      0.00000
      6       7.3740      0.00000
      7      13.8825      0.00000
      8      13.8825      0.00000

 k-point   134 :       0.3750    0.0000    0.3750
  band No.  band energies     occupation 
      1      -3.7336      2.00000
      2       0.0893      2.00000
      3       3.2271      2.00000
      4       3.2271      2.00000
      5       6.4493      0.00000
      6       7.3740      0.00000
      7      13.8825      0.00000
      8      13.8825      0.00000

 k-point   135 :       0.5000    0.3750    0.0000
  band No.  band energies     occupation 
      1      -2.8358      2.00000
      2      -0.9960      2.00000
      3       2.3977      2.00000
      4       3.1509      2.00000
      5       6.7290      0.00000
      6       7.8023      0.00000
      7      14.1091      0.00000
      8      14.1972      0.00000

 k-point   136 :       0.0000    0.5000    0.3750
  band No.  band energies     occupation 
      1      -2.8358      2.00000
      2      -0.9960      2.00000
      3       2.3977      2.00000
      4       3.1509      2.00000
      5       6.7290      0.00000
      6       7.8023      0.00000
      7      14.1091      0.00000
      8      14.1972      0.00000

 k-point   137 :       0.3750    0.0000    0.5000
  band No.  band energies     occupation 
      1      -2.8358      2.00000
      2      -0.9960      2.00000
      3       2.3977      2.00000
      4       3.1509      2.00000
      5       6.7290      0.00000
      6       7.8023      0.00000
      7      14.1091      0.00000
      8      14.1972      0.00000

 k-point   138 :       0.3750    0.3750   -0.1250
  band No.  band energies     occupation 
      1      -2.8358      2.00000
      2      -0.9960      2.00000
      3       2.3977      2.00000
      4       3.1509      2.00000
      5       6.7290      0.00000
      6       7.8023      0.00000
      7      14.1091      0.00000
      8      14.1972      0.00000

 k-point   139 :       0.5000    0.1250    0.5000
  band No.  band energies     occupation 
      1      -2.8358      2.00000
      2      -0.9960      2.00000
      3       2.3977      2.00000
      4       3.1509      2.00000
      5       6.7290      0.00000
      6       7.8023      0.00000
      7      14.1091      0.00000
      8      14.1972      0.00000

 k-point   140 :       0.3750    0.5000    0.0000
  band No.  band energies     occupation 
      1      -2.8358      2.00000
      2      -0.9960      2.00000
      3       2.3977      2.00000
      4       3.1509      2.00000
      5       6.7290      0.00000
      6       7.8023      0.00000
      7      14.1091      0.00000
      8      14.1972      0.00000

 k-point   141 :       0.1250   -0.3750   -0.3750
  band No.  band energies     occupation 
      1      -2.8358      2.00000
      2      -0.9960      2.00000
      3       2.3977      2.00000
      4       3.1509      2.00000
      5       6.7290      0.00000
      6       7.8023      0.00000
      7      14.1091      0.00000
      8      14.1972      0.00000

 k-point   142 :       0.5000    0.5000    0.1250
  band No.  band energies     occupation 
      1      -2.8358      2.00000
      2      -0.9960      2.00000
      3       2.3977      2.00000
      4       3.1509      2.00000
      5       6.7290      0.00000
      6       7.8023      0.00000
      7      14.1091      0.00000
      8      14.1972      0.00000

 k-point   143 :       0.0000    0.3750    0.5000
  band No.  band energies     occupation 
      1      -2.8358      2.00000
      2      -0.9960      2.00000
      3       2.3977      2.00000
      4       3.1509      2.00000
      5       6.7290      0.00000
      6       7.8023      0.00000
      7      14.1091      0.00000
      8      14.1972      0.00000

 k-point   144 :      -0.3750    0.1250   -0.3750
  band No.  band energies     occupation 
      1      -2.8358      2.00000
      2      -0.9960      2.00000
      3       2.3977      2.00000
      4       3.1509      2.00000
      5       6.7290      0.00000
      6       7.8023      0.00000
      7      14.1091      0.00000
      8      14.1972      0.00000

 k-point   145 :       0.1250    0.5000    0.5000
  band No.  band energies     occupation 
      1      -2.8358      2.00000
      2      -0.9960      2.00000
      3       2.3977      2.00000
      4       3.1509      2.00000
      5       6.7290      0.00000
      6       7.8023      0.00000
      7      14.1091      0.00000
      8      14.1972      0.00000

 k-point   146 :       0.5000    0.0000    0.3750
  band No.  band energies     occupation 
      1      -2.8358      2.00000
      2      -0.9960      2.00000
      3       2.3977      2.00000
      4       3.1509      2.00000
      5       6.7290      0.00000
      6       7.8023      0.00000
      7      14.1091      0.00000
      8      14.1972      0.00000

 k-point   147 :      -0.3750    0.3750    0.0000
  band No.  band energies     occupation 
      1      -2.3967      2.00000
      2      -1.3928      2.00000
      3       1.5314      2.00000
      4       3.4085      2.00000
      5       7.0386      0.00000
      6       9.9655      0.00000
      7      13.3117      0.00000
      8      13.8548      0.00000

 k-point   148 :       0.0000   -0.3750    0.3750
  band No.  band energies     occupation 
      1      -2.3967      2.00000
      2      -1.3928      2.00000
      3       1.5314      2.00000
      4       3.4085      2.00000
      5       7.0386      0.00000
      6       9.9655      0.00000
      7      13.3117      0.00000
      8      13.8548      0.00000

 k-point   149 :       0.3750   -0.0000   -0.3750
  band No.  band energies     occupation 
      1      -2.3967      2.00000
      2      -1.3928      2.00000
      3       1.5314      2.00000
      4       3.4085      2.00000
      5       7.0386      0.00000
      6       9.9655      0.00000
      7      13.3117      0.00000
      8      13.8548      0.00000

 k-point   150 :       0.3750    0.3750   -0.2500
  band No.  band energies     occupation 
      1      -2.3967      2.00000
      2      -1.3928      2.00000
      3       1.5314      2.00000
      4       3.4085      2.00000
      5       7.0386      0.00000
      6       9.9655      0.00000
      7      13.3117      0.00000
      8      13.8548      0.00000

 k-point   151 :      -0.3750    0.2500   -0.3750
  band No.  band energies     occupation 
      1      -2.3967      2.00000
      2      -1.3928      2.00000
      3       1.5314      2.00000
      4       3.4085      2.00000
      5       7.0386      0.00000
      6       9.9655      0.00000
      7      13.3117      0.00000
      8      13.8548      0.00000

 k-point   152 :       0.2500   -0.3750   -0.3750
  band No.  band energies     occupation 
      1      -2.3967      2.00000
      2      -1.3928      2.00000
      3       1.5314      2.00000
      4       3.4085      2.00000
      5       7.0386      0.00000
      6       9.9655      0.00000
      7      13.3117      0.00000
      8      13.8548      0.00000

 k-point   153 :       0.5000    0.5000    0.0000
  band No.  band energies     occupation 
      1      -1.9830      2.00000
      2      -1.9830      2.00000
      3       2.9813      2.00000
      4       2.9813      2.00000
      5       6.5440      0.00000
      6       6.5440      0.00000
      7      15.9556      0.00000
      8      15.9556      0.00000

 k-point   154 :       0.0000    0.5000    0.5000
  band No.  band energies     occupation 
      1      -1.9830      2.00000
      2      -1.9830      2.00000
      3       2.9813      2.00000
      4       2.9813      2.00000
      5       6.5440      0.00000
      6       6.5440      0.00000
      7      15.9556      0.00000
      8      15.9556      0.00000

 k-point   155 :       0.5000    0.0000    0.5000
  band No.  band energies     occupation 
      1      -1.9830      2.00000
      2      -1.9830      2.00000
      3       2.9813      2.00000
      4       2.9813      2.00000
      5       6.5440      0.00000
      6       6.5440      0.00000
      7      15.9556      0.00000
      8      15.9556      0.00000

 k-point   156 :       0.3750    0.2500    0.1250
  band No.  band energies     occupation 
      1      -4.7991      2.00000
      2       1.5452      2.00000
      3       3.1205      2.00000
      4       4.4059      2.00000
      5       8.2833      0.00000
      6       9.7410      0.00000
      7      10.0296      0.00000
      8      11.3403      0.00000

 k-point   157 :       0.1250    0.3750    0.2500
  band No.  band energies     occupation 
      1      -4.7991      2.00000
      2       1.5452      2.00000
      3       3.1205      2.00000
      4       4.4059      2.00000
      5       8.2833      0.00000
      6       9.7410      0.00000
      7      10.0296      0.00000
      8      11.3403      0.00000

 k-point   158 :       0.2500    0.1250    0.3750
  band No.  band energies     occupation 
      1      -4.7991      2.00000
      2       1.5452      2.00000
      3       3.1205      2.00000
      4       4.4059      2.00000
      5       8.2833      0.00000
      6       9.7410      0.00000
      7      10.0296      0.00000
      8      11.3403      0.00000

 k-point   159 :       0.2500    0.1250   -0.1250
  band No.  band energies     occupation 
      1      -4.7991      2.00000
      2       1.5452      2.00000
      3       3.1205      2.00000
      4       4.4059      2.00000
      5       8.2833      0.00000
      6       9.7410      0.00000
      7      10.0296      0.00000
      8      11.3403      0.00000

 k-point   160 :       0.3750    0.1250    0.2500
  band No.  band energies     occupation 
      1      -4.7991      2.00000
      2       1.5452      2.00000
      3       3.1205      2.00000
      4       4.4059      2.00000
      5       8.2833      0.00000
      6       9.7410      0.00000
      7      10.0296      0.00000
      8      11.3403      0.00000

 k-point   161 :       0.1250   -0.2500   -0.1250
  band No.  band energies     occupation 
      1      -4.7991      2.00000
      2       1.5452      2.00000
      3       3.1205      2.00000
      4       4.4059      2.00000
      5       8.2833      0.00000
      6       9.7410      0.00000
      7      10.0296      0.00000
      8      11.3403      0.00000

 k-point   162 :       0.1250    0.2500   -0.1250
  band No.  band energies     occupation 
      1      -4.7991      2.00000
      2       1.5452      2.00000
      3       3.1205      2.00000
      4       4.4059      2.00000
      5       8.2833      0.00000
      6       9.7410      0.00000
      7      10.0296      0.00000
      8      11.3403      0.00000

 k-point   163 :       0.1250   -0.1250   -0.2500
  band No.  band energies     occupation 
      1      -4.7991      2.00000
      2       1.5452      2.00000
      3       3.1205      2.00000
      4       4.4059      2.00000
      5       8.2833      0.00000
      6       9.7410      0.00000
      7      10.0296      0.00000
      8      11.3403      0.00000

 k-point   164 :       0.2500    0.3750    0.1250
  band No.  band energies     occupation 
      1      -4.7991      2.00000
      2       1.5452      2.00000
      3       3.1205      2.00000
      4       4.4059      2.00000
      5       8.2833      0.00000
      6       9.7410      0.00000
      7      10.0296      0.00000
      8      11.3403      0.00000

 k-point   165 :      -0.1250    0.1250   -0.2500
  band No.  band energies     occupation 
      1      -4.7991      2.00000
      2       1.5452      2.00000
      3       3.1205      2.00000
      4       4.4059      2.00000
      5       8.2833      0.00000
      6       9.7410      0.00000
      7      10.0296      0.00000
      8      11.3403      0.00000

 k-point   166 :      -0.2500    0.1250   -0.1250
  band No.  band energies     occupation 
      1      -4.7991      2.00000
      2       1.5452      2.00000
      3       3.1205      2.00000
      4       4.4059      2.00000
      5       8.2833      0.00000
      6       9.7410      0.00000
      7      10.0296      0.00000
      8      11.3403      0.00000

 k-point   167 :       0.1250    0.2500    0.3750
  band No.  band energies     occupation 
      1      -4.7991      2.00000
      2       1.5452      2.00000
      3       3.1205      2.00000
      4       4.4059      2.00000
      5       8.2833      0.00000
      6       9.7410      0.00000
      7      10.0296      0.00000
      8      11.3403      0.00000

 k-point   168 :       0.5000    0.2500    0.1250
  band No.  band energies     occupation 
      1      -3.9103      2.00000
      2      -0.0072      2.00000
      3       2.5126      2.00000
      4       3.9043      2.00000
      5       8.7138      0.00000
      6       9.3913      0.00000
      7      10.8568      0.00000
      8      11.7750      0.00000

 k-point   169 :       0.1250    0.5000    0.2500
  band No.  band energies     occupation 
      1      -3.9103      2.00000
      2      -0.0072      2.00000
      3       2.5126      2.00000
      4       3.9043      2.00000
      5       8.7138      0.00000
      6       9.3913      0.00000
      7      10.8568      0.00000
      8      11.7750      0.00000

 k-point   170 :       0.2500    0.1250    0.5000
  band No.  band energies     occupation 
      1      -3.9103      2.00000
      2      -0.0072      2.00000
      3       2.5126      2.00000
      4       3.9043      2.00000
      5       8.7138      0.00000
      6       9.3913      0.00000
      7      10.8568      0.00000
      8      11.7750      0.00000

 k-point   171 :       0.2500    0.1250   -0.2500
  band No.  band energies     occupation 
      1      -3.9103      2.00000
      2      -0.0072      2.00000
      3       2.5126      2.00000
      4       3.9043      2.00000
      5       8.7138      0.00000
      6       9.3913      0.00000
      7      10.8568      0.00000
      8      11.7750      0.00000

 k-point   172 :       0.5000    0.2500    0.3750
  band No.  band energies     occupation 
      1      -3.9103      2.00000
      2      -0.0072      2.00000
      3       2.5126      2.00000
      4       3.9043      2.00000
      5       8.7138      0.00000
      6       9.3913      0.00000
      7      10.8568      0.00000
      8      11.7750      0.00000

 k-point   173 :       0.1250   -0.3750   -0.1250
  band No.  band energies     occupation 
      1      -3.9103      2.00000
      2      -0.0072      2.00000
      3       2.5126      2.00000
      4       3.9043      2.00000
      5       8.7138      0.00000
      6       9.3913      0.00000
      7      10.8568      0.00000
      8      11.7750      0.00000

 k-point   174 :       0.1250    0.3750   -0.1250
  band No.  band energies     occupation 
      1      -3.9103      2.00000
      2      -0.0072      2.00000
      3       2.5126      2.00000
      4       3.9043      2.00000
      5       8.7138      0.00000
      6       9.3913      0.00000
      7      10.8568      0.00000
      8      11.7750      0.00000

 k-point   175 :       0.2500   -0.1250   -0.2500
  band No.  band energies     occupation 
      1      -3.9103      2.00000
      2      -0.0072      2.00000
      3       2.5126      2.00000
      4       3.9043      2.00000
      5       8.7138      0.00000
      6       9.3913      0.00000
      7      10.8568      0.00000
      8      11.7750      0.00000

 k-point   176 :      -0.3750   -0.2500    0.5000
  band No.  band energies     occupation 
      1      -3.9103      2.00000
      2      -0.0072      2.00000
      3       2.5126      2.00000
      4       3.9043      2.00000
      5       8.7138      0.00000
      6       9.3913      0.00000
      7      10.8568      0.00000
      8      11.7750      0.00000

 k-point   177 :       0.3750    0.5000    0.2500
  band No.  band energies     occupation 
      1      -3.9103      2.00000
      2      -0.0072      2.00000
      3       2.5126      2.00000
      4       3.9043      2.00000
      5       8.7138      0.00000
      6       9.3913      0.00000
      7      10.8568      0.00000
      8      11.7750      0.00000

 k-point   178 :      -0.1250    0.1250   -0.3750
  band No.  band energies     occupation 
      1      -3.9103      2.00000
      2      -0.0072      2.00000
      3       2.5126      2.00000
      4       3.9043      2.00000
      5       8.7138      0.00000
      6       9.3913      0.00000
      7      10.8568      0.00000
      8      11.7750      0.00000

 k-point   179 :      -0.2500    0.2500    0.1250
  band No.  band energies     occupation 
      1      -3.9103      2.00000
      2      -0.0072      2.00000
      3       2.5126      2.00000
      4       3.9043      2.00000
      5       8.7138      0.00000
      6       9.3913      0.00000
      7      10.8568      0.00000
      8      11.7750      0.00000

 k-point   180 :      -0.1250    0.1250    0.3750
  band No.  band energies     occupation 
      1      -3.9103      2.00000
      2      -0.0072      2.00000
      3       2.5126      2.00000
      4       3.9043      2.00000
      5       8.7138      0.00000
      6       9.3913      0.00000
      7      10.8568      0.00000
      8      11.7750      0.00000

 k-point   181 :      -0.2500    0.2500   -0.1250
  band No.  band energies     occupation 
      1      -3.9103      2.00000
      2      -0.0072      2.00000
      3       2.5126      2.00000
      4       3.9043      2.00000
      5       8.7138      0.00000
      6       9.3913      0.00000
      7      10.8568      0.00000
      8      11.7750      0.00000

 k-point   182 :       0.5000   -0.3750   -0.2500
  band No.  band energies     occupation 
      1      -3.9103      2.00000
      2      -0.0072      2.00000
      3       2.5126      2.00000
      4       3.9043      2.00000
      5       8.7138      0.00000
      6       9.3913      0.00000
      7      10.8568      0.00000
      8      11.7750      0.00000

 k-point   183 :       0.2500    0.3750    0.5000
  band No.  band energies     occupation 
      1      -3.9103      2.00000
      2      -0.0072      2.00000
      3       2.5126      2.00000
      4       3.9043      2.00000
      5       8.7138      0.00000
      6       9.3913      0.00000
      7      10.8568      0.00000
      8      11.7750      0.00000

 k-point   184 :      -0.3750   -0.1250    0.1250
  band No.  band energies     occupation 
      1      -3.9103      2.00000
      2      -0.0072      2.00000
      3       2.5126      2.00000
      4       3.9043      2.00000
      5       8.7138      0.00000
      6       9.3913      0.00000
      7      10.8568      0.00000
      8      11.7750      0.00000

 k-point   185 :       0.1250   -0.2500    0.2500
  band No.  band energies     occupation 
      1      -3.9103      2.00000
      2      -0.0072      2.00000
      3       2.5126      2.00000
      4       3.9043      2.00000
      5       8.7138      0.00000
      6       9.3913      0.00000
      7      10.8568      0.00000
      8      11.7750      0.00000

 k-point   186 :       0.3750   -0.1250    0.1250
  band No.  band energies     occupation 
      1      -3.9103      2.00000
      2      -0.0072      2.00000
      3       2.5126      2.00000
      4       3.9043      2.00000
      5       8.7138      0.00000
      6       9.3913      0.00000
      7      10.8568      0.00000
      8      11.7750      0.00000

 k-point   187 :      -0.1250   -0.2500    0.2500
  band No.  band energies     occupation 
      1      -3.9103      2.00000
      2      -0.0072      2.00000
      3       2.5126      2.00000
      4       3.9043      2.00000
      5       8.7138      0.00000
      6       9.3913      0.00000
      7      10.8568      0.00000
      8      11.7750      0.00000

 k-point   188 :      -0.2500    0.5000   -0.3750
  band No.  band energies     occupation 
      1      -3.9103      2.00000
      2      -0.0072      2.00000
      3       2.5126      2.00000
      4       3.9043      2.00000
      5       8.7138      0.00000
      6       9.3913      0.00000
      7      10.8568      0.00000
      8      11.7750      0.00000

 k-point   189 :       0.5000   -0.1250   -0.2500
  band No.  band energies     occupation 
      1      -3.9103      2.00000
      2      -0.0072      2.00000
      3       2.5126      2.00000
      4       3.9043      2.00000
      5       8.7138      0.00000
      6       9.3913      0.00000
      7      10.8568      0.00000
      8      11.7750      0.00000

 k-point   190 :      -0.2500    0.5000   -0.1250
  band No.  band energies     occupation 
      1      -3.9103      2.00000
      2      -0.0072      2.00000
      3       2.5126      2.00000
      4       3.9043      2.00000
      5       8.7138      0.00000
      6       9.3913      0.00000
      7      10.8568      0.00000
      8      11.7750      0.00000

 k-point   191 :      -0.1250   -0.2500    0.5000
  band No.  band energies     occupation 
      1      -3.9103      2.00000
      2      -0.0072      2.00000
      3       2.5126      2.00000
      4       3.9043      2.00000
      5       8.7138      0.00000
      6       9.3913      0.00000
      7      10.8568      0.00000
      8      11.7750      0.00000

 k-point   192 :      -0.3750    0.2500    0.1250
  band No.  band energies     occupation 
      1      -3.2576      2.00000
      2      -0.9528      2.00000
      3       2.3839      2.00000
      4       3.6745      2.00000
      5       8.9049      0.00000
      6       8.9675      0.00000
      7      11.7505      0.00000
      8      12.9578      0.00000

 k-point   193 :       0.1250   -0.3750    0.2500
  band No.  band energies     occupation 
      1      -3.2576      2.00000
      2      -0.9528      2.00000
      3       2.3839      2.00000
      4       3.6745      2.00000
      5       8.9049      0.00000
      6       8.9675      0.00000
      7      11.7505      0.00000
      8      12.9578      0.00000

 k-point   194 :       0.2500    0.1250   -0.3750
  band No.  band energies     occupation 
      1      -3.2576      2.00000
      2      -0.9528      2.00000
      3       2.3839      2.00000
      4       3.6745      2.00000
      5       8.9049      0.00000
      6       8.9675      0.00000
      7      11.7505      0.00000
      8      12.9578      0.00000

 k-point   195 :      -0.3750    0.3750    0.5000
  band No.  band energies     occupation 
      1      -3.2576      2.00000
      2      -0.9528      2.00000
      3       2.3839      2.00000
      4       3.6745      2.00000
      5       8.9049      0.00000
      6       8.9675      0.00000
      7      11.7505      0.00000
      8      12.9578      0.00000

 k-point   196 :       0.1250    0.5000   -0.1250
  band No.  band energies     occupation 
      1      -3.2576      2.00000
      2      -0.9528      2.00000
      3       2.3839      2.00000
      4       3.6745      2.00000
      5       8.9049      0.00000
      6       8.9675      0.00000
      7      11.7505      0.00000
      8      12.9578      0.00000

 k-point   197 :       0.3750   -0.1250   -0.2500
  band No.  band energies     occupation 
      1      -3.2576      2.00000
      2      -0.9528      2.00000
      3       2.3839      2.00000
      4       3.6745      2.00000
      5       8.9049      0.00000
      6       8.9675      0.00000
      7      11.7505      0.00000
      8      12.9578      0.00000

 k-point   198 :       0.5000   -0.3750    0.3750
  band No.  band energies     occupation 
      1      -3.2576      2.00000
      2      -0.9528      2.00000
      3       2.3839      2.00000
      4       3.6745      2.00000
      5       8.9049      0.00000
      6       8.9675      0.00000
      7      11.7505      0.00000
      8      12.9578      0.00000

 k-point   199 :      -0.1250    0.1250    0.5000
  band No.  band energies     occupation 
      1      -3.2576      2.00000
      2      -0.9528      2.00000
      3       2.3839      2.00000
      4       3.6745      2.00000
      5       8.9049      0.00000
      6       8.9675      0.00000
      7      11.7505      0.00000
      8      12.9578      0.00000

 k-point   200 :      -0.2500    0.3750   -0.1250
  band No.  band energies     occupation 
      1      -3.2576      2.00000
      2      -0.9528      2.00000
      3       2.3839      2.00000
      4       3.6745      2.00000
      5       8.9049      0.00000
      6       8.9675      0.00000
      7      11.7505      0.00000
      8      12.9578      0.00000

 k-point   201 :       0.3750    0.5000   -0.3750
  band No.  band energies     occupation 
      1      -3.2576      2.00000
      2      -0.9528      2.00000
      3       2.3839      2.00000
      4       3.6745      2.00000
      5       8.9049      0.00000
      6       8.9675      0.00000
      7      11.7505      0.00000
      8      12.9578      0.00000

 k-point   202 :       0.5000   -0.1250    0.1250
  band No.  band energies     occupation 
      1      -3.2576      2.00000
      2      -0.9528      2.00000
      3       2.3839      2.00000
      4       3.6745      2.00000
      5       8.9049      0.00000
      6       8.9675      0.00000
      7      11.7505      0.00000
      8      12.9578      0.00000

 k-point   203 :      -0.1250   -0.2500    0.3750
  band No.  band energies     occupation 
      1      -3.2576      2.00000
      2      -0.9528      2.00000
      3       2.3839      2.00000
      4       3.6745      2.00000
      5       8.9049      0.00000
      6       8.9675      0.00000
      7      11.7505      0.00000
      8      12.9578      0.00000

 k-point   204 :       0.5000    0.3750    0.1250
  band No.  band energies     occupation 
      1      -3.5348      2.00000
      2      -0.1297      2.00000
      3       2.4713      2.00000
      4       3.0743      2.00000
      5       7.7821      0.00000
      6       8.4811      0.00000
      7      11.5933      0.00000
      8      13.8319      0.00000

 k-point   205 :       0.1250    0.5000    0.3750
  band No.  band energies     occupation 
      1      -3.5348      2.00000
      2      -0.1297      2.00000
      3       2.4713      2.00000
      4       3.0743      2.00000
      5       7.7821      0.00000
      6       8.4811      0.00000
      7      11.5933      0.00000
      8      13.8319      0.00000

 k-point   206 :       0.3750    0.1250    0.5000
  band No.  band energies     occupation 
      1      -3.5348      2.00000
      2      -0.1297      2.00000
      3       2.4713      2.00000
      4       3.0743      2.00000
      5       7.7821      0.00000
      6       8.4811      0.00000
      7      11.5933      0.00000
      8      13.8319      0.00000

 k-point   207 :       0.3750    0.2500   -0.1250
  band No.  band energies     occupation 
      1      -3.5348      2.00000
      2      -0.1297      2.00000
      3       2.4713      2.00000
      4       3.0743      2.00000
      5       7.7821      0.00000
      6       8.4811      0.00000
      7      11.5933      0.00000
      8      13.8319      0.00000

 k-point   208 :       0.5000    0.1250    0.3750
  band No.  band energies     occupation 
      1      -3.5348      2.00000
      2      -0.1297      2.00000
      3       2.4713      2.00000
      4       3.0743      2.00000
      5       7.7821      0.00000
      6       8.4811      0.00000
      7      11.5933      0.00000
      8      13.8319      0.00000

 k-point   209 :       0.1250   -0.3750   -0.2500
  band No.  band energies     occupation 
      1      -3.5348      2.00000
      2      -0.1297      2.00000
      3       2.4713      2.00000
      4       3.0743      2.00000
      5       7.7821      0.00000
      6       8.4811      0.00000
      7      11.5933      0.00000
      8      13.8319      0.00000

 k-point   210 :       0.2500    0.3750   -0.1250
  band No.  band energies     occupation 
      1      -3.5348      2.00000
      2      -0.1297      2.00000
      3       2.4713      2.00000
      4       3.0743      2.00000
      5       7.7821      0.00000
      6       8.4811      0.00000
      7      11.5933      0.00000
      8      13.8319      0.00000

 k-point   211 :       0.1250   -0.2500   -0.3750
  band No.  band energies     occupation 
      1      -3.5348      2.00000
      2      -0.1297      2.00000
      3       2.4713      2.00000
      4       3.0743      2.00000
      5       7.7821      0.00000
      6       8.4811      0.00000
      7      11.5933      0.00000
      8      13.8319      0.00000

 k-point   212 :       0.3750    0.5000    0.1250
  band No.  band energies     occupation 
      1      -3.5348      2.00000
      2      -0.1297      2.00000
      3       2.4713      2.00000
      4       3.0743      2.00000
      5       7.7821      0.00000
      6       8.4811      0.00000
      7      11.5933      0.00000
      8      13.8319      0.00000

 k-point   213 :      -0.2500    0.1250   -0.3750
  band No.  band energies     occupation 
      1      -3.5348      2.00000
      2      -0.1297      2.00000
      3       2.4713      2.00000
      4       3.0743      2.00000
      5       7.7821      0.00000
      6       8.4811      0.00000
      7      11.5933      0.00000
      8      13.8319      0.00000

 k-point   214 :      -0.3750    0.1250   -0.2500
  band No.  band energies     occupation 
      1      -3.5348      2.00000
      2      -0.1297      2.00000
      3       2.4713      2.00000
      4       3.0743      2.00000
      5       7.7821      0.00000
      6       8.4811      0.00000
      7      11.5933      0.00000
      8      13.8319      0.00000

 k-point   215 :       0.1250    0.3750    0.5000
  band No.  band energies     occupation 
      1      -3.5348      2.00000
      2      -0.1297      2.00000
      3       2.4713      2.00000
      4       3.0743      2.00000
      5       7.7821      0.00000
      6       8.4811      0.00000
      7      11.5933      0.00000
      8      13.8319      0.00000

 k-point   216 :      -0.3750    0.3750    0.1250
  band No.  band energies     occupation 
      1      -2.6596      2.00000
      2      -1.0980      2.00000
      3       1.7729      2.00000
      4       2.8735      2.00000
      5       8.2238      0.00000
      6      10.1171      0.00000
      7      11.1159      0.00000
      8      13.2807      0.00000

 k-point   217 :       0.1250   -0.3750    0.3750
  band No.  band energies     occupation 
      1      -2.6596      2.00000
      2      -1.0980      2.00000
      3       1.7729      2.00000
      4       2.8735      2.00000
      5       8.2238      0.00000
      6      10.1171      0.00000
      7      11.1159      0.00000
      8      13.2807      0.00000

 k-point   218 :       0.3750    0.1250   -0.3750
  band No.  band energies     occupation 
      1      -2.6596      2.00000
      2      -1.0980      2.00000
      3       1.7729      2.00000
      4       2.8735      2.00000
      5       8.2238      0.00000
      6      10.1171      0.00000
      7      11.1159      0.00000
      8      13.2807      0.00000

 k-point   219 :       0.3750    0.2500   -0.2500
  band No.  band energies     occupation 
      1      -2.6596      2.00000
      2      -1.0980      2.00000
      3       1.7729      2.00000
      4       2.8735      2.00000
      5       8.2238      0.00000
      6      10.1171      0.00000
      7      11.1159      0.00000
      8      13.2807      0.00000

 k-point   220 :      -0.3750    0.2500    0.5000
  band No.  band energies     occupation 
      1      -2.6596      2.00000
      2      -1.0980      2.00000
      3       1.7729      2.00000
      4       2.8735      2.00000
      5       8.2238      0.00000
      6      10.1171      0.00000
      7      11.1159      0.00000
      8      13.2807      0.00000

 k-point   221 :       0.1250    0.5000   -0.2500
  band No.  band energies     occupation 
      1      -2.6596      2.00000
      2      -1.0980      2.00000
      3       1.7729      2.00000
      4       2.8735      2.00000
      5       8.2238      0.00000
      6      10.1171      0.00000
      7      11.1159      0.00000
      8      13.2807      0.00000

 k-point   222 :       0.2500    0.5000   -0.1250
  band No.  band energies     occupation 
      1      -2.6596      2.00000
      2      -1.0980      2.00000
      3       1.7729      2.00000
      4       2.8735      2.00000
      5       8.2238      0.00000
      6      10.1171      0.00000
      7      11.1159      0.00000
      8      13.2807      0.00000

 k-point   223 :       0.2500   -0.2500   -0.3750
  band No.  band energies     occupation 
      1      -2.6596      2.00000
      2      -1.0980      2.00000
      3       1.7729      2.00000
      4       2.8735      2.00000
      5       8.2238      0.00000
      6      10.1171      0.00000
      7      11.1159      0.00000
      8      13.2807      0.00000

 k-point   224 :       0.5000   -0.2500    0.3750
  band No.  band energies     occupation 
      1      -2.6596      2.00000
      2      -1.0980      2.00000
      3       1.7729      2.00000
      4       2.8735      2.00000
      5       8.2238      0.00000
      6      10.1171      0.00000
      7      11.1159      0.00000
      8      13.2807      0.00000

 k-point   225 :       0.5000   -0.3750    0.2500
  band No.  band energies     occupation 
      1      -2.6596      2.00000
      2      -1.0980      2.00000
      3       1.7729      2.00000
      4       2.8735      2.00000
      5       8.2238      0.00000
      6      10.1171      0.00000
      7      11.1159      0.00000
      8      13.2807      0.00000

 k-point   226 :      -0.2500    0.1250    0.5000
  band No.  band energies     occupation 
      1      -2.6596      2.00000
      2      -1.0980      2.00000
      3       1.7729      2.00000
      4       2.8735      2.00000
      5       8.2238      0.00000
      6      10.1171      0.00000
      7      11.1159      0.00000
      8      13.2807      0.00000

 k-point   227 :      -0.2500    0.3750    0.2500
  band No.  band energies     occupation 
      1      -2.6596      2.00000
      2      -1.0980      2.00000
      3       1.7729      2.00000
      4       2.8735      2.00000
      5       8.2238      0.00000
      6      10.1171      0.00000
      7      11.1159      0.00000
      8      13.2807      0.00000

 k-point   228 :      -0.1250    0.2500    0.5000
  band No.  band energies     occupation 
      1      -2.6596      2.00000
      2      -1.0980      2.00000
      3       1.7729      2.00000
      4       2.8735      2.00000
      5       8.2238      0.00000
      6      10.1171      0.00000
      7      11.1159      0.00000
      8      13.2807      0.00000

 k-point   229 :      -0.3750    0.2500   -0.2500
  band No.  band energies     occupation 
      1      -2.6596      2.00000
      2      -1.0980      2.00000
      3       1.7729      2.00000
      4       2.8735      2.00000
      5       8.2238      0.00000
      6      10.1171      0.00000
      7      11.1159      0.00000
      8      13.2807      0.00000

 k-point   230 :       0.3750    0.5000   -0.2500
  band No.  band energies     occupation 
      1      -2.6596      2.00000
      2      -1.0980      2.00000
      3       1.7729      2.00000
      4       2.8735      2.00000
      5       8.2238      0.00000
      6      10.1171      0.00000
      7      11.1159      0.00000
      8      13.2807      0.00000

 k-point   231 :       0.2500    0.5000   -0.3750
  band No.  band energies     occupation 
      1      -2.6596      2.00000
      2      -1.0980      2.00000
      3       1.7729      2.00000
      4       2.8735      2.00000
      5       8.2238      0.00000
      6      10.1171      0.00000
      7      11.1159      0.00000
      8      13.2807      0.00000

 k-point   232 :       0.5000   -0.2500    0.1250
  band No.  band energies     occupation 
      1      -2.6596      2.00000
      2      -1.0980      2.00000
      3       1.7729      2.00000
      4       2.8735      2.00000
      5       8.2238      0.00000
      6      10.1171      0.00000
      7      11.1159      0.00000
      8      13.2807      0.00000

 k-point   233 :       0.2500   -0.2500    0.3750
  band No.  band energies     occupation 
      1      -2.6596      2.00000
      2      -1.0980      2.00000
      3       1.7729      2.00000
      4       2.8735      2.00000
      5       8.2238      0.00000
      6      10.1171      0.00000
      7      11.1159      0.00000
      8      13.2807      0.00000

 k-point   234 :       0.5000   -0.1250    0.2500
  band No.  band energies     occupation 
      1      -2.6596      2.00000
      2      -1.0980      2.00000
      3       1.7729      2.00000
      4       2.8735      2.00000
      5       8.2238      0.00000
      6      10.1171      0.00000
      7      11.1159      0.00000
      8      13.2807      0.00000

 k-point   235 :      -0.2500   -0.3750    0.2500
  band No.  band energies     occupation 
      1      -2.6596      2.00000
      2      -1.0980      2.00000
      3       1.7729      2.00000
      4       2.8735      2.00000
      5       8.2238      0.00000
      6      10.1171      0.00000
      7      11.1159      0.00000
      8      13.2807      0.00000

 k-point   236 :      -0.2500    0.3750    0.5000
  band No.  band energies     occupation 
      1      -2.6596      2.00000
      2      -1.0980      2.00000
      3       1.7729      2.00000
      4       2.8735      2.00000
      5       8.2238      0.00000
      6      10.1171      0.00000
      7      11.1159      0.00000
      8      13.2807      0.00000

 k-point   237 :       0.3750   -0.1250   -0.3750
  band No.  band energies     occupation 
      1      -2.6596      2.00000
      2      -1.0980      2.00000
      3       1.7729      2.00000
      4       2.8735      2.00000
      5       8.2238      0.00000
      6      10.1171      0.00000
      7      11.1159      0.00000
      8      13.2807      0.00000

 k-point   238 :      -0.3750    0.3750   -0.1250
  band No.  band energies     occupation 
      1      -2.6596      2.00000
      2      -1.0980      2.00000
      3       1.7729      2.00000
      4       2.8735      2.00000
      5       8.2238      0.00000
      6      10.1171      0.00000
      7      11.1159      0.00000
      8      13.2807      0.00000

 k-point   239 :      -0.1250   -0.3750    0.3750
  band No.  band energies     occupation 
      1      -2.6596      2.00000
      2      -1.0980      2.00000
      3       1.7729      2.00000
      4       2.8735      2.00000
      5       8.2238      0.00000
      6      10.1171      0.00000
      7      11.1159      0.00000
      8      13.2807      0.00000

 k-point   240 :      -0.2500    0.3750    0.1250
  band No.  band energies     occupation 
      1      -3.0103      2.00000
      2      -0.7346      2.00000
      3       1.6060      2.00000
      4       3.2496      2.00000
      5       8.7043      0.00000
      6      10.3815      0.00000
      7      11.0528      0.00000
      8      12.8693      0.00000

 k-point   241 :       0.1250   -0.2500    0.3750
  band No.  band energies     occupation 
      1      -3.0103      2.00000
      2      -0.7346      2.00000
      3       1.6060      2.00000
      4       3.2496      2.00000
      5       8.7043      0.00000
      6      10.3815      0.00000
      7      11.0528      0.00000
      8      12.8693      0.00000

 k-point   242 :       0.3750    0.1250   -0.2500
  band No.  band energies     occupation 
      1      -3.0103      2.00000
      2      -0.7346      2.00000
      3       1.6060      2.00000
      4       3.2496      2.00000
      5       8.7043      0.00000
      6      10.3815      0.00000
      7      11.0528      0.00000
      8      12.8693      0.00000

 k-point   243 :       0.3750    0.2500   -0.3750
  band No.  band energies     occupation 
      1      -3.0103      2.00000
      2      -0.7346      2.00000
      3       1.6060      2.00000
      4       3.2496      2.00000
      5       8.7043      0.00000
      6      10.3815      0.00000
      7      11.0528      0.00000
      8      12.8693      0.00000

 k-point   244 :      -0.2500    0.3750   -0.3750
  band No.  band energies     occupation 
      1      -3.0103      2.00000
      2      -0.7346      2.00000
      3       1.6060      2.00000
      4       3.2496      2.00000
      5       8.7043      0.00000
      6      10.3815      0.00000
      7      11.0528      0.00000
      8      12.8693      0.00000

 k-point   245 :       0.1250    0.3750   -0.2500
  band No.  band energies     occupation 
      1      -3.0103      2.00000
      2      -0.7346      2.00000
      3       1.6060      2.00000
      4       3.2496      2.00000
      5       8.7043      0.00000
      6      10.3815      0.00000
      7      11.0528      0.00000
      8      12.8693      0.00000

 k-point   246 :       0.3750   -0.2500   -0.3750
  band No.  band energies     occupation 
      1      -3.0103      2.00000
      2      -0.7346      2.00000
      3       1.6060      2.00000
      4       3.2496      2.00000
      5       8.7043      0.00000
      6      10.3815      0.00000
      7      11.0528      0.00000
      8      12.8693      0.00000

 k-point   247 :       0.3750   -0.3750    0.2500
  band No.  band energies     occupation 
      1      -3.0103      2.00000
      2      -0.7346      2.00000
      3       1.6060      2.00000
      4       3.2496      2.00000
      5       8.7043      0.00000
      6      10.3815      0.00000
      7      11.0528      0.00000
      8      12.8693      0.00000

 k-point   248 :      -0.2500    0.1250    0.3750
  band No.  band energies     occupation 
      1      -3.0103      2.00000
      2      -0.7346      2.00000
      3       1.6060      2.00000
      4       3.2496      2.00000
      5       8.7043      0.00000
      6      10.3815      0.00000
      7      11.0528      0.00000
      8      12.8693      0.00000

 k-point   249 :      -0.3750    0.3750    0.2500
  band No.  band energies     occupation 
      1      -3.0103      2.00000
      2      -0.7346      2.00000
      3       1.6060      2.00000
      4       3.2496      2.00000
      5       8.7043      0.00000
      6      10.3815      0.00000
      7      11.0528      0.00000
      8      12.8693      0.00000

 k-point   250 :       0.2500    0.3750   -0.3750
  band No.  band energies     occupation 
      1      -3.0103      2.00000
      2      -0.7346      2.00000
      3       1.6060      2.00000
      4       3.2496      2.00000
      5       8.7043      0.00000
      6      10.3815      0.00000
      7      11.0528      0.00000
      8      12.8693      0.00000

 k-point   251 :       0.3750   -0.2500    0.1250
  band No.  band energies     occupation 
      1      -3.0103      2.00000
      2      -0.7346      2.00000
      3       1.6060      2.00000
      4       3.2496      2.00000
      5       8.7043      0.00000
      6      10.3815      0.00000
      7      11.0528      0.00000
      8      12.8693      0.00000

 k-point   252 :      -0.3750    0.5000    0.1250
  band No.  band energies     occupation 
      1      -1.9049      2.00000
      2      -1.9049      2.00000
      3       2.4168      2.00000
      4       2.4168      2.00000
      5       7.8058      0.00000
      6       7.8058      0.00000
      7      13.6884      0.00000
      8      13.6884      0.00000

 k-point   253 :       0.1250   -0.3750    0.5000
  band No.  band energies     occupation 
      1      -1.9049      2.00000
      2      -1.9049      2.00000
      3       2.4168      2.00000
      4       2.4168      2.00000
      5       7.8058      0.00000
      6       7.8058      0.00000
      7      13.6884      0.00000
      8      13.6884      0.00000

 k-point   254 :       0.5000    0.1250   -0.3750
  band No.  band energies     occupation 
      1      -1.9049      2.00000
      2      -1.9049      2.00000
      3       2.4168      2.00000
      4       2.4168      2.00000
      5       7.8058      0.00000
      6       7.8058      0.00000
      7      13.6884      0.00000
      8      13.6884      0.00000

 k-point   255 :       0.5000    0.3750   -0.1250
  band No.  band energies     occupation 
      1      -1.9049      2.00000
      2      -1.9049      2.00000
      3       2.4168      2.00000
      4       2.4168      2.00000
      5       7.8058      0.00000
      6       7.8058      0.00000
      7      13.6884      0.00000
      8      13.6884      0.00000

 k-point   256 :      -0.3750    0.1250    0.5000
  band No.  band energies     occupation 
      1      -1.9049      2.00000
      2      -1.9049      2.00000
      3       2.4168      2.00000
      4       2.4168      2.00000
      5       7.8058      0.00000
      6       7.8058      0.00000
      7      13.6884      0.00000
      8      13.6884      0.00000

 k-point   257 :       0.1250    0.5000   -0.3750
  band No.  band energies     occupation 
      1      -1.9049      2.00000
      2      -1.9049      2.00000
      3       2.4168      2.00000
      4       2.4168      2.00000
      5       7.8058      0.00000
      6       7.8058      0.00000
      7      13.6884      0.00000
      8      13.6884      0.00000

 k-point   258 :      -0.2500    0.5000    0.2500
  band No.  band energies     occupation 
      1      -1.8189      2.00000
      2      -1.8189      2.00000
      3       1.9806      2.00000
      4       1.9806      2.00000
      5      10.1046      0.00000
      6      10.1046      0.00000
      7      10.8424      0.00000
      8      10.8424      0.00000

 k-point   259 :       0.2500   -0.2500    0.5000
  band No.  band energies     occupation 
      1      -1.8189      2.00000
      2      -1.8189      2.00000
      3       1.9806      2.00000
      4       1.9806      2.00000
      5      10.1046      0.00000
      6      10.1046      0.00000
      7      10.8424      0.00000
      8      10.8424      0.00000

 k-point   260 :       0.5000    0.2500   -0.2500
  band No.  band energies     occupation 
      1      -1.8189      2.00000
      2      -1.8189      2.00000
      3       1.9806      2.00000
      4       1.9806      2.00000
      5      10.1046      0.00000
      6      10.1046      0.00000
      7      10.8424      0.00000
      8      10.8424      0.00000


--------------------------------------------------------------------------------------------------------


 soft charge-density along one line, spin component           1
         0         1         2         3         4         5         6         7         8         9
 total charge-density along one line
 
 pseudopotential strength for first ion, spin component:           1
 18.413  25.690   0.000  -0.000  -0.000   0.000  -0.000  -0.000
 25.690  35.846   0.000  -0.000  -0.000   0.000  -0.000  -0.000
  0.000   0.000   4.178  -0.000  -0.000   7.786  -0.000  -0.000
 -0.000  -0.000  -0.000   4.178  -0.000  -0.000   7.786  -0.000
 -0.000  -0.000  -0.000  -0.000   4.178  -0.000  -0.000   7.786
  0.000   0.000   7.786  -0.000  -0.000  14.520  -0.000  -0.000
 -0.000  -0.000  -0.000   7.786  -0.000  -0.000  14.520  -0.000
 -0.000  -0.000  -0.000  -0.000   7.786  -0.000  -0.000  14.520
 total augmentation occupancy for first ion, spin component:           1
  5.740  -2.179   0.000  -0.000  -0.000  -0.000   0.000   0.000
 -2.179   0.940  -0.000   0.000   0.000   0.000  -0.000  -0.000
  0.000  -0.000   3.058   0.000  -0.000  -0.702  -0.000   0.000
 -0.000   0.000   0.000   3.058   0.000  -0.000  -0.702  -0.000
 -0.000   0.000  -0.000   0.000   3.058   0.000  -0.000  -0.702
 -0.000   0.000  -0.702  -0.000   0.000   0.170   0.000  -0.000
  0.000  -0.000  -0.000  -0.702  -0.000   0.000   0.170   0.000
  0.000  -0.000   0.000  -0.000  -0.702  -0.000   0.000   0.170


------------------------ aborting loop because EDIFF is reached ----------------------------------------


    CHARGE:  cpu time      0.2331: real time      0.2331
    FORLOC:  cpu time      0.0028: real time      0.0028
    FORNL :  cpu time      0.1327: real time      0.1327
    STRESS:  cpu time      0.7450: real time      0.7450
    FORCOR:  cpu time      0.0467: real time      0.0467
    FORHAR:  cpu time      0.0098: real time      0.0098
    MIXING:  cpu time      0.0020: real time      0.0020
    OFIELD:  cpu time      0.0000: real time      0.0000

  FORCE on cell =-STRESS in cart. coord.  units (eV):
  Direction    XX          YY          ZZ          XY          YZ          ZX
  --------------------------------------------------------------------------------------
  Alpha Z     3.36415     3.36415     3.36415
  Ewald     -76.18788   -76.18788   -76.18788    -0.00000    -0.00000     0.00000
  Hartree     4.97603     4.97603     4.97603    -0.00000    -0.00000     0.00000
  E(xc)     -25.37638   -25.37638   -25.37638    -0.00000    -0.00000    -0.00000
  Local     -29.25568   -29.25568   -29.25568     0.00001     0.00001     0.00001
  n-local    77.86276    77.86276    77.86276     0.00000     0.00000     0.00000
  augment   -11.64416   -11.64416   -11.64416    -0.00001    -0.00001    -0.00001
  Kinetic    56.73699    56.73699    56.73699     0.00000     0.00000     0.00000
  Fock        0.00000     0.00000     0.00000     0.00000     0.00000     0.00000
  -------------------------------------------------------------------------------------
  Total       0.47583     0.47583     0.47583     0.00000     0.00000     0.00000
  in kB      19.04685    19.04685    19.04685     0.00006     0.00006     0.00003
  external pressure =       19.05 kB  Pullay stress =        0.00 kB


 VOLUME and BASIS-vectors are now :
 -----------------------------------------------------------------------------
  energy-cutoff  :      320.00
  volume of cell :       40.03
      direct lattice vectors                 reciprocal lattice vectors
     0.000000000  2.715000000  2.715000000    -0.184162063  0.184162063  0.184162063
     2.715000000  0.000000000  2.715000000     0.184162063 -0.184162063  0.184162063
     2.715000000  2.715000000  0.000000000     0.184162063  0.184162063 -0.184162063

  length of vectors
     3.839589822  3.839589822  3.839589822     0.318978049  0.318978049  0.318978049


 FORCES acting on ions
    electron-ion (+dipol)            ewald-force                    non-local-force                 convergence-correction
 -----------------------------------------------------------------------------------------------
   -.368E-05 -.529E-06 -.245E-05   -.476E-15 -.149E-14 0.391E-14   0.295E-05 0.555E-06 0.190E-05   0.913E-06 0.795E-08 0.750E-06
   -.548E-06 -.950E-06 -.533E-06   0.623E-15 0.106E-14 -.375E-14   0.289E-06 0.600E-06 0.286E-06   0.792E-07 0.307E-06 0.373E-07
 -----------------------------------------------------------------------------------------------
   -.423E-05 -.148E-05 -.298E-05   0.147E-15 -.426E-15 0.164E-15   0.324E-05 0.116E-05 0.219E-05   0.992E-06 0.314E-06 0.787E-06
 
 
 POSITION                                       TOTAL-FORCE (eV/Angst)
 -----------------------------------------------------------------------------------
      0.00000      0.00000      0.00000         0.000000      0.000000      0.000000
      1.35750      1.35750      1.35750        -0.000000     -0.000000     -0.000000
 -----------------------------------------------------------------------------------
    total drift:                                0.000000     -0.000000     -0.000000


--------------------------------------------------------------------------------------------------------



  FREE ENERGIE OF THE ION-ELECTRON SYSTEM (eV)
  ---------------------------------------------------
  free  energy   TOTEN  =       -10.83681856 eV

  energy  without entropy=      -10.83681856  energy(sigma->0) =      -10.83681856
 


--------------------------------------------------------------------------------------------------------


    POTLOK:  cpu time      0.0473: real time      0.0473


--------------------------------------------------------------------------------------------------------


 writing wavefunctions
     LOOP+:  cpu time     47.3041: real time     47.3155
    4ORBIT:  cpu time      0.0000: real time      0.0000

 total amount of memory used by VASP MPI-rank0    67146. kBytes
=======================================================================

   base      :      30000. kBytes
   nonl-proj :       8902. kBytes
   fftplans  :       3916. kBytes
   grid      :       6018. kBytes
   one-center:          6. kBytes
   wavefun   :      18304. kBytes
 
  
  
 General timing and accounting informations for this job:
 ========================================================
  
                  Total CPU time used (sec):       47.871
                            User time (sec):       47.727
                          System time (sec):        0.144
                         Elapsed time (sec):       48.177
  
                   Maximum memory used (kb):      136980.
                   Average memory used (kb):          N/A
  
                          Minor page faults:        27140
                          Major page faults:            3
                 Voluntary context switches:         1154
