       N       E                     dE             d eps       ncg     rms          rms(c)
DAV:   1     0.102700231875E+02    0.10270E+02   -0.26118E+03  1280   0.511E+02
DAV:   2    -0.506531381869E+01   -0.15335E+02   -0.14722E+02  2200   0.696E+01
DAV:   3    -0.526300534783E+01   -0.19769E+00   -0.18904E+00  1624   0.981E+00
DAV:   4    -0.526369973877E+01   -0.69439E-03   -0.69439E-03  2096   0.625E-01
DAV:   5    -0.526370027776E+01   -0.53900E-06   -0.53881E-06  1576   0.137E-02
DAV:   6    -0.526370028600E+01   -0.82397E-08   -0.78157E-08  1560   0.119E-03
   1 F= -.52637003E+01 E0= -.52637003E+01  d E =-.213458E-10
