generated by phonopy                    
   1.00000000000000     
    -0.1086000000000000    5.3757000000000001    5.3757000000000001
     5.3757000000000001   -0.1086000000000000    5.3757000000000001
     5.3757000000000001    5.3757000000000001   -0.1086000000000000
   Si
    16
Direct
  0.9979751761141173  0.9992904180777700  0.9992904182372087
  0.4992904181213618  0.9992904180777700  0.9992904182372087
  0.9992904181213618  0.4992904180777700  0.9992904182372087
  0.4992904181213618  0.4992904180777700  0.9992904182372087
  0.9992904181213618  0.9992904180777700  0.4992904182372087
  0.4992904181213618  0.9992904180777700  0.4992904182372087
  0.9992904181213618  0.4992904180777771  0.4992904182372087
  0.4992904181213618  0.4992904180777700  0.4992904182372087
  0.1257095818786382  0.1257095819222300  0.1257095817627913
  0.6257095818786382  0.1257095819222300  0.1257095817627913
  0.1257095818786382  0.6257095819222300  0.1257095817627913
  0.6257095818786382  0.6257095819222300  0.1257095817627913
  0.1257095818786382  0.1257095819222300  0.6257095817627913
  0.6257095818786382  0.1257095819222300  0.6257095817627913
  0.1257095818786382  0.6257095819222300  0.6257095817627913
  0.6257095818786382  0.6257095819222300  0.6257095817627913
 
  0.00000000E+00  0.00000000E+00  0.00000000E+00
  0.00000000E+00  0.00000000E+00  0.00000000E+00
  0.00000000E+00  0.00000000E+00  0.00000000E+00
  0.00000000E+00  0.00000000E+00  0.00000000E+00
  0.00000000E+00  0.00000000E+00  0.00000000E+00
  0.00000000E+00  0.00000000E+00  0.00000000E+00
  0.00000000E+00  0.00000000E+00  0.00000000E+00
  0.00000000E+00  0.00000000E+00  0.00000000E+00
  0.00000000E+00  0.00000000E+00  0.00000000E+00
  0.00000000E+00  0.00000000E+00  0.00000000E+00
  0.00000000E+00  0.00000000E+00  0.00000000E+00
  0.00000000E+00  0.00000000E+00  0.00000000E+00
  0.00000000E+00  0.00000000E+00  0.00000000E+00
  0.00000000E+00  0.00000000E+00  0.00000000E+00
  0.00000000E+00  0.00000000E+00  0.00000000E+00
  0.00000000E+00  0.00000000E+00  0.00000000E+00
