       N       E                     dE             d eps       ncg     rms          rms(c)
DAV:   1     0.923517915657E+01    0.92352E+01   -0.25372E+03  1280   0.506E+02
DAV:   2    -0.503226967146E+01   -0.14267E+02   -0.13562E+02  2160   0.669E+01
DAV:   3    -0.520647670896E+01   -0.17421E+00   -0.17421E+00  1712   0.945E+00
DAV:   4    -0.520709095224E+01   -0.61424E-03   -0.61424E-03  2016   0.541E-01
DAV:   5    -0.520709195395E+01   -0.10017E-05   -0.10017E-05  1680   0.157E-02
DAV:   6    -0.520709197070E+01   -0.16756E-07   -0.16764E-07  1520   0.145E-03
   1 F= -.52070920E+01 E0= -.52070920E+01  d E =-.609453E-14
