Si                                      
   1.00000000000000     
     0.0543000000000000    2.7421499999999996    2.7421499999999996
     2.7421499999999996    0.0543000000000000    2.7421499999999996
     2.7421499999999996    2.7421499999999996    0.0543000000000000
   Si
     2
Direct
  0.0012628654382283  0.0012628696123613  0.0012628254539777
  0.2487371345617717  0.2487371303876387  0.2487371745460223
 
  0.00000000E+00  0.00000000E+00  0.00000000E+00
  0.00000000E+00  0.00000000E+00  0.00000000E+00
