       N       E                     dE             d eps       ncg     rms          rms(c)
DAV:   1     0.945364562101E+01    0.94536E+01   -0.25772E+03  1280   0.510E+02
DAV:   2    -0.509348045496E+01   -0.14547E+02   -0.13852E+02  2072   0.684E+01
DAV:   3    -0.527583714485E+01   -0.18236E+00   -0.18236E+00  1680   0.985E+00
DAV:   4    -0.527649882201E+01   -0.66168E-03   -0.66168E-03  2072   0.589E-01
DAV:   5    -0.527650069449E+01   -0.18725E-05   -0.18721E-05  1680   0.187E-02
DAV:   6    -0.527650071223E+01   -0.17740E-07   -0.18291E-07  1408   0.149E-03
   1 F= -.52765007E+01 E0= -.52765007E+01  d E =-.145455E-10
