       N       E                     dE             d eps       ncg     rms          rms(c)
DAV:   1     0.942315631396E+01    0.94232E+01   -0.25478E+03  1288   0.509E+02
DAV:   2    -0.515331349351E+01   -0.14576E+02   -0.13782E+02  2184   0.673E+01
DAV:   3    -0.532407450450E+01   -0.17076E+00   -0.17076E+00  1656   0.945E+00
DAV:   4    -0.532467120466E+01   -0.59670E-03   -0.59670E-03  2040   0.568E-01
DAV:   5    -0.532467285178E+01   -0.16471E-05   -0.16471E-05  1584   0.184E-02
DAV:   6    -0.532467288210E+01   -0.30321E-07   -0.30321E-07  1528   0.193E-03
   1 F= -.53246729E+01 E0= -.53246729E+01  d E =-.956738E-15
