<?xml version="1.0" encoding="ISO-8859-1"?>
<modeling>
 <generator>
  <i name="program" type="string">vasp </i>
  <i name="version" type="string">6.3.0  </i>
  <i name="subversion" type="string">20Jan22 (build Mar 29 2022 17:59:55) complex                          parallel </i>
  <i name="platform" type="string">IFC91_ompi </i>
  <i name="date" type="string">2026 07 23 </i>
  <i name="time" type="string">12:35:44 </i>
 </generator>
 <incar>
  <i type="int" name="ISTART">     0</i>
  <i type="string" name="PREC">Accurate</i>
  <i type="int" name="ICHARG">     2</i>
  <i name="EDIFF">      0.00000010</i>
  <i type="int" name="NSW">     0</i>
  <i type="int" name="ISYM">     0</i>
  <i name="ENCUT">    320.00000000</i>
  <i type="int" name="ISMEAR">     0</i>
  <i name="SIGMA">      0.05000000</i>
  <i type="logical" name="LCHARG"> T  </i>
  <i type="string" name="GGA">PE</i>
 </incar>
 <primitive_cell>
  <structure name="primitive_cell" >
   <crystal>
    <varray name="basis" >
     <v>       0.00000000       2.71500000       2.71500000 </v>
     <v>       2.74215000       0.00000000       2.71500000 </v>
     <v>       2.74215000       2.71500000       0.00000000 </v>
    </varray>
    <i name="volume">     40.42600927 </i>
    <varray name="rec_basis" >
     <v>      -0.18233868       0.18416206       0.18416206 </v>
     <v>       0.18233868      -0.18416206       0.18416206 </v>
     <v>       0.18233868       0.18416206      -0.18416206 </v>
    </varray>
   </crystal>
   <varray name="positions" >
    <v>       0.00000000       0.00000000       0.00000000 </v>
    <v>       0.25000000       0.25000000       0.25000000 </v>
   </varray>
  </structure>
  <varray name="primitive_index" >
   <v type="int" >        1 </v>
   <v type="int" >        2 </v>
  </varray>
 </primitive_cell>
 <kpoints>
  <generation param="Gamma">
   <v type="int" name="divisions">       8        8        8 </v>
   <v name="usershift">      0.00000000       0.00000000       0.00000000 </v>
   <v name="genvec1">      0.12500000       0.00000000       0.00000000 </v>
   <v name="genvec2">     -0.00000000       0.12500000      -0.00000000 </v>
   <v name="genvec3">      0.00000000      -0.00000000       0.12500000 </v>
   <v name="shift">      0.00000000       0.00000000       0.00000000 </v>
  </generation>
  <varray name="kpointlist" >
   <v>       0.00000000       0.00000000       0.00000000 </v>
   <v>       0.12500000      -0.00000000      -0.00000000 </v>
   <v>       0.00000000      -0.12500000      -0.00000000 </v>
   <v>      -0.12500000      -0.12500000      -0.12500000 </v>
   <v>      -0.00000000      -0.00000000      -0.12500000 </v>
   <v>       0.25000000      -0.00000000      -0.00000000 </v>
   <v>       0.00000000      -0.25000000      -0.00000000 </v>
   <v>      -0.25000000      -0.25000000      -0.25000000 </v>
   <v>      -0.00000000      -0.00000000      -0.25000000 </v>
   <v>       0.37500000       0.00000000       0.00000000 </v>
   <v>      -0.00000000      -0.37500000      -0.00000000 </v>
   <v>      -0.37500000      -0.37500000      -0.37500000 </v>
   <v>       0.00000000       0.00000000      -0.37500000 </v>
   <v>       0.50000000      -0.00000000      -0.00000000 </v>
   <v>      -0.00000000       0.50000000       0.00000000 </v>
   <v>       0.50000000       0.50000000       0.50000000 </v>
   <v>       0.00000000       0.00000000       0.50000000 </v>
   <v>       0.12500000       0.12500000       0.00000000 </v>
   <v>       0.12500000       0.00000000       0.12500000 </v>
   <v>       0.25000000       0.12500000      -0.00000000 </v>
   <v>       0.12500000      -0.12500000       0.12500000 </v>
   <v>      -0.25000000      -0.25000000      -0.12500000 </v>
   <v>      -0.12500000      -0.00000000      -0.25000000 </v>
   <v>      -0.12500000      -0.12500000       0.12500000 </v>
   <v>       0.25000000       0.12500000       0.25000000 </v>
   <v>       0.12500000       0.25000000       0.00000000 </v>
   <v>      -0.25000000       0.00000000      -0.12500000 </v>
   <v>       0.37500000       0.12500000       0.00000000 </v>
   <v>       0.12500000      -0.25000000       0.12500000 </v>
   <v>      -0.37500000      -0.37500000      -0.25000000 </v>
   <v>      -0.12500000      -0.00000000      -0.37500000 </v>
   <v>      -0.12500000      -0.12500000       0.25000000 </v>
   <v>       0.37500000       0.25000000       0.37500000 </v>
   <v>       0.12500000       0.37500000       0.00000000 </v>
   <v>      -0.37500000      -0.00000000      -0.12500000 </v>
   <v>       0.50000000       0.12500000       0.00000000 </v>
   <v>       0.12500000      -0.37500000       0.12500000 </v>
   <v>       0.50000000       0.50000000      -0.37500000 </v>
   <v>      -0.12500000       0.00000000       0.50000000 </v>
   <v>      -0.12500000      -0.12500000       0.37500000 </v>
   <v>       0.50000000       0.37500000       0.50000000 </v>
   <v>       0.12500000       0.50000000       0.00000000 </v>
   <v>       0.50000000      -0.00000000      -0.12500000 </v>
   <v>      -0.37500000       0.12500000       0.00000000 </v>
   <v>       0.12500000       0.50000000       0.12500000 </v>
   <v>       0.37500000       0.37500000       0.50000000 </v>
   <v>      -0.12500000       0.00000000       0.37500000 </v>
   <v>      -0.12500000      -0.12500000       0.50000000 </v>
   <v>      -0.37500000       0.50000000      -0.37500000 </v>
   <v>       0.12500000      -0.37500000      -0.00000000 </v>
   <v>       0.37500000       0.00000000      -0.12500000 </v>
   <v>      -0.25000000       0.12500000      -0.00000000 </v>
   <v>       0.12500000       0.37500000       0.12500000 </v>
   <v>       0.25000000       0.25000000       0.37500000 </v>
   <v>      -0.12500000      -0.00000000       0.25000000 </v>
   <v>      -0.12500000      -0.12500000      -0.37500000 </v>
   <v>      -0.25000000      -0.37500000      -0.25000000 </v>
   <v>       0.12500000      -0.25000000       0.00000000 </v>
   <v>       0.25000000       0.00000000      -0.12500000 </v>
   <v>      -0.12500000       0.12500000       0.00000000 </v>
   <v>       0.12500000       0.25000000       0.12500000 </v>
   <v>       0.12500000       0.12500000       0.25000000 </v>
   <v>      -0.12500000       0.00000000       0.12500000 </v>
   <v>       0.25000000       0.25000000       0.00000000 </v>
   <v>       0.25000000       0.00000000       0.25000000 </v>
   <v>       0.37500000       0.25000000       0.00000000 </v>
   <v>       0.25000000      -0.12500000       0.25000000 </v>
   <v>      -0.37500000      -0.37500000      -0.12500000 </v>
   <v>      -0.25000000      -0.00000000      -0.37500000 </v>
   <v>      -0.25000000      -0.25000000       0.12500000 </v>
   <v>       0.37500000       0.12500000       0.37500000 </v>
   <v>       0.25000000       0.37500000      -0.00000000 </v>
   <v>      -0.37500000      -0.00000000      -0.25000000 </v>
   <v>       0.50000000       0.25000000      -0.00000000 </v>
   <v>       0.25000000      -0.25000000       0.25000000 </v>
   <v>       0.50000000       0.50000000      -0.25000000 </v>
   <v>      -0.25000000      -0.00000000       0.50000000 </v>
   <v>      -0.25000000      -0.25000000       0.25000000 </v>
   <v>       0.50000000       0.25000000       0.50000000 </v>
   <v>       0.25000000       0.50000000       0.00000000 </v>
   <v>       0.50000000       0.00000000      -0.25000000 </v>
   <v>      -0.37500000       0.25000000      -0.00000000 </v>
   <v>       0.25000000      -0.37500000       0.25000000 </v>
   <v>       0.37500000       0.37500000      -0.37500000 </v>
   <v>      -0.25000000       0.00000000       0.37500000 </v>
   <v>      -0.25000000      -0.25000000       0.37500000 </v>
   <v>      -0.37500000       0.37500000      -0.37500000 </v>
   <v>       0.25000000      -0.37500000      -0.00000000 </v>
   <v>       0.37500000      -0.00000000      -0.25000000 </v>
   <v>      -0.25000000       0.25000000       0.00000000 </v>
   <v>       0.25000000       0.50000000       0.25000000 </v>
   <v>       0.25000000       0.25000000       0.50000000 </v>
   <v>      -0.25000000       0.00000000       0.25000000 </v>
   <v>       0.37500000       0.37500000       0.00000000 </v>
   <v>       0.37500000       0.00000000       0.37500000 </v>
   <v>       0.50000000       0.37500000      -0.00000000 </v>
   <v>       0.37500000      -0.12500000       0.37500000 </v>
   <v>       0.50000000       0.50000000      -0.12500000 </v>
   <v>      -0.37500000      -0.00000000       0.50000000 </v>
   <v>      -0.37500000      -0.37500000       0.12500000 </v>
   <v>       0.50000000       0.12500000       0.50000000 </v>
   <v>       0.37500000       0.50000000       0.00000000 </v>
   <v>       0.50000000      -0.00000000      -0.37500000 </v>
   <v>      -0.37500000       0.37500000      -0.00000000 </v>
   <v>       0.37500000      -0.25000000       0.37500000 </v>
   <v>       0.37500000       0.37500000      -0.25000000 </v>
   <v>      -0.37500000      -0.00000000       0.37500000 </v>
   <v>       0.50000000       0.50000000       0.00000000 </v>
   <v>       0.50000000       0.00000000       0.50000000 </v>
   <v>      -0.00000000       0.12500000       0.12500000 </v>
   <v>       0.25000000       0.12500000       0.12500000 </v>
   <v>       0.00000000      -0.12500000       0.12500000 </v>
   <v>       0.37500000       0.12500000       0.12500000 </v>
   <v>      -0.00000000      -0.25000000       0.12500000 </v>
   <v>      -0.37500000      -0.25000000      -0.25000000 </v>
   <v>      -0.00000000       0.12500000      -0.25000000 </v>
   <v>       0.50000000       0.12500000       0.12500000 </v>
   <v>       0.00000000      -0.37500000       0.12500000 </v>
   <v>       0.50000000      -0.37500000      -0.37500000 </v>
   <v>      -0.00000000       0.12500000      -0.37500000 </v>
   <v>      -0.37500000       0.12500000       0.12500000 </v>
   <v>      -0.00000000       0.50000000       0.12500000 </v>
   <v>       0.37500000       0.50000000       0.50000000 </v>
   <v>       0.00000000       0.12500000       0.50000000 </v>
   <v>      -0.25000000       0.12500000       0.12500000 </v>
   <v>       0.00000000       0.37500000       0.12500000 </v>
   <v>       0.25000000       0.37500000       0.37500000 </v>
   <v>       0.00000000       0.12500000       0.37500000 </v>
   <v>      -0.12500000       0.12500000       0.12500000 </v>
   <v>       0.00000000       0.25000000       0.12500000 </v>
   <v>       0.12500000       0.25000000       0.25000000 </v>
   <v>      -0.00000000       0.12500000       0.25000000 </v>
   <v>       0.37500000       0.25000000       0.12500000 </v>
   <v>       0.12500000      -0.12500000       0.25000000 </v>
   <v>      -0.12500000      -0.25000000       0.12500000 </v>
   <v>       0.37500000       0.12500000       0.25000000 </v>
   <v>       0.50000000       0.25000000       0.12500000 </v>
   <v>       0.12500000      -0.25000000       0.25000000 </v>
   <v>       0.50000000      -0.37500000      -0.25000000 </v>
   <v>      -0.12500000       0.12500000      -0.37500000 </v>
   <v>      -0.12500000      -0.25000000       0.25000000 </v>
   <v>       0.50000000       0.25000000       0.37500000 </v>
   <v>       0.12500000       0.37500000      -0.12500000 </v>
   <v>       0.50000000      -0.12500000      -0.25000000 </v>
   <v>      -0.37500000       0.25000000       0.12500000 </v>
   <v>       0.12500000      -0.37500000       0.25000000 </v>
   <v>       0.37500000       0.50000000      -0.37500000 </v>
   <v>      -0.12500000       0.12500000       0.50000000 </v>
   <v>      -0.12500000      -0.25000000       0.37500000 </v>
   <v>      -0.37500000       0.37500000       0.50000000 </v>
   <v>       0.12500000       0.50000000      -0.12500000 </v>
   <v>       0.37500000      -0.12500000      -0.25000000 </v>
   <v>      -0.25000000       0.25000000       0.12500000 </v>
   <v>       0.12500000       0.50000000       0.25000000 </v>
   <v>       0.25000000       0.37500000       0.50000000 </v>
   <v>      -0.12500000       0.12500000       0.37500000 </v>
   <v>      -0.12500000      -0.25000000       0.50000000 </v>
   <v>      -0.25000000       0.50000000      -0.37500000 </v>
   <v>       0.12500000      -0.37500000      -0.12500000 </v>
   <v>       0.25000000      -0.12500000      -0.25000000 </v>
   <v>      -0.12500000       0.25000000       0.12500000 </v>
   <v>       0.12500000       0.37500000       0.25000000 </v>
   <v>       0.12500000       0.25000000       0.37500000 </v>
   <v>      -0.12500000       0.12500000       0.25000000 </v>
   <v>       0.25000000       0.37500000       0.12500000 </v>
   <v>       0.25000000       0.12500000       0.37500000 </v>
   <v>      -0.25000000      -0.12500000       0.12500000 </v>
   <v>      -0.25000000       0.12500000      -0.12500000 </v>
   <v>       0.50000000       0.37500000       0.12500000 </v>
   <v>       0.25000000      -0.12500000       0.37500000 </v>
   <v>      -0.25000000      -0.37500000       0.12500000 </v>
   <v>       0.50000000       0.12500000       0.37500000 </v>
   <v>      -0.37500000       0.37500000       0.12500000 </v>
   <v>       0.25000000      -0.25000000       0.37500000 </v>
   <v>       0.37500000       0.50000000      -0.25000000 </v>
   <v>      -0.25000000       0.12500000       0.50000000 </v>
   <v>      -0.25000000      -0.37500000       0.25000000 </v>
   <v>      -0.37500000       0.25000000       0.50000000 </v>
   <v>       0.25000000       0.50000000      -0.12500000 </v>
   <v>       0.37500000      -0.12500000      -0.37500000 </v>
   <v>      -0.25000000       0.37500000       0.12500000 </v>
   <v>       0.25000000      -0.37500000       0.37500000 </v>
   <v>       0.25000000       0.37500000      -0.37500000 </v>
   <v>      -0.25000000       0.12500000       0.37500000 </v>
   <v>       0.25000000       0.50000000       0.12500000 </v>
   <v>       0.37500000       0.25000000       0.50000000 </v>
   <v>      -0.25000000      -0.12500000       0.25000000 </v>
   <v>      -0.37500000       0.12500000      -0.12500000 </v>
   <v>      -0.37500000       0.50000000      -0.25000000 </v>
   <v>       0.25000000      -0.25000000       0.12500000 </v>
   <v>       0.37500000       0.12500000      -0.12500000 </v>
   <v>      -0.25000000      -0.12500000       0.50000000 </v>
   <v>       0.37500000       0.50000000       0.12500000 </v>
   <v>       0.37500000       0.12500000       0.50000000 </v>
   <v>      -0.37500000      -0.25000000       0.12500000 </v>
   <v>      -0.37500000       0.12500000      -0.25000000 </v>
   <v>      -0.37500000       0.50000000       0.12500000 </v>
   <v>       0.37500000      -0.12500000       0.50000000 </v>
   <v>       0.25000000      -0.37500000       0.12500000 </v>
   <v>       0.50000000       0.37500000      -0.37500000 </v>
   <v>      -0.25000000      -0.12500000       0.37500000 </v>
   <v>       0.50000000       0.12500000      -0.12500000 </v>
   <v>       0.37500000      -0.37500000       0.12500000 </v>
   <v>       0.50000000       0.25000000      -0.37500000 </v>
   <v>      -0.37500000      -0.25000000       0.25000000 </v>
   <v>       0.50000000       0.12500000      -0.25000000 </v>
   <v>       0.50000000       0.37500000      -0.25000000 </v>
   <v>       0.37500000      -0.25000000       0.25000000 </v>
   <v>       0.50000000       0.25000000      -0.12500000 </v>
   <v>      -0.37500000      -0.12500000       0.37500000 </v>
   <v>       0.50000000      -0.37500000       0.12500000 </v>
   <v>       0.50000000       0.12500000      -0.37500000 </v>
   <v>       0.37500000      -0.25000000       0.12500000 </v>
   <v>      -0.37500000       0.37500000      -0.25000000 </v>
   <v>      -0.37500000      -0.25000000       0.37500000 </v>
   <v>       0.37500000       0.12500000      -0.25000000 </v>
   <v>      -0.00000000       0.25000000       0.25000000 </v>
   <v>       0.50000000       0.25000000       0.25000000 </v>
   <v>       0.00000000      -0.25000000       0.25000000 </v>
   <v>      -0.37500000       0.25000000       0.25000000 </v>
   <v>      -0.00000000      -0.37500000       0.25000000 </v>
   <v>       0.37500000      -0.37500000      -0.37500000 </v>
   <v>      -0.00000000       0.25000000      -0.37500000 </v>
   <v>      -0.25000000       0.25000000       0.25000000 </v>
   <v>       0.00000000       0.50000000       0.25000000 </v>
   <v>       0.25000000       0.50000000       0.50000000 </v>
   <v>      -0.00000000       0.25000000       0.50000000 </v>
   <v>      -0.12500000       0.25000000       0.25000000 </v>
   <v>       0.00000000       0.37500000       0.25000000 </v>
   <v>       0.12500000       0.37500000       0.37500000 </v>
   <v>      -0.00000000       0.25000000       0.37500000 </v>
   <v>      -0.37500000       0.37500000       0.25000000 </v>
   <v>       0.12500000      -0.25000000       0.37500000 </v>
   <v>      -0.12500000      -0.37500000       0.25000000 </v>
   <v>      -0.37500000       0.25000000       0.37500000 </v>
   <v>      -0.25000000       0.37500000       0.25000000 </v>
   <v>       0.12500000      -0.37500000       0.37500000 </v>
   <v>       0.25000000       0.50000000      -0.37500000 </v>
   <v>      -0.12500000       0.25000000       0.50000000 </v>
   <v>      -0.12500000      -0.37500000       0.37500000 </v>
   <v>      -0.25000000       0.37500000       0.50000000 </v>
   <v>       0.12500000       0.50000000      -0.25000000 </v>
   <v>       0.25000000      -0.25000000      -0.37500000 </v>
   <v>      -0.12500000       0.37500000       0.25000000 </v>
   <v>       0.12500000       0.50000000       0.37500000 </v>
   <v>       0.12500000       0.37500000       0.50000000 </v>
   <v>      -0.12500000       0.25000000       0.37500000 </v>
   <v>      -0.25000000       0.50000000       0.25000000 </v>
   <v>       0.25000000      -0.25000000       0.50000000 </v>
   <v>       0.50000000      -0.25000000       0.25000000 </v>
   <v>      -0.00000000       0.37500000       0.37500000 </v>
   <v>      -0.25000000       0.37500000       0.37500000 </v>
   <v>      -0.00000000      -0.37500000       0.37500000 </v>
   <v>      -0.12500000       0.37500000       0.37500000 </v>
   <v>      -0.00000000       0.50000000       0.37500000 </v>
   <v>       0.12500000       0.50000000       0.50000000 </v>
   <v>      -0.00000000       0.37500000       0.50000000 </v>
   <v>      -0.12500000       0.50000000       0.37500000 </v>
   <v>       0.12500000      -0.37500000       0.50000000 </v>
   <v>      -0.00000000       0.50000000       0.50000000 </v>
  </varray>
  <varray name="weights" >
   <v>       0.00195312 </v>
   <v>       0.00390625 </v>
   <v>       0.00390625 </v>
   <v>       0.00390625 </v>
   <v>       0.00390625 </v>
   <v>       0.00390625 </v>
   <v>       0.00390625 </v>
   <v>       0.00390625 </v>
   <v>       0.00390625 </v>
   <v>       0.00390625 </v>
   <v>       0.00390625 </v>
   <v>       0.00390625 </v>
   <v>       0.00390625 </v>
   <v>       0.00195312 </v>
   <v>       0.00195312 </v>
   <v>       0.00195312 </v>
   <v>       0.00195312 </v>
   <v>       0.00390625 </v>
   <v>       0.00390625 </v>
   <v>       0.00390625 </v>
   <v>       0.00390625 </v>
   <v>       0.00390625 </v>
   <v>       0.00390625 </v>
   <v>       0.00390625 </v>
   <v>       0.00390625 </v>
   <v>       0.00390625 </v>
   <v>       0.00390625 </v>
   <v>       0.00390625 </v>
   <v>       0.00390625 </v>
   <v>       0.00390625 </v>
   <v>       0.00390625 </v>
   <v>       0.00390625 </v>
   <v>       0.00390625 </v>
   <v>       0.00390625 </v>
   <v>       0.00390625 </v>
   <v>       0.00390625 </v>
   <v>       0.00390625 </v>
   <v>       0.00390625 </v>
   <v>       0.00390625 </v>
   <v>       0.00390625 </v>
   <v>       0.00390625 </v>
   <v>       0.00390625 </v>
   <v>       0.00390625 </v>
   <v>       0.00390625 </v>
   <v>       0.00390625 </v>
   <v>       0.00390625 </v>
   <v>       0.00390625 </v>
   <v>       0.00390625 </v>
   <v>       0.00390625 </v>
   <v>       0.00390625 </v>
   <v>       0.00390625 </v>
   <v>       0.00390625 </v>
   <v>       0.00390625 </v>
   <v>       0.00390625 </v>
   <v>       0.00390625 </v>
   <v>       0.00390625 </v>
   <v>       0.00390625 </v>
   <v>       0.00390625 </v>
   <v>       0.00390625 </v>
   <v>       0.00390625 </v>
   <v>       0.00390625 </v>
   <v>       0.00390625 </v>
   <v>       0.00390625 </v>
   <v>       0.00390625 </v>
   <v>       0.00390625 </v>
   <v>       0.00390625 </v>
   <v>       0.00390625 </v>
   <v>       0.00390625 </v>
   <v>       0.00390625 </v>
   <v>       0.00390625 </v>
   <v>       0.00390625 </v>
   <v>       0.00390625 </v>
   <v>       0.00390625 </v>
   <v>       0.00390625 </v>
   <v>       0.00390625 </v>
   <v>       0.00390625 </v>
   <v>       0.00390625 </v>
   <v>       0.00390625 </v>
   <v>       0.00390625 </v>
   <v>       0.00390625 </v>
   <v>       0.00390625 </v>
   <v>       0.00390625 </v>
   <v>       0.00390625 </v>
   <v>       0.00390625 </v>
   <v>       0.00390625 </v>
   <v>       0.00390625 </v>
   <v>       0.00390625 </v>
   <v>       0.00390625 </v>
   <v>       0.00390625 </v>
   <v>       0.00390625 </v>
   <v>       0.00390625 </v>
   <v>       0.00390625 </v>
   <v>       0.00390625 </v>
   <v>       0.00390625 </v>
   <v>       0.00390625 </v>
   <v>       0.00390625 </v>
   <v>       0.00390625 </v>
   <v>       0.00390625 </v>
   <v>       0.00390625 </v>
   <v>       0.00390625 </v>
   <v>       0.00390625 </v>
   <v>       0.00390625 </v>
   <v>       0.00390625 </v>
   <v>       0.00390625 </v>
   <v>       0.00390625 </v>
   <v>       0.00390625 </v>
   <v>       0.00390625 </v>
   <v>       0.00195312 </v>
   <v>       0.00195312 </v>
   <v>       0.00390625 </v>
   <v>       0.00390625 </v>
   <v>       0.00390625 </v>
   <v>       0.00390625 </v>
   <v>       0.00390625 </v>
   <v>       0.00390625 </v>
   <v>       0.00390625 </v>
   <v>       0.00390625 </v>
   <v>       0.00390625 </v>
   <v>       0.00390625 </v>
   <v>       0.00390625 </v>
   <v>       0.00390625 </v>
   <v>       0.00390625 </v>
   <v>       0.00390625 </v>
   <v>       0.00390625 </v>
   <v>       0.00390625 </v>
   <v>       0.00390625 </v>
   <v>       0.00390625 </v>
   <v>       0.00390625 </v>
   <v>       0.00390625 </v>
   <v>       0.00390625 </v>
   <v>       0.00390625 </v>
   <v>       0.00390625 </v>
   <v>       0.00390625 </v>
   <v>       0.00390625 </v>
   <v>       0.00390625 </v>
   <v>       0.00390625 </v>
   <v>       0.00390625 </v>
   <v>       0.00390625 </v>
   <v>       0.00390625 </v>
   <v>       0.00390625 </v>
   <v>       0.00390625 </v>
   <v>       0.00390625 </v>
   <v>       0.00390625 </v>
   <v>       0.00390625 </v>
   <v>       0.00390625 </v>
   <v>       0.00390625 </v>
   <v>       0.00390625 </v>
   <v>       0.00390625 </v>
   <v>       0.00390625 </v>
   <v>       0.00390625 </v>
   <v>       0.00390625 </v>
   <v>       0.00390625 </v>
   <v>       0.00390625 </v>
   <v>       0.00390625 </v>
   <v>       0.00390625 </v>
   <v>       0.00390625 </v>
   <v>       0.00390625 </v>
   <v>       0.00390625 </v>
   <v>       0.00390625 </v>
   <v>       0.00390625 </v>
   <v>       0.00390625 </v>
   <v>       0.00390625 </v>
   <v>       0.00390625 </v>
   <v>       0.00390625 </v>
   <v>       0.00390625 </v>
   <v>       0.00390625 </v>
   <v>       0.00390625 </v>
   <v>       0.00390625 </v>
   <v>       0.00390625 </v>
   <v>       0.00390625 </v>
   <v>       0.00390625 </v>
   <v>       0.00390625 </v>
   <v>       0.00390625 </v>
   <v>       0.00390625 </v>
   <v>       0.00390625 </v>
   <v>       0.00390625 </v>
   <v>       0.00390625 </v>
   <v>       0.00390625 </v>
   <v>       0.00390625 </v>
   <v>       0.00390625 </v>
   <v>       0.00390625 </v>
   <v>       0.00390625 </v>
   <v>       0.00390625 </v>
   <v>       0.00390625 </v>
   <v>       0.00390625 </v>
   <v>       0.00390625 </v>
   <v>       0.00390625 </v>
   <v>       0.00390625 </v>
   <v>       0.00390625 </v>
   <v>       0.00390625 </v>
   <v>       0.00390625 </v>
   <v>       0.00390625 </v>
   <v>       0.00390625 </v>
   <v>       0.00390625 </v>
   <v>       0.00390625 </v>
   <v>       0.00390625 </v>
   <v>       0.00390625 </v>
   <v>       0.00390625 </v>
   <v>       0.00390625 </v>
   <v>       0.00390625 </v>
   <v>       0.00390625 </v>
   <v>       0.00390625 </v>
   <v>       0.00390625 </v>
   <v>       0.00390625 </v>
   <v>       0.00390625 </v>
   <v>       0.00390625 </v>
   <v>       0.00390625 </v>
   <v>       0.00390625 </v>
   <v>       0.00390625 </v>
   <v>       0.00390625 </v>
   <v>       0.00390625 </v>
   <v>       0.00390625 </v>
   <v>       0.00390625 </v>
   <v>       0.00390625 </v>
   <v>       0.00390625 </v>
   <v>       0.00390625 </v>
   <v>       0.00390625 </v>
   <v>       0.00390625 </v>
   <v>       0.00390625 </v>
   <v>       0.00390625 </v>
   <v>       0.00390625 </v>
   <v>       0.00390625 </v>
   <v>       0.00390625 </v>
   <v>       0.00390625 </v>
   <v>       0.00390625 </v>
   <v>       0.00390625 </v>
   <v>       0.00390625 </v>
   <v>       0.00390625 </v>
   <v>       0.00390625 </v>
   <v>       0.00390625 </v>
   <v>       0.00390625 </v>
   <v>       0.00390625 </v>
   <v>       0.00390625 </v>
   <v>       0.00390625 </v>
   <v>       0.00390625 </v>
   <v>       0.00390625 </v>
   <v>       0.00390625 </v>
   <v>       0.00390625 </v>
   <v>       0.00390625 </v>
   <v>       0.00390625 </v>
   <v>       0.00390625 </v>
   <v>       0.00390625 </v>
   <v>       0.00390625 </v>
   <v>       0.00390625 </v>
   <v>       0.00390625 </v>
   <v>       0.00390625 </v>
   <v>       0.00390625 </v>
   <v>       0.00390625 </v>
   <v>       0.00390625 </v>
   <v>       0.00390625 </v>
   <v>       0.00390625 </v>
   <v>       0.00390625 </v>
   <v>       0.00390625 </v>
   <v>       0.00390625 </v>
   <v>       0.00390625 </v>
   <v>       0.00390625 </v>
   <v>       0.00390625 </v>
   <v>       0.00390625 </v>
   <v>       0.00390625 </v>
   <v>       0.00195312 </v>
  </varray>
 </kpoints>
 <parameters>
  <separator name="general" >
   <i type="string" name="SYSTEM">unknown system</i>
   <i type="logical" name="LCOMPAT"> F  </i>
  </separator>
  <separator name="electronic" >
   <i type="string" name="PREC">accura</i>
   <i name="ENMAX">    320.00000000</i>
   <i name="ENAUG">    322.06900000</i>
   <i name="EDIFF">      0.00000010</i>
   <i type="int" name="IALGO">    38</i>
   <i type="int" name="IWAVPR">    10</i>
   <i type="int" name="NBANDS">     8</i>
   <i type="int" name="NBANDSLOW">    -1</i>
   <i type="int" name="NBANDSHIGH">    -1</i>
   <i name="NELECT">      8.00000000</i>
   <i type="int" name="TURBO">     0</i>
   <i type="int" name="IRESTART">     0</i>
   <i type="int" name="NREBOOT">     0</i>
   <i type="int" name="NMIN">     0</i>
   <i name="EREF">      0.00000000</i>
   <separator name="electronic smearing" >
    <i type="int" name="ISMEAR">     0</i>
    <i name="SIGMA">      0.05000000</i>
    <i name="KSPACING">      0.50000000</i>
    <i type="logical" name="KGAMMA"> T  </i>
    <i type="logical" name="KBLOWUP"> T  </i>
   </separator>
   <separator name="electronic projectors" >
    <i type="logical" name="LREAL"> F  </i>
    <v name="ROPT">      0.00000000</v>
    <i type="int" name="LMAXPAW">  -100</i>
    <i type="int" name="LMAXMIX">     2</i>
    <i type="logical" name="NLSPLINE"> F  </i>
   </separator>
   <separator name="electronic startup" >
    <i type="int" name="ISTART">     0</i>
    <i type="int" name="ICHARG">     2</i>
    <i type="int" name="INIWAV">     1</i>
   </separator>
   <separator name="electronic spin" >
    <i type="int" name="ISPIN">     1</i>
    <i type="logical" name="LNONCOLLINEAR"> F  </i>
    <v name="MAGMOM">      1.00000000      1.00000000</v>
    <i name="NUPDOWN">     -1.00000000</i>
    <i type="logical" name="LSORBIT"> F  </i>
    <v name="SAXIS">      0.00000000      0.00000000      1.00000000</v>
    <i type="logical" name="LSPIRAL"> F  </i>
    <v name="QSPIRAL">      0.00000000      0.00000000      0.00000000</v>
    <i type="logical" name="LZEROZ"> F  </i>
   </separator>
   <separator name="electronic exchange-correlation" >
    <i type="logical" name="LASPH"> F  </i>
    <i type="logical" name="LMETAGGA"> F  </i>
   </separator>
   <separator name="electronic convergence" >
    <i type="int" name="NELM">    60</i>
    <i type="int" name="NELMDL">    -5</i>
    <i type="int" name="NELMIN">     2</i>
    <i name="ENINI">    320.00000000</i>
    <separator name="electronic convergence detail" >
     <i type="logical" name="LDIAG"> T  </i>
     <i type="logical" name="LSUBROT"> F  </i>
     <i name="WEIMIN">      0.00000000</i>
     <i name="EBREAK">      0.00000000</i>
     <i name="DEPER">      0.30000000</i>
     <i type="int" name="NRMM">     4</i>
     <i name="TIME">      0.40000000</i>
    </separator>
   </separator>
   <separator name="electronic mixer" >
    <i name="AMIX">      0.40000000</i>
    <i name="BMIX">      1.00000000</i>
    <i name="AMIN">      0.10000000</i>
    <i name="AMIX_MAG">      1.60000000</i>
    <i name="BMIX_MAG">      1.00000000</i>
    <separator name="electronic mixer details" >
     <i type="int" name="IMIX">     4</i>
     <i type="logical" name="MIXFIRST"> F  </i>
     <i type="int" name="MAXMIX">   -45</i>
     <i name="WC">    100.00000000</i>
     <i type="int" name="INIMIX">     1</i>
     <i type="int" name="MIXPRE">     1</i>
     <i type="int" name="MREMOVE">     5</i>
    </separator>
   </separator>
   <separator name="electronic dipolcorrection" >
    <i type="logical" name="LDIPOL"> F  </i>
    <i type="logical" name="LMONO"> F  </i>
    <i type="int" name="IDIPOL">     0</i>
    <i name="EPSILON">      1.00000000</i>
    <v name="DIPOL">   -100.00000000   -100.00000000   -100.00000000</v>
    <i name="EFIELD">      0.00000000</i>
   </separator>
  </separator>
  <separator name="grids" >
   <i type="int" name="NGX">    24</i>
   <i type="int" name="NGY">    24</i>
   <i type="int" name="NGZ">    24</i>
   <i type="int" name="NGXF">    48</i>
   <i type="int" name="NGYF">    48</i>
   <i type="int" name="NGZF">    48</i>
   <i type="logical" name="ADDGRID"> F  </i>
  </separator>
  <separator name="ionic" >
   <i type="int" name="NSW">     0</i>
   <i type="int" name="IBRION">    -1</i>
   <i type="int" name="MDALGO">     0</i>
   <i type="int" name="ISIF">     2</i>
   <i name="PSTRESS">      0.00000000</i>
   <i name="EDIFFG">      0.00000100</i>
   <i type="int" name="NFREE">     0</i>
   <i name="POTIM">      0.50000000</i>
   <i name="SMASS">     -3.00000000</i>
   <i name="SCALEE">      1.00000000</i>
  </separator>
  <separator name="ionic md" >
   <i name="TEBEG">      0.00010000</i>
   <i name="TEEND">      0.00010000</i>
   <i type="int" name="NBLOCK">     1</i>
   <i type="int" name="KBLOCK">     1</i>
   <i type="int" name="NPACO">   256</i>
   <i name="APACO">     10.00000000</i>
  </separator>
  <separator name="symmetry" >
   <i type="int" name="ISYM">     0</i>
   <i name="SYMPREC">      0.00001000</i>
  </separator>
  <separator name="dos" >
   <i type="int" name="LORBIT">     0</i>
   <v name="RWIGS">     -1.00000000</v>
   <i type="int" name="NEDOS">   301</i>
   <i name="EMIN">     10.00000000</i>
   <i name="EMAX">    -10.00000000</i>
   <i name="EFERMI">      0.00000000</i>
  </separator>
  <separator name="writing" >
   <i type="int" name="NWRITE">     2</i>
   <i type="logical" name="LWAVE"> T  </i>
   <i type="logical" name="LDOWNSAMPLE"> F  </i>
   <i type="logical" name="LCHARG"> T  </i>
   <i type="logical" name="LPARD"> F  </i>
   <i type="logical" name="LVTOT"> F  </i>
   <i type="logical" name="LVHAR"> F  </i>
   <i type="logical" name="LELF"> F  </i>
   <i type="logical" name="LOPTICS"> F  </i>
   <v name="STM">      0.00000000      0.00000000      0.00000000      0.00000000      0.00000000      0.00000000      0.00000000</v>
  </separator>
  <separator name="performance" >
   <i type="int" name="NPAR">     1</i>
   <i type="int" name="NSIM">     4</i>
   <i type="int" name="NBLK">    -1</i>
   <i type="logical" name="LPLANE"> T  </i>
   <i type="logical" name="LSCALAPACK"> T  </i>
   <i type="logical" name="LSCAAWARE"> F  </i>
   <i type="logical" name="LSCALU"> F  </i>
   <i type="logical" name="LASYNC"> F  </i>
   <i type="logical" name="LORBITALREAL"> F  </i>
  </separator>
  <separator name="miscellaneous" >
   <i type="int" name="IDIOT">     3</i>
   <i type="int" name="PHON_NSTRUCT">    -1</i>
   <i type="logical" name="LMUSIC"> F  </i>
   <v name="POMASS">     28.08500000</v>
   <v name="DARWINR">      0.00000000</v>
   <v name="DARWINV">      1.00000000</v>
   <i type="logical" name="LCORR"> T  </i>
  </separator>
  <i type="logical" name="GGA_COMPAT"> T  </i>
  <i type="logical" name="LBERRY"> F  </i>
  <i type="int" name="ICORELEVEL">     0</i>
  <i type="logical" name="LDAU"> F  </i>
  <i type="int" name="I_CONSTRAINED_M">     0</i>
  <separator name="electronic exchange-correlation" >
   <i type="string" name="GGA">PE</i>
   <i type="int" name="VOSKOWN">     0</i>
   <i type="logical" name="LHFCALC"> F  </i>
   <i type="string" name="PRECFOCK"></i>
   <i type="logical" name="LSYMGRAD"> F  </i>
   <i type="logical" name="LHFONE"> F  </i>
   <i type="logical" name="LRHFCALC"> F  </i>
   <i type="logical" name="LTHOMAS"> F  </i>
   <i type="logical" name="LMODELHF"> F  </i>
   <i type="logical" name="LFOCKACE"> F  </i>
   <i name="ENCUT4O">     -1.00000000</i>
   <i type="int" name="EXXOEP">     0</i>
   <i type="int" name="FOURORBIT">     0</i>
   <i name="AEXX">      0.00000000</i>
   <i name="HFALPHA">      0.00000000</i>
   <i name="MCALPHA">      0.00000000</i>
   <i name="ALDAX">      1.00000000</i>
   <i name="AGGAX">      1.00000000</i>
   <i name="ALDAC">      1.00000000</i>
   <i name="AGGAC">      1.00000000</i>
   <i type="int" name="NKREDX">     1</i>
   <i type="int" name="NKREDY">     1</i>
   <i type="int" name="NKREDZ">     1</i>
   <i type="logical" name="SHIFTRED"> F  </i>
   <i type="logical" name="ODDONLY"> F  </i>
   <i type="logical" name="EVENONLY"> F  </i>
   <i type="int" name="LMAXFOCK">     0</i>
   <i type="int" name="NMAXFOCKAE">     0</i>
   <i type="logical" name="LFOCKAEDFT"> F  </i>
   <i name="HFSCREEN">      0.00000000</i>
   <i name="HFSCREENC">      0.00000000</i>
   <i type="int" name="NBANDSGWLOW">     0</i>
  </separator>
  <separator name="vdW DFT" >
   <i type="logical" name="LUSE_VDW"> F  </i>
   <i name="Zab_VDW">     -0.84910000</i>
   <i name="PARAM1">      0.12340000</i>
   <i name="PARAM2">      1.00000000</i>
   <i name="PARAM3">      0.00000000</i>
  </separator>
  <separator name="model GW" >
   <i type="int" name="MODEL_GW">     0</i>
   <i name="MODEL_EPS0">     12.12780278</i>
   <i name="MODEL_ALPHA">      1.00000000</i>
  </separator>
  <separator name="linear response parameters" >
   <i type="logical" name="LEPSILON"> F  </i>
   <i type="logical" name="LRPA"> F  </i>
   <i type="logical" name="LNABLA"> F  </i>
   <i type="logical" name="LVEL"> F  </i>
   <i name="CSHIFT">      0.10000000</i>
   <i name="OMEGAMAX">     -1.00000000</i>
   <i name="DEG_THRESHOLD">      0.00200000</i>
   <i name="RTIME">     -0.10000000</i>
   <i name="WPLASMAI">      0.00000000</i>
   <v name="DFIELD">      0.00000000      0.00000000      0.00000000</v>
   <v name="WPLASMA">      0.00000000      0.00000000      0.00000000      0.00000000      0.00000000      0.00000000      0.00000000      0.00000000      0.00000000</v>
  </separator>
  <separator name="orbital magnetization" >
   <i type="logical" name="NUCIND"> F  </i>
   <v name="MAGPOS">      0.00000000      0.00000000      0.00000000</v>
   <i type="logical" name="LNICSALL"> T  </i>
   <i type="logical" name="ORBITALMAG"> F  </i>
   <i type="logical" name="LMAGBLOCH"> F  </i>
   <i type="logical" name="LCHIMAG"> F  </i>
   <i type="logical" name="LGAUGE"> T  </i>
   <i type="int" name="MAGATOM">     0</i>
   <v name="MAGDIPOL">      0.00000000      0.00000000      0.00000000</v>
   <v name="AVECCONST">      0.00000000      0.00000000      0.00000000</v>
  </separator>
  <separator name="response functions" >
   <i type="logical" name="LFINITE_TEMPERATURE"> F  </i>
   <i type="logical" name="LADDER"> F  </i>
   <i type="logical" name="LRPAFORCE"> F  </i>
   <i type="logical" name="LFXC"> F  </i>
   <i type="logical" name="LHARTREE"> T  </i>
   <i type="int" name="IBSE">     0</i>
   <v type="int" name="KPOINT">    -1     0     0     0</v>
   <i type="logical" name="LTCTC"> F  </i>
   <i type="logical" name="LTCTE"> F  </i>
   <i type="logical" name="LTETE"> F  </i>
   <i type="logical" name="LTRIPLET"> F  </i>
   <i type="logical" name="LFXCEPS"> F  </i>
   <i type="logical" name="LFXHEG"> F  </i>
   <i type="int" name="NATURALO">     2</i>
   <i type="logical" name="LHOLEGF"> F  </i>
   <i type="logical" name="L2ORDER"> F  </i>
   <i type="logical" name="LDMP1"> F  </i>
   <i type="logical" name="LMP2LT"> F  </i>
   <i type="logical" name="LSMP2LT"> F  </i>
   <i type="logical" name="LGWLF"> F  </i>
   <i name="ENCUTGW">     -2.00000000</i>
   <i name="ENCUTGWSOFT">     -2.00000000</i>
   <i name="ENCUTLF">     -1.00000000</i>
   <i type="logical" name="LESF_SPLINES"> F  </i>
   <i type="int" name="LMAXMP2">    -1</i>
   <i name="SCISSOR">      0.00000000</i>
   <i type="int" name="NOMEGA">     0</i>
   <i type="int" name="NOMEGAR">     0</i>
   <i type="int" name="NBANDSGW">    -1</i>
   <i type="int" name="NBANDSO">    -1</i>
   <i type="int" name="NBANDSV">    -1</i>
   <i type="int" name="NELMGW">     1</i>
   <i type="int" name="NELMHF">     1</i>
   <i type="int" name="DIM">     3</i>
   <i type="int" name="IESPILON">     4</i>
   <i type="int" name="ANTIRES">     0</i>
   <i name="OMEGAMAX">    -30.00000000</i>
   <i name="OMEGAMIN">    -30.00000000</i>
   <i name="OMEGATL">   -200.00000000</i>
   <i type="int" name="OMEGAGRID">     0</i>
   <i name="CSHIFT">     -0.10000000</i>
   <i type="logical" name="LSELFENERGY"> F  </i>
   <i type="logical" name="LSPECTRAL"> F  </i>
   <i type="logical" name="LSPECTRALGW"> F  </i>
   <i type="logical" name="LSINGLES"> F  </i>
   <i type="logical" name="LFERMIGW"> F  </i>
   <i type="logical" name="ODDONLYGW"> F  </i>
   <i type="logical" name="EVENONLYGW"> F  </i>
   <i type="int" name="NKREDLFX">     1</i>
   <i type="int" name="NKREDLFY">     1</i>
   <i type="int" name="NKREDLFZ">     1</i>
   <i type="int" name="MAXMEM">  2800</i>
   <i type="int" name="TELESCOPE">     0</i>
   <i type="int" name="NTAUPAR">    -1</i>
   <i type="int" name="NOMEGAPAR">    -1</i>
   <i name="DAMP_NEWTON">      0.80000001</i>
   <i name="LAMBDA">      1.00000000</i>
  </separator>
  <separator name="External order field" >
   <i name="OFIELD_KAPPA">      0.00000000</i>
   <v name="OFIELD_K">      0.00000000      0.00000000      0.00000000</v>
   <i name="OFIELD_Q6_NEAR">      0.00000000</i>
   <i name="OFIELD_Q6_FAR">      0.00000000</i>
   <i name="OFIELD_A">      0.00000000</i>
  </separator>
  <separator name="optional k-points parameters" >
   <i type="int" name="KPOINTS_OPT_MODE">     1</i>
   <i type="logical" name="LKPOINTS_OPT"> F  </i>
  </separator>
 </parameters>
 <atominfo>
  <atoms>       2 </atoms>
  <types>       1 </types>
  <array name="atoms" >
   <dimension dim="1">ion</dimension>
   <field type="string">element</field>
   <field type="int">atomtype</field>
   <set>
    <rc><c>Si</c><c>   1</c></rc>
    <rc><c>Si</c><c>   1</c></rc>
   </set>
  </array>
  <array name="atomtypes" >
   <dimension dim="1">type</dimension>
   <field type="int">atomspertype</field>
   <field type="string">element</field>
   <field>mass</field>
   <field>valence</field>
   <field type="string">pseudopotential</field>
   <set>
    <rc><c>   2</c><c>Si</c><c>     28.08500000</c><c>      4.00000000</c><c>  PAW_PBE Si 05Jan2001                  </c></rc>
   </set>
  </array>
 </atominfo>
 <structure name="initialpos" >
  <crystal>
   <varray name="basis" >
    <v>       0.00000000       2.71500000       2.71500000 </v>
    <v>       2.74215000       0.00000000       2.71500000 </v>
    <v>       2.74215000       2.71500000       0.00000000 </v>
   </varray>
   <i name="volume">     40.42600927 </i>
   <varray name="rec_basis" >
    <v>      -0.18233868       0.18416206       0.18416206 </v>
    <v>       0.18233868      -0.18416206       0.18416206 </v>
    <v>       0.18233868       0.18416206      -0.18416206 </v>
   </varray>
  </crystal>
  <varray name="positions" >
   <v>       0.00000000       0.00000000       0.00000000 </v>
   <v>       0.25000000       0.25000000       0.25000000 </v>
  </varray>
 </structure>
 <calculation>
  <scstep>
   <time name="dav">    2.85    2.85</time>
   <time name="total">    2.90    2.90</time>
   <energy>
    <i name="alphaZ">      3.33083887 </i>
    <i name="ewald">   -227.81013315 </i>
    <i name="hartreedc">    -11.14928492 </i>
    <i name="XCdc">    -18.64098825 </i>
    <i name="pawpsdc">    176.24759923 </i>
    <i name="pawaedc">   -141.06103558 </i>
    <i name="eentropy">     -0.00072581 </i>
    <i name="bandstr">     14.77211004 </i>
    <i name="atom">    206.13066687 </i>
    <i name="e_fr_energy">      1.81904730 </i>
    <i name="e_wo_entrp">      1.81977311 </i>
    <i name="e_0_energy">      1.81941020 </i>
   </energy>
  </scstep>
  <scstep>
   <time name="dav">    3.88    3.88</time>
   <time name="total">    3.88    3.88</time>
   <energy>
    <i name="e_fr_energy">    -10.86048622 </i>
    <i name="e_wo_entrp">    -10.86048622 </i>
    <i name="e_0_energy">    -10.86048622 </i>
   </energy>
  </scstep>
  <scstep>
   <time name="dav">    3.39    3.39</time>
   <time name="total">    3.40    3.40</time>
   <energy>
    <i name="e_fr_energy">    -11.01427262 </i>
    <i name="e_wo_entrp">    -11.01427262 </i>
    <i name="e_0_energy">    -11.01427262 </i>
   </energy>
  </scstep>
  <scstep>
   <time name="dav">    4.04    4.04</time>
   <time name="total">    4.04    4.04</time>
   <energy>
    <i name="e_fr_energy">    -11.01486543 </i>
    <i name="e_wo_entrp">    -11.01486543 </i>
    <i name="e_0_energy">    -11.01486543 </i>
   </energy>
  </scstep>
  <scstep>
   <time name="dav">    3.43    3.43</time>
   <time name="total">    3.67    3.67</time>
   <energy>
    <i name="e_fr_energy">    -11.01486574 </i>
    <i name="e_wo_entrp">    -11.01486574 </i>
    <i name="e_0_energy">    -11.01486574 </i>
   </energy>
  </scstep>
  <scstep>
   <time name="dav">    3.17    3.17</time>
   <time name="total">    3.46    3.46</time>
   <energy>
    <i name="e_fr_energy">    -10.89393342 </i>
    <i name="e_wo_entrp">    -10.89393342 </i>
    <i name="e_0_energy">    -10.89393342 </i>
   </energy>
  </scstep>
  <scstep>
   <time name="dav">    3.30    3.30</time>
   <time name="total">    3.58    3.58</time>
   <energy>
    <i name="e_fr_energy">    -10.83846432 </i>
    <i name="e_wo_entrp">    -10.83846432 </i>
    <i name="e_0_energy">    -10.83846432 </i>
   </energy>
  </scstep>
  <scstep>
   <time name="dav">    3.08    3.08</time>
   <time name="total">    3.37    3.37</time>
   <energy>
    <i name="e_fr_energy">    -10.83954253 </i>
    <i name="e_wo_entrp">    -10.83954253 </i>
    <i name="e_0_energy">    -10.83954253 </i>
   </energy>
  </scstep>
  <scstep>
   <time name="dav">    3.84    3.84</time>
   <time name="total">    4.12    4.12</time>
   <energy>
    <i name="e_fr_energy">    -10.83973705 </i>
    <i name="e_wo_entrp">    -10.83973705 </i>
    <i name="e_0_energy">    -10.83973705 </i>
   </energy>
  </scstep>
  <scstep>
   <time name="dav">    3.14    3.14</time>
   <time name="total">    3.43    3.43</time>
   <energy>
    <i name="e_fr_energy">    -10.83976322 </i>
    <i name="e_wo_entrp">    -10.83976322 </i>
    <i name="e_0_energy">    -10.83976322 </i>
   </energy>
  </scstep>
  <scstep>
   <time name="dav">    4.08    4.08</time>
   <time name="total">    4.37    4.37</time>
   <energy>
    <i name="e_fr_energy">    -10.83976292 </i>
    <i name="e_wo_entrp">    -10.83976292 </i>
    <i name="e_0_energy">    -10.83976292 </i>
   </energy>
  </scstep>
  <scstep>
   <time name="dav">    3.06    3.06</time>
   <time name="total">    3.35    3.35</time>
   <energy>
    <i name="e_fr_energy">    -10.83976324 </i>
    <i name="e_wo_entrp">    -10.83976324 </i>
    <i name="e_0_energy">    -10.83976324 </i>
   </energy>
  </scstep>
  <scstep>
   <time name="dav">    2.46    2.46</time>
   <time name="total">    2.51    2.51</time>
   <energy>
    <i name="alphaZ">      3.33083887 </i>
    <i name="ewald">   -227.81013315 </i>
    <i name="hartreedc">    -15.04399328 </i>
    <i name="XCdc">    -18.00480606 </i>
    <i name="pawpsdc">    875.44309916 </i>
    <i name="pawaedc">   -840.47356485 </i>
    <i name="eentropy">     -0.00000000 </i>
    <i name="bandstr">      5.58812919 </i>
    <i name="atom">    206.13066687 </i>
    <i name="e_fr_energy">    -10.83976326 </i>
    <i name="e_wo_entrp">    -10.83976326 </i>
    <i name="e_0_energy">    -10.83976326 </i>
   </energy>
  </scstep>
  <structure>
   <crystal>
    <varray name="basis" >
     <v>       0.00000000       2.71500000       2.71500000 </v>
     <v>       2.74215000       0.00000000       2.71500000 </v>
     <v>       2.74215000       2.71500000       0.00000000 </v>
    </varray>
    <i name="volume">     40.42600927 </i>
    <varray name="rec_basis" >
     <v>      -0.18233868       0.18416206       0.18416206 </v>
     <v>       0.18233868      -0.18416206       0.18416206 </v>
     <v>       0.18233868       0.18416206      -0.18416206 </v>
    </varray>
   </crystal>
   <varray name="positions" >
    <v>       0.00000000       0.00000000       0.00000000 </v>
    <v>       0.25000000       0.25000000       0.25000000 </v>
   </varray>
  </structure>
  <varray name="forces" >
   <v>       0.00000011       0.00000019       0.00000018 </v>
   <v>      -0.00000011      -0.00000019      -0.00000018 </v>
  </varray>
  <varray name="stress" >
   <v>       2.99213317       0.00007004       0.00015814 </v>
   <v>       0.00007013      12.78493333      -0.00003717 </v>
   <v>       0.00015822      -0.00003717      12.78493348 </v>
  </varray>
  <energy>
   <i name="e_fr_energy">    -10.83976326 </i>
   <i name="e_wo_entrp">    -10.83976326 </i>
   <i name="e_0_energy">    -10.83976326 </i>
  </energy>
  <time name="totalsc">   47.43   47.49</time>
  <eigenvalues>
   <array>
    <dimension dim="1">band</dimension>
    <dimension dim="2">kpoint</dimension>
    <dimension dim="3">spin</dimension>
    <field>eigene</field>
    <field>occ</field>
    <set>
     <set comment="spin 1">
      <set comment="kpoint 1">
       <r>   -6.1610    1.0000 </r>
       <r>    5.6853    1.0000 </r>
       <r>    5.7561    1.0000 </r>
       <r>    5.7561    1.0000 </r>
       <r>    8.2837    0.0000 </r>
       <r>    8.2837    0.0000 </r>
       <r>    8.3200    0.0000 </r>
       <r>    8.9935    0.0000 </r>
      </set>
      <set comment="kpoint 2">
       <r>   -5.9586    1.0000 </r>
       <r>    4.1379    1.0000 </r>
       <r>    5.4193    1.0000 </r>
       <r>    5.4746    1.0000 </r>
       <r>    8.2090    0.0000 </r>
       <r>    8.7069    0.0000 </r>
       <r>    8.7267    0.0000 </r>
       <r>   10.3628    0.0000 </r>
      </set>
      <set comment="kpoint 3">
       <r>   -5.9586    1.0000 </r>
       <r>    4.1379    1.0000 </r>
       <r>    5.4193    1.0000 </r>
       <r>    5.4746    1.0000 </r>
       <r>    8.2090    0.0000 </r>
       <r>    8.7069    0.0000 </r>
       <r>    8.7267    0.0000 </r>
       <r>   10.3628    0.0000 </r>
      </set>
      <set comment="kpoint 4">
       <r>   -5.9586    1.0000 </r>
       <r>    4.1379    1.0000 </r>
       <r>    5.4193    1.0000 </r>
       <r>    5.4746    1.0000 </r>
       <r>    8.2090    0.0000 </r>
       <r>    8.7069    0.0000 </r>
       <r>    8.7267    0.0000 </r>
       <r>   10.3628    0.0000 </r>
      </set>
      <set comment="kpoint 5">
       <r>   -5.9586    1.0000 </r>
       <r>    4.1379    1.0000 </r>
       <r>    5.4193    1.0000 </r>
       <r>    5.4746    1.0000 </r>
       <r>    8.2090    0.0000 </r>
       <r>    8.7069    0.0000 </r>
       <r>    8.7267    0.0000 </r>
       <r>   10.3628    0.0000 </r>
      </set>
      <set comment="kpoint 6">
       <r>   -5.3680    1.0000 </r>
       <r>    1.8252    1.0000 </r>
       <r>    4.9433    1.0000 </r>
       <r>    5.0165    1.0000 </r>
       <r>    7.7298    0.0000 </r>
       <r>    9.2236    0.0000 </r>
       <r>    9.2477    0.0000 </r>
       <r>   12.5730    0.0000 </r>
      </set>
      <set comment="kpoint 7">
       <r>   -5.3680    1.0000 </r>
       <r>    1.8252    1.0000 </r>
       <r>    4.9433    1.0000 </r>
       <r>    5.0165    1.0000 </r>
       <r>    7.7298    0.0000 </r>
       <r>    9.2236    0.0000 </r>
       <r>    9.2477    0.0000 </r>
       <r>   12.5730    0.0000 </r>
      </set>
      <set comment="kpoint 8">
       <r>   -5.3680    1.0000 </r>
       <r>    1.8252    1.0000 </r>
       <r>    4.9433    1.0000 </r>
       <r>    5.0165    1.0000 </r>
       <r>    7.7298    0.0000 </r>
       <r>    9.2236    0.0000 </r>
       <r>    9.2477    0.0000 </r>
       <r>   12.5730    0.0000 </r>
      </set>
      <set comment="kpoint 9">
       <r>   -5.3680    1.0000 </r>
       <r>    1.8252    1.0000 </r>
       <r>    4.9433    1.0000 </r>
       <r>    5.0165    1.0000 </r>
       <r>    7.7298    0.0000 </r>
       <r>    9.2236    0.0000 </r>
       <r>    9.2477    0.0000 </r>
       <r>   12.5730    0.0000 </r>
      </set>
      <set comment="kpoint 10">
       <r>   -4.4829    1.0000 </r>
       <r>   -0.1785    1.0000 </r>
       <r>    4.6105    1.0000 </r>
       <r>    4.6990    1.0000 </r>
       <r>    7.3652    0.0000 </r>
       <r>    9.1581    0.0000 </r>
       <r>    9.2223    0.0000 </r>
       <r>   13.5981    0.0000 </r>
      </set>
      <set comment="kpoint 11">
       <r>   -4.4829    1.0000 </r>
       <r>   -0.1785    1.0000 </r>
       <r>    4.6105    1.0000 </r>
       <r>    4.6990    1.0000 </r>
       <r>    7.3652    0.0000 </r>
       <r>    9.1581    0.0000 </r>
       <r>    9.2223    0.0000 </r>
       <r>   13.5981    0.0000 </r>
      </set>
      <set comment="kpoint 12">
       <r>   -4.4829    1.0000 </r>
       <r>   -0.1785    1.0000 </r>
       <r>    4.6105    1.0000 </r>
       <r>    4.6990    1.0000 </r>
       <r>    7.3652    0.0000 </r>
       <r>    9.1581    0.0000 </r>
       <r>    9.2223    0.0000 </r>
       <r>   13.5981    0.0000 </r>
      </set>
      <set comment="kpoint 13">
       <r>   -4.4829    1.0000 </r>
       <r>   -0.1785    1.0000 </r>
       <r>    4.6105    1.0000 </r>
       <r>    4.6990    1.0000 </r>
       <r>    7.3652    0.0000 </r>
       <r>    9.1581    0.0000 </r>
       <r>    9.2223    0.0000 </r>
       <r>   13.5981    0.0000 </r>
      </set>
      <set comment="kpoint 14">
       <r>   -3.8535    1.0000 </r>
       <r>   -1.1899    1.0000 </r>
       <r>    4.4962    1.0000 </r>
       <r>    4.5907    1.0000 </r>
       <r>    7.2360    0.0000 </r>
       <r>    9.0464    0.0000 </r>
       <r>    9.1179    0.0000 </r>
       <r>   13.4514    0.0000 </r>
      </set>
      <set comment="kpoint 15">
       <r>   -3.8535    1.0000 </r>
       <r>   -1.1899    1.0000 </r>
       <r>    4.4962    1.0000 </r>
       <r>    4.5907    1.0000 </r>
       <r>    7.2360    0.0000 </r>
       <r>    9.0464    0.0000 </r>
       <r>    9.1179    0.0000 </r>
       <r>   13.4514    0.0000 </r>
      </set>
      <set comment="kpoint 16">
       <r>   -3.8535    1.0000 </r>
       <r>   -1.1899    1.0000 </r>
       <r>    4.4962    1.0000 </r>
       <r>    4.5907    1.0000 </r>
       <r>    7.2360    0.0000 </r>
       <r>    9.0464    0.0000 </r>
       <r>    9.1179    0.0000 </r>
       <r>   13.4514    0.0000 </r>
      </set>
      <set comment="kpoint 17">
       <r>   -3.8535    1.0000 </r>
       <r>   -1.1899    1.0000 </r>
       <r>    4.4962    1.0000 </r>
       <r>    4.5907    1.0000 </r>
       <r>    7.2360    0.0000 </r>
       <r>    9.0464    0.0000 </r>
       <r>    9.1179    0.0000 </r>
       <r>   13.4514    0.0000 </r>
      </set>
      <set comment="kpoint 18">
       <r>   -5.8888    1.0000 </r>
       <r>    4.4124    1.0000 </r>
       <r>    4.8991    1.0000 </r>
       <r>    4.9434    1.0000 </r>
       <r>    7.7304    0.0000 </r>
       <r>    9.3913    0.0000 </r>
       <r>    9.4701    0.0000 </r>
       <r>   10.0499    0.0000 </r>
      </set>
      <set comment="kpoint 19">
       <r>   -5.8888    1.0000 </r>
       <r>    4.4124    1.0000 </r>
       <r>    4.8991    1.0000 </r>
       <r>    4.9434    1.0000 </r>
       <r>    7.7304    0.0000 </r>
       <r>    9.3913    0.0000 </r>
       <r>    9.4701    0.0000 </r>
       <r>   10.0499    0.0000 </r>
      </set>
      <set comment="kpoint 20">
       <r>   -5.4225    1.0000 </r>
       <r>    2.5204    1.0000 </r>
       <r>    4.4063    1.0000 </r>
       <r>    4.5114    1.0000 </r>
       <r>    7.8582    0.0000 </r>
       <r>    9.4076    0.0000 </r>
       <r>   10.1871    0.0000 </r>
       <r>   10.4959    0.0000 </r>
      </set>
      <set comment="kpoint 21">
       <r>   -5.4225    1.0000 </r>
       <r>    2.5204    1.0000 </r>
       <r>    4.4063    1.0000 </r>
       <r>    4.5114    1.0000 </r>
       <r>    7.8582    0.0000 </r>
       <r>    9.4076    0.0000 </r>
       <r>   10.1871    0.0000 </r>
       <r>   10.4959    0.0000 </r>
      </set>
      <set comment="kpoint 22">
       <r>   -5.4225    1.0000 </r>
       <r>    2.5204    1.0000 </r>
       <r>    4.4063    1.0000 </r>
       <r>    4.5114    1.0000 </r>
       <r>    7.8582    0.0000 </r>
       <r>    9.4076    0.0000 </r>
       <r>   10.1871    0.0000 </r>
       <r>   10.4959    0.0000 </r>
      </set>
      <set comment="kpoint 23">
       <r>   -5.4225    1.0000 </r>
       <r>    2.5204    1.0000 </r>
       <r>    4.4063    1.0000 </r>
       <r>    4.5114    1.0000 </r>
       <r>    7.8582    0.0000 </r>
       <r>    9.4076    0.0000 </r>
       <r>   10.1871    0.0000 </r>
       <r>   10.4959    0.0000 </r>
      </set>
      <set comment="kpoint 24">
       <r>   -5.4225    1.0000 </r>
       <r>    2.5204    1.0000 </r>
       <r>    4.4063    1.0000 </r>
       <r>    4.5114    1.0000 </r>
       <r>    7.8582    0.0000 </r>
       <r>    9.4076    0.0000 </r>
       <r>   10.1871    0.0000 </r>
       <r>   10.4959    0.0000 </r>
      </set>
      <set comment="kpoint 25">
       <r>   -5.4225    1.0000 </r>
       <r>    2.5204    1.0000 </r>
       <r>    4.4063    1.0000 </r>
       <r>    4.5114    1.0000 </r>
       <r>    7.8582    0.0000 </r>
       <r>    9.4076    0.0000 </r>
       <r>   10.1871    0.0000 </r>
       <r>   10.4959    0.0000 </r>
      </set>
      <set comment="kpoint 26">
       <r>   -5.4225    1.0000 </r>
       <r>    2.5204    1.0000 </r>
       <r>    4.4063    1.0000 </r>
       <r>    4.5114    1.0000 </r>
       <r>    7.8582    0.0000 </r>
       <r>    9.4076    0.0000 </r>
       <r>   10.1871    0.0000 </r>
       <r>   10.4959    0.0000 </r>
      </set>
      <set comment="kpoint 27">
       <r>   -5.4225    1.0000 </r>
       <r>    2.5204    1.0000 </r>
       <r>    4.4063    1.0000 </r>
       <r>    4.5114    1.0000 </r>
       <r>    7.8582    0.0000 </r>
       <r>    9.4076    0.0000 </r>
       <r>   10.1871    0.0000 </r>
       <r>   10.4959    0.0000 </r>
      </set>
      <set comment="kpoint 28">
       <r>   -4.6139    1.0000 </r>
       <r>    0.4726    1.0000 </r>
       <r>    3.9266    1.0000 </r>
       <r>    4.1438    1.0000 </r>
       <r>    7.9508    0.0000 </r>
       <r>    9.3806    0.0000 </r>
       <r>   10.1790    0.0000 </r>
       <r>   11.1679    0.0000 </r>
      </set>
      <set comment="kpoint 29">
       <r>   -4.6139    1.0000 </r>
       <r>    0.4726    1.0000 </r>
       <r>    3.9266    1.0000 </r>
       <r>    4.1438    1.0000 </r>
       <r>    7.9508    0.0000 </r>
       <r>    9.3806    0.0000 </r>
       <r>   10.1790    0.0000 </r>
       <r>   11.1679    0.0000 </r>
      </set>
      <set comment="kpoint 30">
       <r>   -4.6139    1.0000 </r>
       <r>    0.4726    1.0000 </r>
       <r>    3.9266    1.0000 </r>
       <r>    4.1438    1.0000 </r>
       <r>    7.9508    0.0000 </r>
       <r>    9.3806    0.0000 </r>
       <r>   10.1790    0.0000 </r>
       <r>   11.1679    0.0000 </r>
      </set>
      <set comment="kpoint 31">
       <r>   -4.6139    1.0000 </r>
       <r>    0.4726    1.0000 </r>
       <r>    3.9266    1.0000 </r>
       <r>    4.1438    1.0000 </r>
       <r>    7.9508    0.0000 </r>
       <r>    9.3806    0.0000 </r>
       <r>   10.1790    0.0000 </r>
       <r>   11.1679    0.0000 </r>
      </set>
      <set comment="kpoint 32">
       <r>   -4.6139    1.0000 </r>
       <r>    0.4726    1.0000 </r>
       <r>    3.9266    1.0000 </r>
       <r>    4.1438    1.0000 </r>
       <r>    7.9508    0.0000 </r>
       <r>    9.3806    0.0000 </r>
       <r>   10.1790    0.0000 </r>
       <r>   11.1679    0.0000 </r>
      </set>
      <set comment="kpoint 33">
       <r>   -4.6139    1.0000 </r>
       <r>    0.4726    1.0000 </r>
       <r>    3.9266    1.0000 </r>
       <r>    4.1438    1.0000 </r>
       <r>    7.9508    0.0000 </r>
       <r>    9.3806    0.0000 </r>
       <r>   10.1790    0.0000 </r>
       <r>   11.1679    0.0000 </r>
      </set>
      <set comment="kpoint 34">
       <r>   -4.6139    1.0000 </r>
       <r>    0.4726    1.0000 </r>
       <r>    3.9266    1.0000 </r>
       <r>    4.1438    1.0000 </r>
       <r>    7.9508    0.0000 </r>
       <r>    9.3806    0.0000 </r>
       <r>   10.1790    0.0000 </r>
       <r>   11.1679    0.0000 </r>
      </set>
      <set comment="kpoint 35">
       <r>   -4.6139    1.0000 </r>
       <r>    0.4726    1.0000 </r>
       <r>    3.9266    1.0000 </r>
       <r>    4.1438    1.0000 </r>
       <r>    7.9508    0.0000 </r>
       <r>    9.3806    0.0000 </r>
       <r>   10.1790    0.0000 </r>
       <r>   11.1679    0.0000 </r>
      </set>
      <set comment="kpoint 36">
       <r>   -3.7641    1.0000 </r>
       <r>   -0.9744    1.0000 </r>
       <r>    3.4908    1.0000 </r>
       <r>    4.1620    1.0000 </r>
       <r>    7.8880    0.0000 </r>
       <r>    9.2691    0.0000 </r>
       <r>    9.8219    0.0000 </r>
       <r>   13.0411    0.0000 </r>
      </set>
      <set comment="kpoint 37">
       <r>   -3.7641    1.0000 </r>
       <r>   -0.9744    1.0000 </r>
       <r>    3.4908    1.0000 </r>
       <r>    4.1620    1.0000 </r>
       <r>    7.8880    0.0000 </r>
       <r>    9.2691    0.0000 </r>
       <r>    9.8219    0.0000 </r>
       <r>   13.0411    0.0000 </r>
      </set>
      <set comment="kpoint 38">
       <r>   -3.7641    1.0000 </r>
       <r>   -0.9744    1.0000 </r>
       <r>    3.4908    1.0000 </r>
       <r>    4.1620    1.0000 </r>
       <r>    7.8880    0.0000 </r>
       <r>    9.2691    0.0000 </r>
       <r>    9.8219    0.0000 </r>
       <r>   13.0411    0.0000 </r>
      </set>
      <set comment="kpoint 39">
       <r>   -3.7641    1.0000 </r>
       <r>   -0.9744    1.0000 </r>
       <r>    3.4908    1.0000 </r>
       <r>    4.1620    1.0000 </r>
       <r>    7.8880    0.0000 </r>
       <r>    9.2691    0.0000 </r>
       <r>    9.8219    0.0000 </r>
       <r>   13.0411    0.0000 </r>
      </set>
      <set comment="kpoint 40">
       <r>   -3.7641    1.0000 </r>
       <r>   -0.9744    1.0000 </r>
       <r>    3.4908    1.0000 </r>
       <r>    4.1620    1.0000 </r>
       <r>    7.8880    0.0000 </r>
       <r>    9.2691    0.0000 </r>
       <r>    9.8219    0.0000 </r>
       <r>   13.0411    0.0000 </r>
      </set>
      <set comment="kpoint 41">
       <r>   -3.7641    1.0000 </r>
       <r>   -0.9744    1.0000 </r>
       <r>    3.4908    1.0000 </r>
       <r>    4.1620    1.0000 </r>
       <r>    7.8880    0.0000 </r>
       <r>    9.2691    0.0000 </r>
       <r>    9.8219    0.0000 </r>
       <r>   13.0411    0.0000 </r>
      </set>
      <set comment="kpoint 42">
       <r>   -3.7641    1.0000 </r>
       <r>   -0.9744    1.0000 </r>
       <r>    3.4908    1.0000 </r>
       <r>    4.1620    1.0000 </r>
       <r>    7.8880    0.0000 </r>
       <r>    9.2691    0.0000 </r>
       <r>    9.8219    0.0000 </r>
       <r>   13.0411    0.0000 </r>
      </set>
      <set comment="kpoint 43">
       <r>   -3.7641    1.0000 </r>
       <r>   -0.9744    1.0000 </r>
       <r>    3.4908    1.0000 </r>
       <r>    4.1620    1.0000 </r>
       <r>    7.8880    0.0000 </r>
       <r>    9.2691    0.0000 </r>
       <r>    9.8219    0.0000 </r>
       <r>   13.0411    0.0000 </r>
      </set>
      <set comment="kpoint 44">
       <r>   -4.0103    1.0000 </r>
       <r>   -0.6021    1.0000 </r>
       <r>    3.3118    1.0000 </r>
       <r>    4.4534    1.0000 </r>
       <r>    8.0461    0.0000 </r>
       <r>    9.3775    0.0000 </r>
       <r>    9.5960    0.0000 </r>
       <r>   13.6106    0.0000 </r>
      </set>
      <set comment="kpoint 45">
       <r>   -4.0103    1.0000 </r>
       <r>   -0.6021    1.0000 </r>
       <r>    3.3118    1.0000 </r>
       <r>    4.4534    1.0000 </r>
       <r>    8.0461    0.0000 </r>
       <r>    9.3775    0.0000 </r>
       <r>    9.5960    0.0000 </r>
       <r>   13.6106    0.0000 </r>
      </set>
      <set comment="kpoint 46">
       <r>   -4.0103    1.0000 </r>
       <r>   -0.6021    1.0000 </r>
       <r>    3.3118    1.0000 </r>
       <r>    4.4534    1.0000 </r>
       <r>    8.0461    0.0000 </r>
       <r>    9.3775    0.0000 </r>
       <r>    9.5960    0.0000 </r>
       <r>   13.6106    0.0000 </r>
      </set>
      <set comment="kpoint 47">
       <r>   -4.0103    1.0000 </r>
       <r>   -0.6021    1.0000 </r>
       <r>    3.3118    1.0000 </r>
       <r>    4.4534    1.0000 </r>
       <r>    8.0461    0.0000 </r>
       <r>    9.3775    0.0000 </r>
       <r>    9.5960    0.0000 </r>
       <r>   13.6106    0.0000 </r>
      </set>
      <set comment="kpoint 48">
       <r>   -4.0103    1.0000 </r>
       <r>   -0.6021    1.0000 </r>
       <r>    3.3118    1.0000 </r>
       <r>    4.4534    1.0000 </r>
       <r>    8.0461    0.0000 </r>
       <r>    9.3775    0.0000 </r>
       <r>    9.5960    0.0000 </r>
       <r>   13.6106    0.0000 </r>
      </set>
      <set comment="kpoint 49">
       <r>   -4.0103    1.0000 </r>
       <r>   -0.6021    1.0000 </r>
       <r>    3.3118    1.0000 </r>
       <r>    4.4534    1.0000 </r>
       <r>    8.0461    0.0000 </r>
       <r>    9.3775    0.0000 </r>
       <r>    9.5960    0.0000 </r>
       <r>   13.6106    0.0000 </r>
      </set>
      <set comment="kpoint 50">
       <r>   -4.0103    1.0000 </r>
       <r>   -0.6021    1.0000 </r>
       <r>    3.3118    1.0000 </r>
       <r>    4.4534    1.0000 </r>
       <r>    8.0461    0.0000 </r>
       <r>    9.3775    0.0000 </r>
       <r>    9.5960    0.0000 </r>
       <r>   13.6106    0.0000 </r>
      </set>
      <set comment="kpoint 51">
       <r>   -4.0103    1.0000 </r>
       <r>   -0.6021    1.0000 </r>
       <r>    3.3118    1.0000 </r>
       <r>    4.4534    1.0000 </r>
       <r>    8.0461    0.0000 </r>
       <r>    9.3775    0.0000 </r>
       <r>    9.5960    0.0000 </r>
       <r>   13.6106    0.0000 </r>
      </set>
      <set comment="kpoint 52">
       <r>   -4.9240    1.0000 </r>
       <r>    1.1339    1.0000 </r>
       <r>    3.4611    1.0000 </r>
       <r>    4.9416    1.0000 </r>
       <r>    8.4038    0.0000 </r>
       <r>    9.4030    0.0000 </r>
       <r>    9.6054    0.0000 </r>
       <r>   12.0062    0.0000 </r>
      </set>
      <set comment="kpoint 53">
       <r>   -4.9240    1.0000 </r>
       <r>    1.1339    1.0000 </r>
       <r>    3.4611    1.0000 </r>
       <r>    4.9416    1.0000 </r>
       <r>    8.4038    0.0000 </r>
       <r>    9.4030    0.0000 </r>
       <r>    9.6054    0.0000 </r>
       <r>   12.0062    0.0000 </r>
      </set>
      <set comment="kpoint 54">
       <r>   -4.9240    1.0000 </r>
       <r>    1.1339    1.0000 </r>
       <r>    3.4611    1.0000 </r>
       <r>    4.9416    1.0000 </r>
       <r>    8.4038    0.0000 </r>
       <r>    9.4030    0.0000 </r>
       <r>    9.6054    0.0000 </r>
       <r>   12.0062    0.0000 </r>
      </set>
      <set comment="kpoint 55">
       <r>   -4.9240    1.0000 </r>
       <r>    1.1339    1.0000 </r>
       <r>    3.4611    1.0000 </r>
       <r>    4.9416    1.0000 </r>
       <r>    8.4038    0.0000 </r>
       <r>    9.4030    0.0000 </r>
       <r>    9.6054    0.0000 </r>
       <r>   12.0062    0.0000 </r>
      </set>
      <set comment="kpoint 56">
       <r>   -4.9240    1.0000 </r>
       <r>    1.1339    1.0000 </r>
       <r>    3.4611    1.0000 </r>
       <r>    4.9416    1.0000 </r>
       <r>    8.4038    0.0000 </r>
       <r>    9.4030    0.0000 </r>
       <r>    9.6054    0.0000 </r>
       <r>   12.0062    0.0000 </r>
      </set>
      <set comment="kpoint 57">
       <r>   -4.9240    1.0000 </r>
       <r>    1.1339    1.0000 </r>
       <r>    3.4611    1.0000 </r>
       <r>    4.9416    1.0000 </r>
       <r>    8.4038    0.0000 </r>
       <r>    9.4030    0.0000 </r>
       <r>    9.6054    0.0000 </r>
       <r>   12.0062    0.0000 </r>
      </set>
      <set comment="kpoint 58">
       <r>   -4.9240    1.0000 </r>
       <r>    1.1339    1.0000 </r>
       <r>    3.4611    1.0000 </r>
       <r>    4.9416    1.0000 </r>
       <r>    8.4038    0.0000 </r>
       <r>    9.4030    0.0000 </r>
       <r>    9.6054    0.0000 </r>
       <r>   12.0062    0.0000 </r>
      </set>
      <set comment="kpoint 59">
       <r>   -4.9240    1.0000 </r>
       <r>    1.1339    1.0000 </r>
       <r>    3.4611    1.0000 </r>
       <r>    4.9416    1.0000 </r>
       <r>    8.4038    0.0000 </r>
       <r>    9.4030    0.0000 </r>
       <r>    9.6054    0.0000 </r>
       <r>   12.0062    0.0000 </r>
      </set>
      <set comment="kpoint 60">
       <r>   -5.6266    1.0000 </r>
       <r>    3.0548    1.0000 </r>
       <r>    4.1402    1.0000 </r>
       <r>    5.4229    1.0000 </r>
       <r>    8.7251    0.0000 </r>
       <r>    8.8513    0.0000 </r>
       <r>    9.1108    0.0000 </r>
       <r>   11.2421    0.0000 </r>
      </set>
      <set comment="kpoint 61">
       <r>   -5.6266    1.0000 </r>
       <r>    3.0548    1.0000 </r>
       <r>    4.1402    1.0000 </r>
       <r>    5.4229    1.0000 </r>
       <r>    8.7251    0.0000 </r>
       <r>    8.8513    0.0000 </r>
       <r>    9.1108    0.0000 </r>
       <r>   11.2421    0.0000 </r>
      </set>
      <set comment="kpoint 62">
       <r>   -5.6266    1.0000 </r>
       <r>    3.0548    1.0000 </r>
       <r>    4.1402    1.0000 </r>
       <r>    5.4229    1.0000 </r>
       <r>    8.7251    0.0000 </r>
       <r>    8.8513    0.0000 </r>
       <r>    9.1108    0.0000 </r>
       <r>   11.2421    0.0000 </r>
      </set>
      <set comment="kpoint 63">
       <r>   -5.6266    1.0000 </r>
       <r>    3.0548    1.0000 </r>
       <r>    4.1402    1.0000 </r>
       <r>    5.4229    1.0000 </r>
       <r>    8.7251    0.0000 </r>
       <r>    8.8513    0.0000 </r>
       <r>    9.1108    0.0000 </r>
       <r>   11.2421    0.0000 </r>
      </set>
      <set comment="kpoint 64">
       <r>   -5.0819    1.0000 </r>
       <r>    2.2388    1.0000 </r>
       <r>    3.8314    1.0000 </r>
       <r>    3.8544    1.0000 </r>
       <r>    6.8485    0.0000 </r>
       <r>    8.8739    0.0000 </r>
       <r>   11.3962    0.0000 </r>
       <r>   11.5387    0.0000 </r>
      </set>
      <set comment="kpoint 65">
       <r>   -5.0819    1.0000 </r>
       <r>    2.2388    1.0000 </r>
       <r>    3.8314    1.0000 </r>
       <r>    3.8544    1.0000 </r>
       <r>    6.8485    0.0000 </r>
       <r>    8.8739    0.0000 </r>
       <r>   11.3962    0.0000 </r>
       <r>   11.5387    0.0000 </r>
      </set>
      <set comment="kpoint 66">
       <r>   -4.3755    1.0000 </r>
       <r>    0.8169    1.0000 </r>
       <r>    3.0843    1.0000 </r>
       <r>    3.5248    1.0000 </r>
       <r>    7.0682    0.0000 </r>
       <r>    8.6182    0.0000 </r>
       <r>   11.6798    0.0000 </r>
       <r>   11.9953    0.0000 </r>
      </set>
      <set comment="kpoint 67">
       <r>   -4.3755    1.0000 </r>
       <r>    0.8169    1.0000 </r>
       <r>    3.0843    1.0000 </r>
       <r>    3.5248    1.0000 </r>
       <r>    7.0682    0.0000 </r>
       <r>    8.6182    0.0000 </r>
       <r>   11.6798    0.0000 </r>
       <r>   11.9953    0.0000 </r>
      </set>
      <set comment="kpoint 68">
       <r>   -4.3755    1.0000 </r>
       <r>    0.8169    1.0000 </r>
       <r>    3.0843    1.0000 </r>
       <r>    3.5248    1.0000 </r>
       <r>    7.0682    0.0000 </r>
       <r>    8.6182    0.0000 </r>
       <r>   11.6798    0.0000 </r>
       <r>   11.9953    0.0000 </r>
      </set>
      <set comment="kpoint 69">
       <r>   -4.3755    1.0000 </r>
       <r>    0.8169    1.0000 </r>
       <r>    3.0843    1.0000 </r>
       <r>    3.5248    1.0000 </r>
       <r>    7.0682    0.0000 </r>
       <r>    8.6182    0.0000 </r>
       <r>   11.6798    0.0000 </r>
       <r>   11.9953    0.0000 </r>
      </set>
      <set comment="kpoint 70">
       <r>   -4.3755    1.0000 </r>
       <r>    0.8169    1.0000 </r>
       <r>    3.0843    1.0000 </r>
       <r>    3.5248    1.0000 </r>
       <r>    7.0682    0.0000 </r>
       <r>    8.6182    0.0000 </r>
       <r>   11.6798    0.0000 </r>
       <r>   11.9953    0.0000 </r>
      </set>
      <set comment="kpoint 71">
       <r>   -4.3755    1.0000 </r>
       <r>    0.8169    1.0000 </r>
       <r>    3.0843    1.0000 </r>
       <r>    3.5248    1.0000 </r>
       <r>    7.0682    0.0000 </r>
       <r>    8.6182    0.0000 </r>
       <r>   11.6798    0.0000 </r>
       <r>   11.9953    0.0000 </r>
      </set>
      <set comment="kpoint 72">
       <r>   -4.3755    1.0000 </r>
       <r>    0.8169    1.0000 </r>
       <r>    3.0843    1.0000 </r>
       <r>    3.5248    1.0000 </r>
       <r>    7.0682    0.0000 </r>
       <r>    8.6182    0.0000 </r>
       <r>   11.6798    0.0000 </r>
       <r>   11.9953    0.0000 </r>
      </set>
      <set comment="kpoint 73">
       <r>   -4.3755    1.0000 </r>
       <r>    0.8169    1.0000 </r>
       <r>    3.0843    1.0000 </r>
       <r>    3.5248    1.0000 </r>
       <r>    7.0682    0.0000 </r>
       <r>    8.6182    0.0000 </r>
       <r>   11.6798    0.0000 </r>
       <r>   11.9953    0.0000 </r>
      </set>
      <set comment="kpoint 74">
       <r>   -3.4590    1.0000 </r>
       <r>   -0.6183    1.0000 </r>
       <r>    2.2437    1.0000 </r>
       <r>    3.5246    1.0000 </r>
       <r>    7.2407    0.0000 </r>
       <r>   10.1392    0.0000 </r>
       <r>   11.4149    0.0000 </r>
       <r>   11.6610    0.0000 </r>
      </set>
      <set comment="kpoint 75">
       <r>   -3.4590    1.0000 </r>
       <r>   -0.6183    1.0000 </r>
       <r>    2.2437    1.0000 </r>
       <r>    3.5246    1.0000 </r>
       <r>    7.2407    0.0000 </r>
       <r>   10.1392    0.0000 </r>
       <r>   11.4149    0.0000 </r>
       <r>   11.6610    0.0000 </r>
      </set>
      <set comment="kpoint 76">
       <r>   -3.4590    1.0000 </r>
       <r>   -0.6183    1.0000 </r>
       <r>    2.2437    1.0000 </r>
       <r>    3.5246    1.0000 </r>
       <r>    7.2407    0.0000 </r>
       <r>   10.1392    0.0000 </r>
       <r>   11.4149    0.0000 </r>
       <r>   11.6610    0.0000 </r>
      </set>
      <set comment="kpoint 77">
       <r>   -3.4590    1.0000 </r>
       <r>   -0.6183    1.0000 </r>
       <r>    2.2437    1.0000 </r>
       <r>    3.5246    1.0000 </r>
       <r>    7.2407    0.0000 </r>
       <r>   10.1392    0.0000 </r>
       <r>   11.4149    0.0000 </r>
       <r>   11.6610    0.0000 </r>
      </set>
      <set comment="kpoint 78">
       <r>   -3.4590    1.0000 </r>
       <r>   -0.6183    1.0000 </r>
       <r>    2.2437    1.0000 </r>
       <r>    3.5246    1.0000 </r>
       <r>    7.2407    0.0000 </r>
       <r>   10.1392    0.0000 </r>
       <r>   11.4149    0.0000 </r>
       <r>   11.6610    0.0000 </r>
      </set>
      <set comment="kpoint 79">
       <r>   -3.4590    1.0000 </r>
       <r>   -0.6183    1.0000 </r>
       <r>    2.2437    1.0000 </r>
       <r>    3.5246    1.0000 </r>
       <r>    7.2407    0.0000 </r>
       <r>   10.1392    0.0000 </r>
       <r>   11.4149    0.0000 </r>
       <r>   11.6610    0.0000 </r>
      </set>
      <set comment="kpoint 80">
       <r>   -3.4590    1.0000 </r>
       <r>   -0.6183    1.0000 </r>
       <r>    2.2437    1.0000 </r>
       <r>    3.5246    1.0000 </r>
       <r>    7.2407    0.0000 </r>
       <r>   10.1392    0.0000 </r>
       <r>   11.4149    0.0000 </r>
       <r>   11.6610    0.0000 </r>
      </set>
      <set comment="kpoint 81">
       <r>   -3.4590    1.0000 </r>
       <r>   -0.6183    1.0000 </r>
       <r>    2.2437    1.0000 </r>
       <r>    3.5246    1.0000 </r>
       <r>    7.2407    0.0000 </r>
       <r>   10.1392    0.0000 </r>
       <r>   11.4149    0.0000 </r>
       <r>   11.6610    0.0000 </r>
      </set>
      <set comment="kpoint 82">
       <r>   -3.2675    1.0000 </r>
       <r>   -0.8662    1.0000 </r>
       <r>    1.7956    1.0000 </r>
       <r>    3.8378    1.0000 </r>
       <r>    7.5568    0.0000 </r>
       <r>   11.1112    0.0000 </r>
       <r>   11.2705    0.0000 </r>
       <r>   12.6172    0.0000 </r>
      </set>
      <set comment="kpoint 83">
       <r>   -3.2675    1.0000 </r>
       <r>   -0.8662    1.0000 </r>
       <r>    1.7956    1.0000 </r>
       <r>    3.8378    1.0000 </r>
       <r>    7.5568    0.0000 </r>
       <r>   11.1112    0.0000 </r>
       <r>   11.2705    0.0000 </r>
       <r>   12.6172    0.0000 </r>
      </set>
      <set comment="kpoint 84">
       <r>   -3.2675    1.0000 </r>
       <r>   -0.8662    1.0000 </r>
       <r>    1.7956    1.0000 </r>
       <r>    3.8378    1.0000 </r>
       <r>    7.5568    0.0000 </r>
       <r>   11.1112    0.0000 </r>
       <r>   11.2705    0.0000 </r>
       <r>   12.6172    0.0000 </r>
      </set>
      <set comment="kpoint 85">
       <r>   -3.2675    1.0000 </r>
       <r>   -0.8662    1.0000 </r>
       <r>    1.7956    1.0000 </r>
       <r>    3.8378    1.0000 </r>
       <r>    7.5568    0.0000 </r>
       <r>   11.1112    0.0000 </r>
       <r>   11.2705    0.0000 </r>
       <r>   12.6172    0.0000 </r>
      </set>
      <set comment="kpoint 86">
       <r>   -3.2675    1.0000 </r>
       <r>   -0.8662    1.0000 </r>
       <r>    1.7956    1.0000 </r>
       <r>    3.8378    1.0000 </r>
       <r>    7.5568    0.0000 </r>
       <r>   11.1112    0.0000 </r>
       <r>   11.2705    0.0000 </r>
       <r>   12.6172    0.0000 </r>
      </set>
      <set comment="kpoint 87">
       <r>   -3.2675    1.0000 </r>
       <r>   -0.8662    1.0000 </r>
       <r>    1.7956    1.0000 </r>
       <r>    3.8378    1.0000 </r>
       <r>    7.5568    0.0000 </r>
       <r>   11.1112    0.0000 </r>
       <r>   11.2705    0.0000 </r>
       <r>   12.6172    0.0000 </r>
      </set>
      <set comment="kpoint 88">
       <r>   -3.2675    1.0000 </r>
       <r>   -0.8662    1.0000 </r>
       <r>    1.7956    1.0000 </r>
       <r>    3.8378    1.0000 </r>
       <r>    7.5568    0.0000 </r>
       <r>   11.1112    0.0000 </r>
       <r>   11.2705    0.0000 </r>
       <r>   12.6172    0.0000 </r>
      </set>
      <set comment="kpoint 89">
       <r>   -3.2675    1.0000 </r>
       <r>   -0.8662    1.0000 </r>
       <r>    1.7956    1.0000 </r>
       <r>    3.8378    1.0000 </r>
       <r>    7.5568    0.0000 </r>
       <r>   11.1112    0.0000 </r>
       <r>   11.2705    0.0000 </r>
       <r>   12.6172    0.0000 </r>
      </set>
      <set comment="kpoint 90">
       <r>   -4.1392    1.0000 </r>
       <r>    0.2832    1.0000 </r>
       <r>    2.0370    1.0000 </r>
       <r>    4.3904    1.0000 </r>
       <r>    8.1493    0.0000 </r>
       <r>   10.4941    0.0000 </r>
       <r>   10.8870    0.0000 </r>
       <r>   11.8338    0.0000 </r>
      </set>
      <set comment="kpoint 91">
       <r>   -4.1392    1.0000 </r>
       <r>    0.2832    1.0000 </r>
       <r>    2.0370    1.0000 </r>
       <r>    4.3904    1.0000 </r>
       <r>    8.1493    0.0000 </r>
       <r>   10.4941    0.0000 </r>
       <r>   10.8870    0.0000 </r>
       <r>   11.8338    0.0000 </r>
      </set>
      <set comment="kpoint 92">
       <r>   -4.1392    1.0000 </r>
       <r>    0.2832    1.0000 </r>
       <r>    2.0370    1.0000 </r>
       <r>    4.3904    1.0000 </r>
       <r>    8.1493    0.0000 </r>
       <r>   10.4941    0.0000 </r>
       <r>   10.8870    0.0000 </r>
       <r>   11.8338    0.0000 </r>
      </set>
      <set comment="kpoint 93">
       <r>   -4.1392    1.0000 </r>
       <r>    0.2832    1.0000 </r>
       <r>    2.0370    1.0000 </r>
       <r>    4.3904    1.0000 </r>
       <r>    8.1493    0.0000 </r>
       <r>   10.4941    0.0000 </r>
       <r>   10.8870    0.0000 </r>
       <r>   11.8338    0.0000 </r>
      </set>
      <set comment="kpoint 94">
       <r>   -3.7737    1.0000 </r>
       <r>    0.0270    1.0000 </r>
       <r>    3.1230    1.0000 </r>
       <r>    3.1330    1.0000 </r>
       <r>    6.3361    0.0000 </r>
       <r>    7.2773    0.0000 </r>
       <r>   13.6321    0.0000 </r>
       <r>   13.8357    0.0000 </r>
      </set>
      <set comment="kpoint 95">
       <r>   -3.7737    1.0000 </r>
       <r>    0.0270    1.0000 </r>
       <r>    3.1230    1.0000 </r>
       <r>    3.1330    1.0000 </r>
       <r>    6.3361    0.0000 </r>
       <r>    7.2773    0.0000 </r>
       <r>   13.6321    0.0000 </r>
       <r>   13.8357    0.0000 </r>
      </set>
      <set comment="kpoint 96">
       <r>   -2.8824    1.0000 </r>
       <r>   -1.0548    1.0000 </r>
       <r>    2.3194    1.0000 </r>
       <r>    3.0509    1.0000 </r>
       <r>    6.6194    0.0000 </r>
       <r>    7.6793    0.0000 </r>
       <r>   13.8823    0.0000 </r>
       <r>   14.1159    0.0000 </r>
      </set>
      <set comment="kpoint 97">
       <r>   -2.8824    1.0000 </r>
       <r>   -1.0548    1.0000 </r>
       <r>    2.3194    1.0000 </r>
       <r>    3.0509    1.0000 </r>
       <r>    6.6194    0.0000 </r>
       <r>    7.6793    0.0000 </r>
       <r>   13.8823    0.0000 </r>
       <r>   14.1159    0.0000 </r>
      </set>
      <set comment="kpoint 98">
       <r>   -2.8824    1.0000 </r>
       <r>   -1.0548    1.0000 </r>
       <r>    2.3194    1.0000 </r>
       <r>    3.0509    1.0000 </r>
       <r>    6.6194    0.0000 </r>
       <r>    7.6793    0.0000 </r>
       <r>   13.8823    0.0000 </r>
       <r>   14.1159    0.0000 </r>
      </set>
      <set comment="kpoint 99">
       <r>   -2.8824    1.0000 </r>
       <r>   -1.0548    1.0000 </r>
       <r>    2.3194    1.0000 </r>
       <r>    3.0509    1.0000 </r>
       <r>    6.6194    0.0000 </r>
       <r>    7.6793    0.0000 </r>
       <r>   13.8823    0.0000 </r>
       <r>   14.1159    0.0000 </r>
      </set>
      <set comment="kpoint 100">
       <r>   -2.8824    1.0000 </r>
       <r>   -1.0548    1.0000 </r>
       <r>    2.3194    1.0000 </r>
       <r>    3.0509    1.0000 </r>
       <r>    6.6194    0.0000 </r>
       <r>    7.6793    0.0000 </r>
       <r>   13.8823    0.0000 </r>
       <r>   14.1159    0.0000 </r>
      </set>
      <set comment="kpoint 101">
       <r>   -2.8824    1.0000 </r>
       <r>   -1.0548    1.0000 </r>
       <r>    2.3194    1.0000 </r>
       <r>    3.0509    1.0000 </r>
       <r>    6.6194    0.0000 </r>
       <r>    7.6793    0.0000 </r>
       <r>   13.8823    0.0000 </r>
       <r>   14.1159    0.0000 </r>
      </set>
      <set comment="kpoint 102">
       <r>   -2.8824    1.0000 </r>
       <r>   -1.0548    1.0000 </r>
       <r>    2.3194    1.0000 </r>
       <r>    3.0509    1.0000 </r>
       <r>    6.6194    0.0000 </r>
       <r>    7.6793    0.0000 </r>
       <r>   13.8823    0.0000 </r>
       <r>   14.1159    0.0000 </r>
      </set>
      <set comment="kpoint 103">
       <r>   -2.8824    1.0000 </r>
       <r>   -1.0548    1.0000 </r>
       <r>    2.3194    1.0000 </r>
       <r>    3.0509    1.0000 </r>
       <r>    6.6194    0.0000 </r>
       <r>    7.6793    0.0000 </r>
       <r>   13.8823    0.0000 </r>
       <r>   14.1159    0.0000 </r>
      </set>
      <set comment="kpoint 104">
       <r>   -2.4598    1.0000 </r>
       <r>   -1.4472    1.0000 </r>
       <r>    1.4799    1.0000 </r>
       <r>    3.3049    1.0000 </r>
       <r>    6.9253    0.0000 </r>
       <r>    9.8144    0.0000 </r>
       <r>   13.1450    0.0000 </r>
       <r>   13.7492    0.0000 </r>
      </set>
      <set comment="kpoint 105">
       <r>   -2.4598    1.0000 </r>
       <r>   -1.4472    1.0000 </r>
       <r>    1.4799    1.0000 </r>
       <r>    3.3049    1.0000 </r>
       <r>    6.9253    0.0000 </r>
       <r>    9.8144    0.0000 </r>
       <r>   13.1450    0.0000 </r>
       <r>   13.7492    0.0000 </r>
      </set>
      <set comment="kpoint 106">
       <r>   -2.4598    1.0000 </r>
       <r>   -1.4472    1.0000 </r>
       <r>    1.4799    1.0000 </r>
       <r>    3.3049    1.0000 </r>
       <r>    6.9253    0.0000 </r>
       <r>    9.8144    0.0000 </r>
       <r>   13.1450    0.0000 </r>
       <r>   13.7492    0.0000 </r>
      </set>
      <set comment="kpoint 107">
       <r>   -2.4598    1.0000 </r>
       <r>   -1.4472    1.0000 </r>
       <r>    1.4799    1.0000 </r>
       <r>    3.3049    1.0000 </r>
       <r>    6.9253    0.0000 </r>
       <r>    9.8144    0.0000 </r>
       <r>   13.1450    0.0000 </r>
       <r>   13.7492    0.0000 </r>
      </set>
      <set comment="kpoint 108">
       <r>   -2.0317    1.0000 </r>
       <r>   -2.0317    1.0000 </r>
       <r>    2.8827    1.0000 </r>
       <r>    2.8827    1.0000 </r>
       <r>    6.4376    0.0000 </r>
       <r>    6.4376    0.0000 </r>
       <r>   15.7489    0.0000 </r>
       <r>   15.7489    0.0000 </r>
      </set>
      <set comment="kpoint 109">
       <r>   -2.0317    1.0000 </r>
       <r>   -2.0317    1.0000 </r>
       <r>    2.8827    1.0000 </r>
       <r>    2.8827    1.0000 </r>
       <r>    6.4376    0.0000 </r>
       <r>    6.4376    0.0000 </r>
       <r>   15.7489    0.0000 </r>
       <r>   15.7489    0.0000 </r>
      </set>
      <set comment="kpoint 110">
       <r>   -5.8934    1.0000 </r>
       <r>    4.3484    1.0000 </r>
       <r>    4.9639    1.0000 </r>
       <r>    4.9639    1.0000 </r>
       <r>    7.7853    0.0000 </r>
       <r>    9.4117    0.0000 </r>
       <r>    9.4117    0.0000 </r>
       <r>   10.0545    0.0000 </r>
      </set>
      <set comment="kpoint 111">
       <r>   -5.6221    1.0000 </r>
       <r>    3.0518    1.0000 </r>
       <r>    4.0884    1.0000 </r>
       <r>    5.4783    1.0000 </r>
       <r>    8.7822    0.0000 </r>
       <r>    8.8440    0.0000 </r>
       <r>    9.0347    0.0000 </r>
       <r>   11.2088    0.0000 </r>
      </set>
      <set comment="kpoint 112">
       <r>   -5.6221    1.0000 </r>
       <r>    3.0518    1.0000 </r>
       <r>    4.0884    1.0000 </r>
       <r>    5.4783    1.0000 </r>
       <r>    8.7822    0.0000 </r>
       <r>    8.8440    0.0000 </r>
       <r>    9.0347    0.0000 </r>
       <r>   11.2088    0.0000 </r>
      </set>
      <set comment="kpoint 113">
       <r>   -4.9161    1.0000 </r>
       <r>    1.1172    1.0000 </r>
       <r>    3.4056    1.0000 </r>
       <r>    5.0107    1.0000 </r>
       <r>    8.4612    0.0000 </r>
       <r>    9.4129    0.0000 </r>
       <r>    9.5448    0.0000 </r>
       <r>   11.9667    0.0000 </r>
      </set>
      <set comment="kpoint 114">
       <r>   -4.9161    1.0000 </r>
       <r>    1.1172    1.0000 </r>
       <r>    3.4056    1.0000 </r>
       <r>    5.0107    1.0000 </r>
       <r>    8.4612    0.0000 </r>
       <r>    9.4129    0.0000 </r>
       <r>    9.5448    0.0000 </r>
       <r>   11.9667    0.0000 </r>
      </set>
      <set comment="kpoint 115">
       <r>   -4.9161    1.0000 </r>
       <r>    1.1172    1.0000 </r>
       <r>    3.4056    1.0000 </r>
       <r>    5.0107    1.0000 </r>
       <r>    8.4612    0.0000 </r>
       <r>    9.4129    0.0000 </r>
       <r>    9.5448    0.0000 </r>
       <r>   11.9667    0.0000 </r>
      </set>
      <set comment="kpoint 116">
       <r>   -4.9161    1.0000 </r>
       <r>    1.1172    1.0000 </r>
       <r>    3.4056    1.0000 </r>
       <r>    5.0107    1.0000 </r>
       <r>    8.4612    0.0000 </r>
       <r>    9.4129    0.0000 </r>
       <r>    9.5448    0.0000 </r>
       <r>   11.9667    0.0000 </r>
      </set>
      <set comment="kpoint 117">
       <r>   -4.0032    1.0000 </r>
       <r>   -0.6169    1.0000 </r>
       <r>    3.2459    1.0000 </r>
       <r>    4.5276    1.0000 </r>
       <r>    8.1234    0.0000 </r>
       <r>    9.2963    0.0000 </r>
       <r>    9.6297    0.0000 </r>
       <r>   13.5873    0.0000 </r>
      </set>
      <set comment="kpoint 118">
       <r>   -4.0032    1.0000 </r>
       <r>   -0.6169    1.0000 </r>
       <r>    3.2459    1.0000 </r>
       <r>    4.5276    1.0000 </r>
       <r>    8.1234    0.0000 </r>
       <r>    9.2963    0.0000 </r>
       <r>    9.6297    0.0000 </r>
       <r>   13.5873    0.0000 </r>
      </set>
      <set comment="kpoint 119">
       <r>   -4.0032    1.0000 </r>
       <r>   -0.6169    1.0000 </r>
       <r>    3.2459    1.0000 </r>
       <r>    4.5276    1.0000 </r>
       <r>    8.1234    0.0000 </r>
       <r>    9.2963    0.0000 </r>
       <r>    9.6297    0.0000 </r>
       <r>   13.5873    0.0000 </r>
      </set>
      <set comment="kpoint 120">
       <r>   -4.0032    1.0000 </r>
       <r>   -0.6169    1.0000 </r>
       <r>    3.2459    1.0000 </r>
       <r>    4.5276    1.0000 </r>
       <r>    8.1234    0.0000 </r>
       <r>    9.2963    0.0000 </r>
       <r>    9.6297    0.0000 </r>
       <r>   13.5873    0.0000 </r>
      </set>
      <set comment="kpoint 121">
       <r>   -3.7718    1.0000 </r>
       <r>   -0.9713    1.0000 </r>
       <r>    3.4224    1.0000 </r>
       <r>    4.2326    1.0000 </r>
       <r>    7.9664    0.0000 </r>
       <r>    9.1716    0.0000 </r>
       <r>    9.8695    0.0000 </r>
       <r>   13.1508    0.0000 </r>
      </set>
      <set comment="kpoint 122">
       <r>   -3.7718    1.0000 </r>
       <r>   -0.9713    1.0000 </r>
       <r>    3.4224    1.0000 </r>
       <r>    4.2326    1.0000 </r>
       <r>    7.9664    0.0000 </r>
       <r>    9.1716    0.0000 </r>
       <r>    9.8695    0.0000 </r>
       <r>   13.1508    0.0000 </r>
      </set>
      <set comment="kpoint 123">
       <r>   -3.7718    1.0000 </r>
       <r>   -0.9713    1.0000 </r>
       <r>    3.4224    1.0000 </r>
       <r>    4.2326    1.0000 </r>
       <r>    7.9664    0.0000 </r>
       <r>    9.1716    0.0000 </r>
       <r>    9.8695    0.0000 </r>
       <r>   13.1508    0.0000 </r>
      </set>
      <set comment="kpoint 124">
       <r>   -3.7718    1.0000 </r>
       <r>   -0.9713    1.0000 </r>
       <r>    3.4224    1.0000 </r>
       <r>    4.2326    1.0000 </r>
       <r>    7.9664    0.0000 </r>
       <r>    9.1716    0.0000 </r>
       <r>    9.8695    0.0000 </r>
       <r>   13.1508    0.0000 </r>
      </set>
      <set comment="kpoint 125">
       <r>   -4.6259    1.0000 </r>
       <r>    0.4798    1.0000 </r>
       <r>    3.8717    1.0000 </r>
       <r>    4.2038    1.0000 </r>
       <r>    8.0183    0.0000 </r>
       <r>    9.2980    0.0000 </r>
       <r>   10.2226    0.0000 </r>
       <r>   11.2407    0.0000 </r>
      </set>
      <set comment="kpoint 126">
       <r>   -4.6259    1.0000 </r>
       <r>    0.4798    1.0000 </r>
       <r>    3.8717    1.0000 </r>
       <r>    4.2038    1.0000 </r>
       <r>    8.0183    0.0000 </r>
       <r>    9.2980    0.0000 </r>
       <r>   10.2226    0.0000 </r>
       <r>   11.2407    0.0000 </r>
      </set>
      <set comment="kpoint 127">
       <r>   -4.6259    1.0000 </r>
       <r>    0.4798    1.0000 </r>
       <r>    3.8717    1.0000 </r>
       <r>    4.2038    1.0000 </r>
       <r>    8.0183    0.0000 </r>
       <r>    9.2980    0.0000 </r>
       <r>   10.2226    0.0000 </r>
       <r>   11.2407    0.0000 </r>
      </set>
      <set comment="kpoint 128">
       <r>   -4.6259    1.0000 </r>
       <r>    0.4798    1.0000 </r>
       <r>    3.8717    1.0000 </r>
       <r>    4.2038    1.0000 </r>
       <r>    8.0183    0.0000 </r>
       <r>    9.2980    0.0000 </r>
       <r>   10.2226    0.0000 </r>
       <r>   11.2407    0.0000 </r>
      </set>
      <set comment="kpoint 129">
       <r>   -5.4315    1.0000 </r>
       <r>    2.5118    1.0000 </r>
       <r>    4.4632    1.0000 </r>
       <r>    4.4819    1.0000 </r>
       <r>    7.9282    0.0000 </r>
       <r>    9.3943    0.0000 </r>
       <r>   10.1882    0.0000 </r>
       <r>   10.4562    0.0000 </r>
      </set>
      <set comment="kpoint 130">
       <r>   -5.4315    1.0000 </r>
       <r>    2.5118    1.0000 </r>
       <r>    4.4632    1.0000 </r>
       <r>    4.4819    1.0000 </r>
       <r>    7.9282    0.0000 </r>
       <r>    9.3943    0.0000 </r>
       <r>   10.1882    0.0000 </r>
       <r>   10.4562    0.0000 </r>
      </set>
      <set comment="kpoint 131">
       <r>   -5.4315    1.0000 </r>
       <r>    2.5118    1.0000 </r>
       <r>    4.4632    1.0000 </r>
       <r>    4.4819    1.0000 </r>
       <r>    7.9282    0.0000 </r>
       <r>    9.3943    0.0000 </r>
       <r>   10.1882    0.0000 </r>
       <r>   10.4562    0.0000 </r>
      </set>
      <set comment="kpoint 132">
       <r>   -5.4315    1.0000 </r>
       <r>    2.5118    1.0000 </r>
       <r>    4.4632    1.0000 </r>
       <r>    4.4819    1.0000 </r>
       <r>    7.9282    0.0000 </r>
       <r>    9.3943    0.0000 </r>
       <r>   10.1882    0.0000 </r>
       <r>   10.4562    0.0000 </r>
      </set>
      <set comment="kpoint 133">
       <r>   -4.8359    1.0000 </r>
       <r>    1.4486    1.0000 </r>
       <r>    3.0137    1.0000 </r>
       <r>    4.3462    1.0000 </r>
       <r>    8.1583    0.0000 </r>
       <r>    9.6336    0.0000 </r>
       <r>    9.9737    0.0000 </r>
       <r>   11.1590    0.0000 </r>
      </set>
      <set comment="kpoint 134">
       <r>   -4.8359    1.0000 </r>
       <r>    1.4486    1.0000 </r>
       <r>    3.0137    1.0000 </r>
       <r>    4.3462    1.0000 </r>
       <r>    8.1583    0.0000 </r>
       <r>    9.6336    0.0000 </r>
       <r>    9.9737    0.0000 </r>
       <r>   11.1590    0.0000 </r>
      </set>
      <set comment="kpoint 135">
       <r>   -4.8359    1.0000 </r>
       <r>    1.4486    1.0000 </r>
       <r>    3.0137    1.0000 </r>
       <r>    4.3462    1.0000 </r>
       <r>    8.1583    0.0000 </r>
       <r>    9.6336    0.0000 </r>
       <r>    9.9737    0.0000 </r>
       <r>   11.1590    0.0000 </r>
      </set>
      <set comment="kpoint 136">
       <r>   -4.8359    1.0000 </r>
       <r>    1.4486    1.0000 </r>
       <r>    3.0137    1.0000 </r>
       <r>    4.3462    1.0000 </r>
       <r>    8.1583    0.0000 </r>
       <r>    9.6336    0.0000 </r>
       <r>    9.9737    0.0000 </r>
       <r>   11.1590    0.0000 </r>
      </set>
      <set comment="kpoint 137">
       <r>   -3.9547    1.0000 </r>
       <r>   -0.0958    1.0000 </r>
       <r>    2.4114    1.0000 </r>
       <r>    3.8511    1.0000 </r>
       <r>    8.5980    0.0000 </r>
       <r>    9.3503    0.0000 </r>
       <r>   10.7210    0.0000 </r>
       <r>   11.5983    0.0000 </r>
      </set>
      <set comment="kpoint 138">
       <r>   -3.9547    1.0000 </r>
       <r>   -0.0958    1.0000 </r>
       <r>    2.4114    1.0000 </r>
       <r>    3.8511    1.0000 </r>
       <r>    8.5980    0.0000 </r>
       <r>    9.3503    0.0000 </r>
       <r>   10.7210    0.0000 </r>
       <r>   11.5983    0.0000 </r>
      </set>
      <set comment="kpoint 139">
       <r>   -3.9547    1.0000 </r>
       <r>   -0.0958    1.0000 </r>
       <r>    2.4114    1.0000 </r>
       <r>    3.8511    1.0000 </r>
       <r>    8.5980    0.0000 </r>
       <r>    9.3503    0.0000 </r>
       <r>   10.7210    0.0000 </r>
       <r>   11.5983    0.0000 </r>
      </set>
      <set comment="kpoint 140">
       <r>   -3.9547    1.0000 </r>
       <r>   -0.0958    1.0000 </r>
       <r>    2.4114    1.0000 </r>
       <r>    3.8511    1.0000 </r>
       <r>    8.5980    0.0000 </r>
       <r>    9.3503    0.0000 </r>
       <r>   10.7210    0.0000 </r>
       <r>   11.5983    0.0000 </r>
      </set>
      <set comment="kpoint 141">
       <r>   -3.9547    1.0000 </r>
       <r>   -0.0958    1.0000 </r>
       <r>    2.4114    1.0000 </r>
       <r>    3.8511    1.0000 </r>
       <r>    8.5980    0.0000 </r>
       <r>    9.3503    0.0000 </r>
       <r>   10.7210    0.0000 </r>
       <r>   11.5983    0.0000 </r>
      </set>
      <set comment="kpoint 142">
       <r>   -3.9547    1.0000 </r>
       <r>   -0.0958    1.0000 </r>
       <r>    2.4114    1.0000 </r>
       <r>    3.8511    1.0000 </r>
       <r>    8.5980    0.0000 </r>
       <r>    9.3503    0.0000 </r>
       <r>   10.7210    0.0000 </r>
       <r>   11.5983    0.0000 </r>
      </set>
      <set comment="kpoint 143">
       <r>   -3.9547    1.0000 </r>
       <r>   -0.0958    1.0000 </r>
       <r>    2.4114    1.0000 </r>
       <r>    3.8511    1.0000 </r>
       <r>    8.5980    0.0000 </r>
       <r>    9.3503    0.0000 </r>
       <r>   10.7210    0.0000 </r>
       <r>   11.5983    0.0000 </r>
      </set>
      <set comment="kpoint 144">
       <r>   -3.9547    1.0000 </r>
       <r>   -0.0958    1.0000 </r>
       <r>    2.4114    1.0000 </r>
       <r>    3.8511    1.0000 </r>
       <r>    8.5980    0.0000 </r>
       <r>    9.3503    0.0000 </r>
       <r>   10.7210    0.0000 </r>
       <r>   11.5983    0.0000 </r>
      </set>
      <set comment="kpoint 145">
       <r>   -3.3208    1.0000 </r>
       <r>   -1.0201    1.0000 </r>
       <r>    2.2992    1.0000 </r>
       <r>    3.6038    1.0000 </r>
       <r>    8.8121    0.0000 </r>
       <r>    8.9103    0.0000 </r>
       <r>   11.5781    0.0000 </r>
       <r>   12.8566    0.0000 </r>
      </set>
      <set comment="kpoint 146">
       <r>   -3.3208    1.0000 </r>
       <r>   -1.0201    1.0000 </r>
       <r>    2.2992    1.0000 </r>
       <r>    3.6038    1.0000 </r>
       <r>    8.8121    0.0000 </r>
       <r>    8.9103    0.0000 </r>
       <r>   11.5781    0.0000 </r>
       <r>   12.8566    0.0000 </r>
      </set>
      <set comment="kpoint 147">
       <r>   -3.3208    1.0000 </r>
       <r>   -1.0201    1.0000 </r>
       <r>    2.2992    1.0000 </r>
       <r>    3.6038    1.0000 </r>
       <r>    8.8121    0.0000 </r>
       <r>    8.9103    0.0000 </r>
       <r>   11.5781    0.0000 </r>
       <r>   12.8566    0.0000 </r>
      </set>
      <set comment="kpoint 148">
       <r>   -3.3208    1.0000 </r>
       <r>   -1.0201    1.0000 </r>
       <r>    2.2992    1.0000 </r>
       <r>    3.6038    1.0000 </r>
       <r>    8.8121    0.0000 </r>
       <r>    8.9103    0.0000 </r>
       <r>   11.5781    0.0000 </r>
       <r>   12.8566    0.0000 </r>
      </set>
      <set comment="kpoint 149">
       <r>   -3.3208    1.0000 </r>
       <r>   -1.0201    1.0000 </r>
       <r>    2.2992    1.0000 </r>
       <r>    3.6038    1.0000 </r>
       <r>    8.8121    0.0000 </r>
       <r>    8.9103    0.0000 </r>
       <r>   11.5781    0.0000 </r>
       <r>   12.8566    0.0000 </r>
      </set>
      <set comment="kpoint 150">
       <r>   -3.3208    1.0000 </r>
       <r>   -1.0201    1.0000 </r>
       <r>    2.2992    1.0000 </r>
       <r>    3.6038    1.0000 </r>
       <r>    8.8121    0.0000 </r>
       <r>    8.9103    0.0000 </r>
       <r>   11.5781    0.0000 </r>
       <r>   12.8566    0.0000 </r>
      </set>
      <set comment="kpoint 151">
       <r>   -3.3208    1.0000 </r>
       <r>   -1.0201    1.0000 </r>
       <r>    2.2992    1.0000 </r>
       <r>    3.6038    1.0000 </r>
       <r>    8.8121    0.0000 </r>
       <r>    8.9103    0.0000 </r>
       <r>   11.5781    0.0000 </r>
       <r>   12.8566    0.0000 </r>
      </set>
      <set comment="kpoint 152">
       <r>   -3.3208    1.0000 </r>
       <r>   -1.0201    1.0000 </r>
       <r>    2.2992    1.0000 </r>
       <r>    3.6038    1.0000 </r>
       <r>    8.8121    0.0000 </r>
       <r>    8.9103    0.0000 </r>
       <r>   11.5781    0.0000 </r>
       <r>   12.8566    0.0000 </r>
      </set>
      <set comment="kpoint 153">
       <r>   -3.9745    1.0000 </r>
       <r>   -0.0800    1.0000 </r>
       <r>    2.4557    1.0000 </r>
       <r>    3.8061    1.0000 </r>
       <r>    8.6717    0.0000 </r>
       <r>    9.2747    0.0000 </r>
       <r>   10.8046    0.0000 </r>
       <r>   11.6176    0.0000 </r>
      </set>
      <set comment="kpoint 154">
       <r>   -3.9745    1.0000 </r>
       <r>   -0.0800    1.0000 </r>
       <r>    2.4557    1.0000 </r>
       <r>    3.8061    1.0000 </r>
       <r>    8.6717    0.0000 </r>
       <r>    9.2746    0.0000 </r>
       <r>   10.8046    0.0000 </r>
       <r>   11.6176    0.0000 </r>
      </set>
      <set comment="kpoint 155">
       <r>   -3.9745    1.0000 </r>
       <r>   -0.0800    1.0000 </r>
       <r>    2.4557    1.0000 </r>
       <r>    3.8061    1.0000 </r>
       <r>    8.6717    0.0000 </r>
       <r>    9.2746    0.0000 </r>
       <r>   10.8046    0.0000 </r>
       <r>   11.6176    0.0000 </r>
      </set>
      <set comment="kpoint 156">
       <r>   -3.9745    1.0000 </r>
       <r>   -0.0800    1.0000 </r>
       <r>    2.4557    1.0000 </r>
       <r>    3.8061    1.0000 </r>
       <r>    8.6717    0.0000 </r>
       <r>    9.2747    0.0000 </r>
       <r>   10.8046    0.0000 </r>
       <r>   11.6176    0.0000 </r>
      </set>
      <set comment="kpoint 157">
       <r>   -3.9745    1.0000 </r>
       <r>   -0.0800    1.0000 </r>
       <r>    2.4557    1.0000 </r>
       <r>    3.8061    1.0000 </r>
       <r>    8.6717    0.0000 </r>
       <r>    9.2746    0.0000 </r>
       <r>   10.8046    0.0000 </r>
       <r>   11.6176    0.0000 </r>
      </set>
      <set comment="kpoint 158">
       <r>   -3.9745    1.0000 </r>
       <r>   -0.0800    1.0000 </r>
       <r>    2.4557    1.0000 </r>
       <r>    3.8061    1.0000 </r>
       <r>    8.6717    0.0000 </r>
       <r>    9.2746    0.0000 </r>
       <r>   10.8046    0.0000 </r>
       <r>   11.6176    0.0000 </r>
      </set>
      <set comment="kpoint 159">
       <r>   -3.9745    1.0000 </r>
       <r>   -0.0800    1.0000 </r>
       <r>    2.4557    1.0000 </r>
       <r>    3.8061    1.0000 </r>
       <r>    8.6717    0.0000 </r>
       <r>    9.2747    0.0000 </r>
       <r>   10.8046    0.0000 </r>
       <r>   11.6176    0.0000 </r>
      </set>
      <set comment="kpoint 160">
       <r>   -3.9745    1.0000 </r>
       <r>   -0.0800    1.0000 </r>
       <r>    2.4557    1.0000 </r>
       <r>    3.8061    1.0000 </r>
       <r>    8.6717    0.0000 </r>
       <r>    9.2747    0.0000 </r>
       <r>   10.8046    0.0000 </r>
       <r>   11.6176    0.0000 </r>
      </set>
      <set comment="kpoint 161">
       <r>   -4.8526    1.0000 </r>
       <r>    1.4459    1.0000 </r>
       <r>    3.0781    1.0000 </r>
       <r>    4.3019    1.0000 </r>
       <r>    8.2448    0.0000 </r>
       <r>    9.6347    0.0000 </r>
       <r>    9.9158    0.0000 </r>
       <r>   11.1824    0.0000 </r>
      </set>
      <set comment="kpoint 162">
       <r>   -4.8526    1.0000 </r>
       <r>    1.4459    1.0000 </r>
       <r>    3.0781    1.0000 </r>
       <r>    4.3019    1.0000 </r>
       <r>    8.2448    0.0000 </r>
       <r>    9.6347    0.0000 </r>
       <r>    9.9158    0.0000 </r>
       <r>   11.1824    0.0000 </r>
      </set>
      <set comment="kpoint 163">
       <r>   -4.8526    1.0000 </r>
       <r>    1.4459    1.0000 </r>
       <r>    3.0781    1.0000 </r>
       <r>    4.3019    1.0000 </r>
       <r>    8.2448    0.0000 </r>
       <r>    9.6347    0.0000 </r>
       <r>    9.9158    0.0000 </r>
       <r>   11.1824    0.0000 </r>
      </set>
      <set comment="kpoint 164">
       <r>   -4.8526    1.0000 </r>
       <r>    1.4459    1.0000 </r>
       <r>    3.0781    1.0000 </r>
       <r>    4.3019    1.0000 </r>
       <r>    8.2448    0.0000 </r>
       <r>    9.6347    0.0000 </r>
       <r>    9.9158    0.0000 </r>
       <r>   11.1824    0.0000 </r>
      </set>
      <set comment="kpoint 165">
       <r>   -4.8395    1.0000 </r>
       <r>    1.4662    1.0000 </r>
       <r>    3.0531    1.0000 </r>
       <r>    4.3062    1.0000 </r>
       <r>    8.1391    0.0000 </r>
       <r>    9.5386    0.0000 </r>
       <r>    9.9180    0.0000 </r>
       <r>   11.2899    0.0000 </r>
      </set>
      <set comment="kpoint 166">
       <r>   -4.8395    1.0000 </r>
       <r>    1.4662    1.0000 </r>
       <r>    3.0531    1.0000 </r>
       <r>    4.3062    1.0000 </r>
       <r>    8.1391    0.0000 </r>
       <r>    9.5386    0.0000 </r>
       <r>    9.9180    0.0000 </r>
       <r>   11.2899    0.0000 </r>
      </set>
      <set comment="kpoint 167">
       <r>   -4.8395    1.0000 </r>
       <r>    1.4662    1.0000 </r>
       <r>    3.0531    1.0000 </r>
       <r>    4.3062    1.0000 </r>
       <r>    8.1391    0.0000 </r>
       <r>    9.5386    0.0000 </r>
       <r>    9.9180    0.0000 </r>
       <r>   11.2899    0.0000 </r>
      </set>
      <set comment="kpoint 168">
       <r>   -4.8395    1.0000 </r>
       <r>    1.4662    1.0000 </r>
       <r>    3.0531    1.0000 </r>
       <r>    4.3062    1.0000 </r>
       <r>    8.1391    0.0000 </r>
       <r>    9.5386    0.0000 </r>
       <r>    9.9180    0.0000 </r>
       <r>   11.2899    0.0000 </r>
      </set>
      <set comment="kpoint 169">
       <r>   -3.5784    1.0000 </r>
       <r>   -0.2077    1.0000 </r>
       <r>    2.3732    1.0000 </r>
       <r>    3.0040    1.0000 </r>
       <r>    7.6642    0.0000 </r>
       <r>    8.3762    0.0000 </r>
       <r>   11.5530    0.0000 </r>
       <r>   13.5989    0.0000 </r>
      </set>
      <set comment="kpoint 170">
       <r>   -3.5784    1.0000 </r>
       <r>   -0.2077    1.0000 </r>
       <r>    2.3732    1.0000 </r>
       <r>    3.0040    1.0000 </r>
       <r>    7.6642    0.0000 </r>
       <r>    8.3762    0.0000 </r>
       <r>   11.5530    0.0000 </r>
       <r>   13.5989    0.0000 </r>
      </set>
      <set comment="kpoint 171">
       <r>   -3.5784    1.0000 </r>
       <r>   -0.2077    1.0000 </r>
       <r>    2.3732    1.0000 </r>
       <r>    3.0040    1.0000 </r>
       <r>    7.6642    0.0000 </r>
       <r>    8.3762    0.0000 </r>
       <r>   11.5530    0.0000 </r>
       <r>   13.5989    0.0000 </r>
      </set>
      <set comment="kpoint 172">
       <r>   -3.5784    1.0000 </r>
       <r>   -0.2077    1.0000 </r>
       <r>    2.3732    1.0000 </r>
       <r>    3.0040    1.0000 </r>
       <r>    7.6642    0.0000 </r>
       <r>    8.3762    0.0000 </r>
       <r>   11.5530    0.0000 </r>
       <r>   13.5989    0.0000 </r>
      </set>
      <set comment="kpoint 173">
       <r>   -2.7189    1.0000 </r>
       <r>   -1.1716    1.0000 </r>
       <r>    1.7109    1.0000 </r>
       <r>    2.7852    1.0000 </r>
       <r>    8.1200    0.0000 </r>
       <r>    9.9952    0.0000 </r>
       <r>   11.0702    0.0000 </r>
       <r>   13.2376    0.0000 </r>
      </set>
      <set comment="kpoint 174">
       <r>   -2.7189    1.0000 </r>
       <r>   -1.1716    1.0000 </r>
       <r>    1.7109    1.0000 </r>
       <r>    2.7852    1.0000 </r>
       <r>    8.1200    0.0000 </r>
       <r>    9.9952    0.0000 </r>
       <r>   11.0702    0.0000 </r>
       <r>   13.2376    0.0000 </r>
      </set>
      <set comment="kpoint 175">
       <r>   -2.7189    1.0000 </r>
       <r>   -1.1716    1.0000 </r>
       <r>    1.7109    1.0000 </r>
       <r>    2.7852    1.0000 </r>
       <r>    8.1200    0.0000 </r>
       <r>    9.9952    0.0000 </r>
       <r>   11.0702    0.0000 </r>
       <r>   13.2376    0.0000 </r>
      </set>
      <set comment="kpoint 176">
       <r>   -2.7189    1.0000 </r>
       <r>   -1.1716    1.0000 </r>
       <r>    1.7109    1.0000 </r>
       <r>    2.7852    1.0000 </r>
       <r>    8.1200    0.0000 </r>
       <r>    9.9952    0.0000 </r>
       <r>   11.0702    0.0000 </r>
       <r>   13.2376    0.0000 </r>
      </set>
      <set comment="kpoint 177">
       <r>   -2.7189    1.0000 </r>
       <r>   -1.1716    1.0000 </r>
       <r>    1.7109    1.0000 </r>
       <r>    2.7852    1.0000 </r>
       <r>    8.1200    0.0000 </r>
       <r>    9.9952    0.0000 </r>
       <r>   11.0702    0.0000 </r>
       <r>   13.2376    0.0000 </r>
      </set>
      <set comment="kpoint 178">
       <r>   -2.7189    1.0000 </r>
       <r>   -1.1716    1.0000 </r>
       <r>    1.7109    1.0000 </r>
       <r>    2.7852    1.0000 </r>
       <r>    8.1200    0.0000 </r>
       <r>    9.9952    0.0000 </r>
       <r>   11.0702    0.0000 </r>
       <r>   13.2376    0.0000 </r>
      </set>
      <set comment="kpoint 179">
       <r>   -2.7189    1.0000 </r>
       <r>   -1.1716    1.0000 </r>
       <r>    1.7109    1.0000 </r>
       <r>    2.7852    1.0000 </r>
       <r>    8.1200    0.0000 </r>
       <r>    9.9952    0.0000 </r>
       <r>   11.0702    0.0000 </r>
       <r>   13.2376    0.0000 </r>
      </set>
      <set comment="kpoint 180">
       <r>   -2.7189    1.0000 </r>
       <r>   -1.1716    1.0000 </r>
       <r>    1.7109    1.0000 </r>
       <r>    2.7852    1.0000 </r>
       <r>    8.1200    0.0000 </r>
       <r>    9.9952    0.0000 </r>
       <r>   11.0702    0.0000 </r>
       <r>   13.2376    0.0000 </r>
      </set>
      <set comment="kpoint 181">
       <r>   -3.0831    1.0000 </r>
       <r>   -0.8062    1.0000 </r>
       <r>    1.5695    1.0000 </r>
       <r>    3.1445    1.0000 </r>
       <r>    8.6037    0.0000 </r>
       <r>   10.3548    0.0000 </r>
       <r>   11.0111    0.0000 </r>
       <r>   12.7024    0.0000 </r>
      </set>
      <set comment="kpoint 182">
       <r>   -3.0831    1.0000 </r>
       <r>   -0.8062    1.0000 </r>
       <r>    1.5695    1.0000 </r>
       <r>    3.1445    1.0000 </r>
       <r>    8.6037    0.0000 </r>
       <r>   10.3548    0.0000 </r>
       <r>   11.0111    0.0000 </r>
       <r>   12.7024    0.0000 </r>
      </set>
      <set comment="kpoint 183">
       <r>   -3.0831    1.0000 </r>
       <r>   -0.8062    1.0000 </r>
       <r>    1.5695    1.0000 </r>
       <r>    3.1445    1.0000 </r>
       <r>    8.6037    0.0000 </r>
       <r>   10.3548    0.0000 </r>
       <r>   11.0111    0.0000 </r>
       <r>   12.7024    0.0000 </r>
      </set>
      <set comment="kpoint 184">
       <r>   -3.0831    1.0000 </r>
       <r>   -0.8062    1.0000 </r>
       <r>    1.5695    1.0000 </r>
       <r>    3.1445    1.0000 </r>
       <r>    8.6037    0.0000 </r>
       <r>   10.3548    0.0000 </r>
       <r>   11.0111    0.0000 </r>
       <r>   12.7024    0.0000 </r>
      </set>
      <set comment="kpoint 185">
       <r>   -3.9593    1.0000 </r>
       <r>   -0.0742    1.0000 </r>
       <r>    2.4579    1.0000 </r>
       <r>    3.8131    1.0000 </r>
       <r>    8.5507    0.0000 </r>
       <r>    9.2127    0.0000 </r>
       <r>   10.6852    0.0000 </r>
       <r>   11.7261    0.0000 </r>
      </set>
      <set comment="kpoint 186">
       <r>   -3.9593    1.0000 </r>
       <r>   -0.0742    1.0000 </r>
       <r>    2.4579    1.0000 </r>
       <r>    3.8131    1.0000 </r>
       <r>    8.5507    0.0000 </r>
       <r>    9.2127    0.0000 </r>
       <r>   10.6852    0.0000 </r>
       <r>   11.7261    0.0000 </r>
      </set>
      <set comment="kpoint 187">
       <r>   -3.9593    1.0000 </r>
       <r>   -0.0742    1.0000 </r>
       <r>    2.4579    1.0000 </r>
       <r>    3.8131    1.0000 </r>
       <r>    8.5507    0.0000 </r>
       <r>    9.2127    0.0000 </r>
       <r>   10.6852    0.0000 </r>
       <r>   11.7261    0.0000 </r>
      </set>
      <set comment="kpoint 188">
       <r>   -3.9593    1.0000 </r>
       <r>   -0.0742    1.0000 </r>
       <r>    2.4579    1.0000 </r>
       <r>    3.8131    1.0000 </r>
       <r>    8.5507    0.0000 </r>
       <r>    9.2127    0.0000 </r>
       <r>   10.6852    0.0000 </r>
       <r>   11.7261    0.0000 </r>
      </set>
      <set comment="kpoint 189">
       <r>   -3.9593    1.0000 </r>
       <r>   -0.0742    1.0000 </r>
       <r>    2.4579    1.0000 </r>
       <r>    3.8131    1.0000 </r>
       <r>    8.5507    0.0000 </r>
       <r>    9.2127    0.0000 </r>
       <r>   10.6852    0.0000 </r>
       <r>   11.7261    0.0000 </r>
      </set>
      <set comment="kpoint 190">
       <r>   -3.9593    1.0000 </r>
       <r>   -0.0742    1.0000 </r>
       <r>    2.4579    1.0000 </r>
       <r>    3.8131    1.0000 </r>
       <r>    8.5507    0.0000 </r>
       <r>    9.2127    0.0000 </r>
       <r>   10.6852    0.0000 </r>
       <r>   11.7261    0.0000 </r>
      </set>
      <set comment="kpoint 191">
       <r>   -3.9593    1.0000 </r>
       <r>   -0.0742    1.0000 </r>
       <r>    2.4579    1.0000 </r>
       <r>    3.8131    1.0000 </r>
       <r>    8.5507    0.0000 </r>
       <r>    9.2127    0.0000 </r>
       <r>   10.6852    0.0000 </r>
       <r>   11.7261    0.0000 </r>
      </set>
      <set comment="kpoint 192">
       <r>   -3.9593    1.0000 </r>
       <r>   -0.0742    1.0000 </r>
       <r>    2.4579    1.0000 </r>
       <r>    3.8131    1.0000 </r>
       <r>    8.5507    0.0000 </r>
       <r>    9.2127    0.0000 </r>
       <r>   10.6852    0.0000 </r>
       <r>   11.7261    0.0000 </r>
      </set>
      <set comment="kpoint 193">
       <r>   -3.5800    1.0000 </r>
       <r>   -0.1953    1.0000 </r>
       <r>    2.4015    1.0000 </r>
       <r>    2.9935    1.0000 </r>
       <r>    7.6367    0.0000 </r>
       <r>    8.3499    0.0000 </r>
       <r>   11.3569    0.0000 </r>
       <r>   13.7870    0.0000 </r>
      </set>
      <set comment="kpoint 194">
       <r>   -3.5800    1.0000 </r>
       <r>   -0.1953    1.0000 </r>
       <r>    2.4015    1.0000 </r>
       <r>    2.9935    1.0000 </r>
       <r>    7.6367    0.0000 </r>
       <r>    8.3499    0.0000 </r>
       <r>   11.3569    0.0000 </r>
       <r>   13.7870    0.0000 </r>
      </set>
      <set comment="kpoint 195">
       <r>   -3.5800    1.0000 </r>
       <r>   -0.1953    1.0000 </r>
       <r>    2.4015    1.0000 </r>
       <r>    2.9935    1.0000 </r>
       <r>    7.6367    0.0000 </r>
       <r>    8.3499    0.0000 </r>
       <r>   11.3569    0.0000 </r>
       <r>   13.7870    0.0000 </r>
      </set>
      <set comment="kpoint 196">
       <r>   -3.5800    1.0000 </r>
       <r>   -0.1953    1.0000 </r>
       <r>    2.4015    1.0000 </r>
       <r>    2.9935    1.0000 </r>
       <r>    7.6367    0.0000 </r>
       <r>    8.3499    0.0000 </r>
       <r>   11.3569    0.0000 </r>
       <r>   13.7870    0.0000 </r>
      </set>
      <set comment="kpoint 197">
       <r>   -1.9614    1.0000 </r>
       <r>   -1.9614    1.0000 </r>
       <r>    2.3303    1.0000 </r>
       <r>    2.3303    1.0000 </r>
       <r>    7.6940    0.0000 </r>
       <r>    7.6940    0.0000 </r>
       <r>   13.6502    0.0000 </r>
       <r>   13.6502    0.0000 </r>
      </set>
      <set comment="kpoint 198">
       <r>   -1.9614    1.0000 </r>
       <r>   -1.9614    1.0000 </r>
       <r>    2.3303    1.0000 </r>
       <r>    2.3303    1.0000 </r>
       <r>    7.6940    0.0000 </r>
       <r>    7.6940    0.0000 </r>
       <r>   13.6502    0.0000 </r>
       <r>   13.6502    0.0000 </r>
      </set>
      <set comment="kpoint 199">
       <r>   -3.3148    1.0000 </r>
       <r>   -1.0097    1.0000 </r>
       <r>    2.3353    1.0000 </r>
       <r>    3.5839    1.0000 </r>
       <r>    8.6942    0.0000 </r>
       <r>    8.8341    0.0000 </r>
       <r>   11.7023    0.0000 </r>
       <r>   12.7577    0.0000 </r>
      </set>
      <set comment="kpoint 200">
       <r>   -3.3148    1.0000 </r>
       <r>   -1.0097    1.0000 </r>
       <r>    2.3353    1.0000 </r>
       <r>    3.5839    1.0000 </r>
       <r>    8.6942    0.0000 </r>
       <r>    8.8341    0.0000 </r>
       <r>   11.7023    0.0000 </r>
       <r>   12.7577    0.0000 </r>
      </set>
      <set comment="kpoint 201">
       <r>   -3.3148    1.0000 </r>
       <r>   -1.0097    1.0000 </r>
       <r>    2.3353    1.0000 </r>
       <r>    3.5839    1.0000 </r>
       <r>    8.6942    0.0000 </r>
       <r>    8.8341    0.0000 </r>
       <r>   11.7023    0.0000 </r>
       <r>   12.7577    0.0000 </r>
      </set>
      <set comment="kpoint 202">
       <r>   -3.3148    1.0000 </r>
       <r>   -1.0097    1.0000 </r>
       <r>    2.3353    1.0000 </r>
       <r>    3.5839    1.0000 </r>
       <r>    8.6942    0.0000 </r>
       <r>    8.8341    0.0000 </r>
       <r>   11.7023    0.0000 </r>
       <r>   12.7577    0.0000 </r>
      </set>
      <set comment="kpoint 203">
       <r>   -2.7150    1.0000 </r>
       <r>   -1.1582    1.0000 </r>
       <r>    1.7212    1.0000 </r>
       <r>    2.7998    1.0000 </r>
       <r>    8.0660    0.0000 </r>
       <r>    9.9499    0.0000 </r>
       <r>   10.8881    0.0000 </r>
       <r>   13.0478    0.0000 </r>
      </set>
      <set comment="kpoint 204">
       <r>   -2.7150    1.0000 </r>
       <r>   -1.1582    1.0000 </r>
       <r>    1.7212    1.0000 </r>
       <r>    2.7998    1.0000 </r>
       <r>    8.0660    0.0000 </r>
       <r>    9.9499    0.0000 </r>
       <r>   10.8881    0.0000 </r>
       <r>   13.0478    0.0000 </r>
      </set>
      <set comment="kpoint 205">
       <r>   -2.7150    1.0000 </r>
       <r>   -1.1582    1.0000 </r>
       <r>    1.7212    1.0000 </r>
       <r>    2.7998    1.0000 </r>
       <r>    8.0660    0.0000 </r>
       <r>    9.9499    0.0000 </r>
       <r>   10.8881    0.0000 </r>
       <r>   13.0478    0.0000 </r>
      </set>
      <set comment="kpoint 206">
       <r>   -2.7150    1.0000 </r>
       <r>   -1.1582    1.0000 </r>
       <r>    1.7212    1.0000 </r>
       <r>    2.7998    1.0000 </r>
       <r>    8.0660    0.0000 </r>
       <r>    9.9499    0.0000 </r>
       <r>   10.8881    0.0000 </r>
       <r>   13.0478    0.0000 </r>
      </set>
      <set comment="kpoint 207">
       <r>   -2.7150    1.0000 </r>
       <r>   -1.1582    1.0000 </r>
       <r>    1.7212    1.0000 </r>
       <r>    2.7998    1.0000 </r>
       <r>    8.0660    0.0000 </r>
       <r>    9.9499    0.0000 </r>
       <r>   10.8881    0.0000 </r>
       <r>   13.0478    0.0000 </r>
      </set>
      <set comment="kpoint 208">
       <r>   -2.7150    1.0000 </r>
       <r>   -1.1582    1.0000 </r>
       <r>    1.7212    1.0000 </r>
       <r>    2.7998    1.0000 </r>
       <r>    8.0660    0.0000 </r>
       <r>    9.9499    0.0000 </r>
       <r>   10.8881    0.0000 </r>
       <r>   13.0478    0.0000 </r>
      </set>
      <set comment="kpoint 209">
       <r>   -2.7150    1.0000 </r>
       <r>   -1.1582    1.0000 </r>
       <r>    1.7212    1.0000 </r>
       <r>    2.7998    1.0000 </r>
       <r>    8.0660    0.0000 </r>
       <r>    9.9499    0.0000 </r>
       <r>   10.8881    0.0000 </r>
       <r>   13.0478    0.0000 </r>
      </set>
      <set comment="kpoint 210">
       <r>   -2.7150    1.0000 </r>
       <r>   -1.1582    1.0000 </r>
       <r>    1.7212    1.0000 </r>
       <r>    2.7998    1.0000 </r>
       <r>    8.0660    0.0000 </r>
       <r>    9.9499    0.0000 </r>
       <r>   10.8881    0.0000 </r>
       <r>   13.0478    0.0000 </r>
      </set>
      <set comment="kpoint 211">
       <r>   -1.9582    1.0000 </r>
       <r>   -1.9582    1.0000 </r>
       <r>    2.3437    1.0000 </r>
       <r>    2.3437    1.0000 </r>
       <r>    7.6643    0.0000 </r>
       <r>    7.6643    0.0000 </r>
       <r>   13.4332    0.0000 </r>
       <r>   13.4332    0.0000 </r>
      </set>
      <set comment="kpoint 212">
       <r>   -1.9582    1.0000 </r>
       <r>   -1.9582    1.0000 </r>
       <r>    2.3437    1.0000 </r>
       <r>    2.3437    1.0000 </r>
       <r>    7.6643    0.0000 </r>
       <r>    7.6643    0.0000 </r>
       <r>   13.4332    0.0000 </r>
       <r>   13.4332    0.0000 </r>
      </set>
      <set comment="kpoint 213">
       <r>   -3.0673    1.0000 </r>
       <r>   -0.7961    1.0000 </r>
       <r>    1.5590    1.0000 </r>
       <r>    3.1744    1.0000 </r>
       <r>    8.5300    0.0000 </r>
       <r>   10.1904    0.0000 </r>
       <r>   10.8491    0.0000 </r>
       <r>   12.6702    0.0000 </r>
      </set>
      <set comment="kpoint 214">
       <r>   -3.0673    1.0000 </r>
       <r>   -0.7961    1.0000 </r>
       <r>    1.5590    1.0000 </r>
       <r>    3.1744    1.0000 </r>
       <r>    8.5300    0.0000 </r>
       <r>   10.1904    0.0000 </r>
       <r>   10.8491    0.0000 </r>
       <r>   12.6702    0.0000 </r>
      </set>
      <set comment="kpoint 215">
       <r>   -3.0673    1.0000 </r>
       <r>   -0.7961    1.0000 </r>
       <r>    1.5590    1.0000 </r>
       <r>    3.1744    1.0000 </r>
       <r>    8.5300    0.0000 </r>
       <r>   10.1904    0.0000 </r>
       <r>   10.8491    0.0000 </r>
       <r>   12.6702    0.0000 </r>
      </set>
      <set comment="kpoint 216">
       <r>   -3.0673    1.0000 </r>
       <r>   -0.7961    1.0000 </r>
       <r>    1.5590    1.0000 </r>
       <r>    3.1744    1.0000 </r>
       <r>    8.5300    0.0000 </r>
       <r>   10.1904    0.0000 </r>
       <r>   10.8491    0.0000 </r>
       <r>   12.6702    0.0000 </r>
      </set>
      <set comment="kpoint 217">
       <r>   -5.0998    1.0000 </r>
       <r>    2.1690    1.0000 </r>
       <r>    3.9013    1.0000 </r>
       <r>    3.9013    1.0000 </r>
       <r>    6.9277    0.0000 </r>
       <r>    8.8629    0.0000 </r>
       <r>   11.4522    0.0000 </r>
       <r>   11.4522    0.0000 </r>
      </set>
      <set comment="kpoint 218">
       <r>   -4.1270    1.0000 </r>
       <r>    0.2496    1.0000 </r>
       <r>    1.9831    1.0000 </r>
       <r>    4.4687    1.0000 </r>
       <r>    8.2416    0.0000 </r>
       <r>   10.5082    0.0000 </r>
       <r>   10.7929    0.0000 </r>
       <r>   11.8164    0.0000 </r>
      </set>
      <set comment="kpoint 219">
       <r>   -4.1270    1.0000 </r>
       <r>    0.2496    1.0000 </r>
       <r>    1.9831    1.0000 </r>
       <r>    4.4687    1.0000 </r>
       <r>    8.2416    0.0000 </r>
       <r>   10.5082    0.0000 </r>
       <r>   10.7929    0.0000 </r>
       <r>   11.8164    0.0000 </r>
      </set>
      <set comment="kpoint 220">
       <r>   -3.2641    1.0000 </r>
       <r>   -0.8972    1.0000 </r>
       <r>    1.7445    1.0000 </r>
       <r>    3.9161    1.0000 </r>
       <r>    7.6427    0.0000 </r>
       <r>   11.1381    0.0000 </r>
       <r>   11.2182    0.0000 </r>
       <r>   12.7539    0.0000 </r>
      </set>
      <set comment="kpoint 221">
       <r>   -3.2641    1.0000 </r>
       <r>   -0.8972    1.0000 </r>
       <r>    1.7445    1.0000 </r>
       <r>    3.9161    1.0000 </r>
       <r>    7.6427    0.0000 </r>
       <r>   11.1381    0.0000 </r>
       <r>   11.2182    0.0000 </r>
       <r>   12.7539    0.0000 </r>
      </set>
      <set comment="kpoint 222">
       <r>   -3.2641    1.0000 </r>
       <r>   -0.8972    1.0000 </r>
       <r>    1.7445    1.0000 </r>
       <r>    3.9161    1.0000 </r>
       <r>    7.6427    0.0000 </r>
       <r>   11.1381    0.0000 </r>
       <r>   11.2182    0.0000 </r>
       <r>   12.7539    0.0000 </r>
      </set>
      <set comment="kpoint 223">
       <r>   -3.2641    1.0000 </r>
       <r>   -0.8972    1.0000 </r>
       <r>    1.7445    1.0000 </r>
       <r>    3.9161    1.0000 </r>
       <r>    7.6427    0.0000 </r>
       <r>   11.1381    0.0000 </r>
       <r>   11.2182    0.0000 </r>
       <r>   12.7539    0.0000 </r>
      </set>
      <set comment="kpoint 224">
       <r>   -3.4841    1.0000 </r>
       <r>   -0.6299    1.0000 </r>
       <r>    2.2086    1.0000 </r>
       <r>    3.5979    1.0000 </r>
       <r>    7.3144    0.0000 </r>
       <r>   10.2542    0.0000 </r>
       <r>   11.4049    0.0000 </r>
       <r>   11.6663    0.0000 </r>
      </set>
      <set comment="kpoint 225">
       <r>   -3.4841    1.0000 </r>
       <r>   -0.6299    1.0000 </r>
       <r>    2.2086    1.0000 </r>
       <r>    3.5979    1.0000 </r>
       <r>    7.3144    0.0000 </r>
       <r>   10.2542    0.0000 </r>
       <r>   11.4049    0.0000 </r>
       <r>   11.6663    0.0000 </r>
      </set>
      <set comment="kpoint 226">
       <r>   -3.4841    1.0000 </r>
       <r>   -0.6299    1.0000 </r>
       <r>    2.2086    1.0000 </r>
       <r>    3.5979    1.0000 </r>
       <r>    7.3144    0.0000 </r>
       <r>   10.2542    0.0000 </r>
       <r>   11.4049    0.0000 </r>
       <r>   11.6663    0.0000 </r>
      </set>
      <set comment="kpoint 227">
       <r>   -3.4841    1.0000 </r>
       <r>   -0.6299    1.0000 </r>
       <r>    2.2086    1.0000 </r>
       <r>    3.5979    1.0000 </r>
       <r>    7.3144    0.0000 </r>
       <r>   10.2542    0.0000 </r>
       <r>   11.4049    0.0000 </r>
       <r>   11.6663    0.0000 </r>
      </set>
      <set comment="kpoint 228">
       <r>   -4.4007    1.0000 </r>
       <r>    0.7785    1.0000 </r>
       <r>    3.0965    1.0000 </r>
       <r>    3.5907    1.0000 </r>
       <r>    7.1481    0.0000 </r>
       <r>    8.6663    0.0000 </r>
       <r>   11.6696    0.0000 </r>
       <r>   11.9941    0.0000 </r>
      </set>
      <set comment="kpoint 229">
       <r>   -4.4007    1.0000 </r>
       <r>    0.7785    1.0000 </r>
       <r>    3.0965    1.0000 </r>
       <r>    3.5907    1.0000 </r>
       <r>    7.1481    0.0000 </r>
       <r>    8.6663    0.0000 </r>
       <r>   11.6696    0.0000 </r>
       <r>   11.9941    0.0000 </r>
      </set>
      <set comment="kpoint 230">
       <r>   -4.4007    1.0000 </r>
       <r>    0.7785    1.0000 </r>
       <r>    3.0965    1.0000 </r>
       <r>    3.5907    1.0000 </r>
       <r>    7.1481    0.0000 </r>
       <r>    8.6663    0.0000 </r>
       <r>   11.6696    0.0000 </r>
       <r>   11.9941    0.0000 </r>
      </set>
      <set comment="kpoint 231">
       <r>   -4.4007    1.0000 </r>
       <r>    0.7785    1.0000 </r>
       <r>    3.0965    1.0000 </r>
       <r>    3.5907    1.0000 </r>
       <r>    7.1481    0.0000 </r>
       <r>    8.6663    0.0000 </r>
       <r>   11.6696    0.0000 </r>
       <r>   11.9941    0.0000 </r>
      </set>
      <set comment="kpoint 232">
       <r>   -3.0663    1.0000 </r>
       <r>   -0.8341    1.0000 </r>
       <r>    1.5233    1.0000 </r>
       <r>    3.2104    1.0000 </r>
       <r>    8.6739    0.0000 </r>
       <r>   10.2570    0.0000 </r>
       <r>   10.9288    0.0000 </r>
       <r>   12.8405    0.0000 </r>
      </set>
      <set comment="kpoint 233">
       <r>   -3.0663    1.0000 </r>
       <r>   -0.8341    1.0000 </r>
       <r>    1.5233    1.0000 </r>
       <r>    3.2104    1.0000 </r>
       <r>    8.6739    0.0000 </r>
       <r>   10.2570    0.0000 </r>
       <r>   10.9288    0.0000 </r>
       <r>   12.8405    0.0000 </r>
      </set>
      <set comment="kpoint 234">
       <r>   -3.0663    1.0000 </r>
       <r>   -0.8341    1.0000 </r>
       <r>    1.5233    1.0000 </r>
       <r>    3.2104    1.0000 </r>
       <r>    8.6739    0.0000 </r>
       <r>   10.2570    0.0000 </r>
       <r>   10.9288    0.0000 </r>
       <r>   12.8405    0.0000 </r>
      </set>
      <set comment="kpoint 235">
       <r>   -3.0663    1.0000 </r>
       <r>   -0.8341    1.0000 </r>
       <r>    1.5233    1.0000 </r>
       <r>    3.2104    1.0000 </r>
       <r>    8.6739    0.0000 </r>
       <r>   10.2570    0.0000 </r>
       <r>   10.9288    0.0000 </r>
       <r>   12.8405    0.0000 </r>
      </set>
      <set comment="kpoint 236">
       <r>   -2.7406    1.0000 </r>
       <r>   -1.1891    1.0000 </r>
       <r>    1.7137    1.0000 </r>
       <r>    2.8298    1.0000 </r>
       <r>    8.1951    0.0000 </r>
       <r>   10.0900    0.0000 </r>
       <r>   10.9968    0.0000 </r>
       <r>   13.1292    0.0000 </r>
      </set>
      <set comment="kpoint 237">
       <r>   -2.7406    1.0000 </r>
       <r>   -1.1891    1.0000 </r>
       <r>    1.7137    1.0000 </r>
       <r>    2.8298    1.0000 </r>
       <r>    8.1951    0.0000 </r>
       <r>   10.0900    0.0000 </r>
       <r>   10.9968    0.0000 </r>
       <r>   13.1292    0.0000 </r>
      </set>
      <set comment="kpoint 238">
       <r>   -2.7406    1.0000 </r>
       <r>   -1.1891    1.0000 </r>
       <r>    1.7137    1.0000 </r>
       <r>    2.8298    1.0000 </r>
       <r>    8.1951    0.0000 </r>
       <r>   10.0900    0.0000 </r>
       <r>   10.9968    0.0000 </r>
       <r>   13.1292    0.0000 </r>
      </set>
      <set comment="kpoint 239">
       <r>   -2.7406    1.0000 </r>
       <r>   -1.1891    1.0000 </r>
       <r>    1.7137    1.0000 </r>
       <r>    2.8298    1.0000 </r>
       <r>    8.1951    0.0000 </r>
       <r>   10.0900    0.0000 </r>
       <r>   10.9968    0.0000 </r>
       <r>   13.1292    0.0000 </r>
      </set>
      <set comment="kpoint 240">
       <r>   -2.7406    1.0000 </r>
       <r>   -1.1891    1.0000 </r>
       <r>    1.7137    1.0000 </r>
       <r>    2.8298    1.0000 </r>
       <r>    8.1951    0.0000 </r>
       <r>   10.0900    0.0000 </r>
       <r>   10.9968    0.0000 </r>
       <r>   13.1292    0.0000 </r>
      </set>
      <set comment="kpoint 241">
       <r>   -2.7406    1.0000 </r>
       <r>   -1.1891    1.0000 </r>
       <r>    1.7137    1.0000 </r>
       <r>    2.8298    1.0000 </r>
       <r>    8.1951    0.0000 </r>
       <r>   10.0900    0.0000 </r>
       <r>   10.9968    0.0000 </r>
       <r>   13.1292    0.0000 </r>
      </set>
      <set comment="kpoint 242">
       <r>   -2.7406    1.0000 </r>
       <r>   -1.1891    1.0000 </r>
       <r>    1.7137    1.0000 </r>
       <r>    2.8298    1.0000 </r>
       <r>    8.1951    0.0000 </r>
       <r>   10.0900    0.0000 </r>
       <r>   10.9968    0.0000 </r>
       <r>   13.1292    0.0000 </r>
      </set>
      <set comment="kpoint 243">
       <r>   -2.7406    1.0000 </r>
       <r>   -1.1891    1.0000 </r>
       <r>    1.7137    1.0000 </r>
       <r>    2.8298    1.0000 </r>
       <r>    8.1951    0.0000 </r>
       <r>   10.0900    0.0000 </r>
       <r>   10.9968    0.0000 </r>
       <r>   13.1292    0.0000 </r>
      </set>
      <set comment="kpoint 244">
       <r>   -3.6115    1.0000 </r>
       <r>   -0.2392    1.0000 </r>
       <r>    2.4412    1.0000 </r>
       <r>    3.0128    1.0000 </r>
       <r>    7.7576    0.0000 </r>
       <r>    8.4365    0.0000 </r>
       <r>   11.4697    0.0000 </r>
       <r>   13.6613    0.0000 </r>
      </set>
      <set comment="kpoint 245">
       <r>   -3.6115    1.0000 </r>
       <r>   -0.2392    1.0000 </r>
       <r>    2.4412    1.0000 </r>
       <r>    3.0128    1.0000 </r>
       <r>    7.7576    0.0000 </r>
       <r>    8.4365    0.0000 </r>
       <r>   11.4697    0.0000 </r>
       <r>   13.6613    0.0000 </r>
      </set>
      <set comment="kpoint 246">
       <r>   -3.6115    1.0000 </r>
       <r>   -0.2392    1.0000 </r>
       <r>    2.4412    1.0000 </r>
       <r>    3.0128    1.0000 </r>
       <r>    7.7576    0.0000 </r>
       <r>    8.4365    0.0000 </r>
       <r>   11.4697    0.0000 </r>
       <r>   13.6613    0.0000 </r>
      </set>
      <set comment="kpoint 247">
       <r>   -3.6115    1.0000 </r>
       <r>   -0.2392    1.0000 </r>
       <r>    2.4412    1.0000 </r>
       <r>    3.0128    1.0000 </r>
       <r>    7.7576    0.0000 </r>
       <r>    8.4365    0.0000 </r>
       <r>   11.4697    0.0000 </r>
       <r>   13.6613    0.0000 </r>
      </set>
      <set comment="kpoint 248">
       <r>   -1.8984    1.0000 </r>
       <r>   -1.8984    1.0000 </r>
       <r>    1.9218    1.0000 </r>
       <r>    1.9218    1.0000 </r>
       <r>   10.0405    0.0000 </r>
       <r>   10.0405    0.0000 </r>
       <r>   10.7557    0.0000 </r>
       <r>   10.7557    0.0000 </r>
      </set>
      <set comment="kpoint 249">
       <r>   -1.8984    1.0000 </r>
       <r>   -1.8984    1.0000 </r>
       <r>    1.9218    1.0000 </r>
       <r>    1.9218    1.0000 </r>
       <r>   10.0405    0.0000 </r>
       <r>   10.0405    0.0000 </r>
       <r>   10.7557    0.0000 </r>
       <r>   10.7557    0.0000 </r>
      </set>
      <set comment="kpoint 250">
       <r>   -1.8778    1.0000 </r>
       <r>   -1.8778    1.0000 </r>
       <r>    1.9253    1.0000 </r>
       <r>    1.9253    1.0000 </r>
       <r>    9.9305    0.0000 </r>
       <r>    9.9305    0.0000 </r>
       <r>   10.6176    0.0000 </r>
       <r>   10.6176    0.0000 </r>
      </set>
      <set comment="kpoint 251">
       <r>   -3.8111    1.0000 </r>
       <r>   -0.0439    1.0000 </r>
       <r>    3.1986    1.0000 </r>
       <r>    3.1986    1.0000 </r>
       <r>    6.4252    0.0000 </r>
       <r>    7.3200    0.0000 </r>
       <r>   13.7290    0.0000 </r>
       <r>   13.7290    0.0000 </r>
      </set>
      <set comment="kpoint 252">
       <r>   -2.4766    1.0000 </r>
       <r>   -1.4990    1.0000 </r>
       <r>    1.4748    1.0000 </r>
       <r>    3.3824    1.0000 </r>
       <r>    7.0085    0.0000 </r>
       <r>    9.9445    0.0000 </r>
       <r>   13.1793    0.0000 </r>
       <r>   13.6614    0.0000 </r>
      </set>
      <set comment="kpoint 253">
       <r>   -2.4766    1.0000 </r>
       <r>   -1.4990    1.0000 </r>
       <r>    1.4748    1.0000 </r>
       <r>    3.3824    1.0000 </r>
       <r>    7.0085    0.0000 </r>
       <r>    9.9445    0.0000 </r>
       <r>   13.1793    0.0000 </r>
       <r>   13.6614    0.0000 </r>
      </set>
      <set comment="kpoint 254">
       <r>   -2.9262    1.0000 </r>
       <r>   -1.1100    1.0000 </r>
       <r>    2.3611    1.0000 </r>
       <r>    3.1254    1.0000 </r>
       <r>    6.6998    0.0000 </r>
       <r>    7.7732    0.0000 </r>
       <r>   13.9809    0.0000 </r>
       <r>   14.0244    0.0000 </r>
      </set>
      <set comment="kpoint 255">
       <r>   -2.9262    1.0000 </r>
       <r>   -1.1100    1.0000 </r>
       <r>    2.3611    1.0000 </r>
       <r>    3.1254    1.0000 </r>
       <r>    6.6998    0.0000 </r>
       <r>    7.7732    0.0000 </r>
       <r>   13.9809    0.0000 </r>
       <r>   14.0244    0.0000 </r>
      </set>
      <set comment="kpoint 256">
       <r>   -2.9262    1.0000 </r>
       <r>   -1.1100    1.0000 </r>
       <r>    2.3611    1.0000 </r>
       <r>    3.1254    1.0000 </r>
       <r>    6.6998    0.0000 </r>
       <r>    7.7732    0.0000 </r>
       <r>   13.9809    0.0000 </r>
       <r>   14.0244    0.0000 </r>
      </set>
      <set comment="kpoint 257">
       <r>   -2.9262    1.0000 </r>
       <r>   -1.1100    1.0000 </r>
       <r>    2.3611    1.0000 </r>
       <r>    3.1254    1.0000 </r>
       <r>    6.6998    0.0000 </r>
       <r>    7.7732    0.0000 </r>
       <r>   13.9809    0.0000 </r>
       <r>   14.0244    0.0000 </r>
      </set>
      <set comment="kpoint 258">
       <r>   -2.0052    1.0000 </r>
       <r>   -2.0052    1.0000 </r>
       <r>    2.3832    1.0000 </r>
       <r>    2.3832    1.0000 </r>
       <r>    7.7809    0.0000 </r>
       <r>    7.7809    0.0000 </r>
       <r>   13.5449    0.0000 </r>
       <r>   13.5449    0.0000 </r>
      </set>
      <set comment="kpoint 259">
       <r>   -2.0052    1.0000 </r>
       <r>   -2.0052    1.0000 </r>
       <r>    2.3832    1.0000 </r>
       <r>    2.3832    1.0000 </r>
       <r>    7.7809    0.0000 </r>
       <r>    7.7809    0.0000 </r>
       <r>   13.5449    0.0000 </r>
       <r>   13.5449    0.0000 </r>
      </set>
      <set comment="kpoint 260">
       <r>   -2.0896    1.0000 </r>
       <r>   -2.0896    1.0000 </r>
       <r>    2.9576    1.0000 </r>
       <r>    2.9576    1.0000 </r>
       <r>    6.5163    0.0000 </r>
       <r>    6.5163    0.0000 </r>
       <r>   15.7788    0.0000 </r>
       <r>   15.7788    0.0000 </r>
      </set>
     </set>
    </set>
   </array>
  </eigenvalues>
  <separator name="orbital magnetization" >
   <v name="MAGDIPOLOUT">      0.00000000      0.00000000      0.00000000</v>
  </separator>
  <dos>
   <i name="efermi">      6.01685171 </i>
   <total>
    <array>
     <dimension dim="1">gridpoints</dimension>
     <dimension dim="2">spin</dimension>
     <field>energy</field>
     <field>total</field>
     <field>integrated</field>
     <set>
      <set comment="spin 1">
       <r>    -7.2580     0.0000     0.0000 </r>
       <r>    -7.1776     0.0000     0.0000 </r>
       <r>    -7.0971     0.0000     0.0000 </r>
       <r>    -7.0167     0.0000     0.0000 </r>
       <r>    -6.9363     0.0000     0.0000 </r>
       <r>    -6.8558     0.0000     0.0000 </r>
       <r>    -6.7754     0.0000     0.0000 </r>
       <r>    -6.6949     0.0000     0.0000 </r>
       <r>    -6.6145     0.0000     0.0000 </r>
       <r>    -6.5340     0.0000     0.0000 </r>
       <r>    -6.4536     0.0000     0.0000 </r>
       <r>    -6.3731     0.0000     0.0000 </r>
       <r>    -6.2927     0.0000     0.0000 </r>
       <r>    -6.2122     0.0036     0.0003 </r>
       <r>    -6.1318     0.0351     0.0031 </r>
       <r>    -6.0513     0.0115     0.0040 </r>
       <r>    -5.9709     0.1430     0.0155 </r>
       <r>    -5.8905     0.3786     0.0460 </r>
       <r>    -5.8100     0.1532     0.0583 </r>
       <r>    -5.7296     0.0043     0.0587 </r>
       <r>    -5.6491     0.1441     0.0703 </r>
       <r>    -5.5687     0.4054     0.1029 </r>
       <r>    -5.4882     0.0780     0.1091 </r>
       <r>    -5.4078     0.8098     0.1743 </r>
       <r>    -5.3273     0.6464     0.2263 </r>
       <r>    -5.2469     0.0518     0.2305 </r>
       <r>    -5.1664     0.0046     0.2308 </r>
       <r>    -5.0860     0.1468     0.2426 </r>
       <r>    -5.0055     0.1470     0.2545 </r>
       <r>    -4.9251     0.5403     0.2979 </r>
       <r>    -4.8446     1.1568     0.3910 </r>
       <r>    -4.7642     0.6095     0.4400 </r>
       <r>    -4.6838     0.0556     0.4445 </r>
       <r>    -4.6033     0.7286     0.5031 </r>
       <r>    -4.5229     0.4440     0.5388 </r>
       <r>    -4.4424     0.3626     0.5680 </r>
       <r>    -4.3620     0.8193     0.6339 </r>
       <r>    -4.2815     0.3230     0.6599 </r>
       <r>    -4.2011     0.0223     0.6617 </r>
       <r>    -4.1206     0.3648     0.6910 </r>
       <r>    -4.0402     0.4475     0.7270 </r>
       <r>    -3.9597     2.0588     0.8927 </r>
       <r>    -3.8793     1.2127     0.9902 </r>
       <r>    -3.7988     0.4792     1.0288 </r>
       <r>    -3.7184     1.0348     1.1120 </r>
       <r>    -3.6380     0.2384     1.1312 </r>
       <r>    -3.5575     0.8148     1.1967 </r>
       <r>    -3.4771     0.6856     1.2519 </r>
       <r>    -3.3966     0.6888     1.3073 </r>
       <r>    -3.3162     0.7262     1.3657 </r>
       <r>    -3.2357     1.3845     1.4771 </r>
       <r>    -3.1553     0.2479     1.4970 </r>
       <r>    -3.0748     0.5370     1.5402 </r>
       <r>    -2.9944     0.6096     1.5893 </r>
       <r>    -2.9139     0.3985     1.6213 </r>
       <r>    -2.8335     0.7115     1.6786 </r>
       <r>    -2.7530     0.5832     1.7255 </r>
       <r>    -2.6726     1.6254     1.8562 </r>
       <r>    -2.5922     0.1844     1.8711 </r>
       <r>    -2.5117     0.0589     1.8758 </r>
       <r>    -2.4313     0.4230     1.9098 </r>
       <r>    -2.3508     0.1006     1.9179 </r>
       <r>    -2.2704     0.0004     1.9180 </r>
       <r>    -2.1899     0.0002     1.9180 </r>
       <r>    -2.1095     0.0310     1.9205 </r>
       <r>    -2.0290     0.2817     1.9431 </r>
       <r>    -1.9486     0.8638     2.0126 </r>
       <r>    -1.8681     0.7066     2.0695 </r>
       <r>    -1.7877     0.1547     2.0819 </r>
       <r>    -1.7072     0.0014     2.0820 </r>
       <r>    -1.6268     0.0000     2.0820 </r>
       <r>    -1.5464     0.0185     2.0835 </r>
       <r>    -1.4659     0.2578     2.1043 </r>
       <r>    -1.3855     0.2906     2.1276 </r>
       <r>    -1.3050     0.0164     2.1290 </r>
       <r>    -1.2246     0.2298     2.1474 </r>
       <r>    -1.1441     1.8282     2.2945 </r>
       <r>    -1.0637     1.2408     2.3943 </r>
       <r>    -0.9832     1.7945     2.5387 </r>
       <r>    -0.9028     1.1980     2.6351 </r>
       <r>    -0.8223     1.2642     2.7368 </r>
       <r>    -0.7419     0.7569     2.7976 </r>
       <r>    -0.6614     0.2739     2.8197 </r>
       <r>    -0.5810     1.6760     2.9545 </r>
       <r>    -0.5006     0.4176     2.9881 </r>
       <r>    -0.4201     0.0022     2.9883 </r>
       <r>    -0.3397     0.0009     2.9884 </r>
       <r>    -0.2592     0.1563     3.0009 </r>
       <r>    -0.1788     0.9904     3.0806 </r>
       <r>    -0.0983     1.1997     3.1771 </r>
       <r>    -0.0179     1.5473     3.3016 </r>
       <r>     0.0626     0.2506     3.3218 </r>
       <r>     0.1430     0.0309     3.3242 </r>
       <r>     0.2235     0.0621     3.3292 </r>
       <r>     0.3039     0.3999     3.3614 </r>
       <r>     0.3844     0.1259     3.3715 </r>
       <r>     0.4648     0.4460     3.4074 </r>
       <r>     0.5452     0.6860     3.4626 </r>
       <r>     0.6257     0.0279     3.4648 </r>
       <r>     0.7061     0.0086     3.4655 </r>
       <r>     0.7866     0.3726     3.4955 </r>
       <r>     0.8670     0.7211     3.5535 </r>
       <r>     0.9475     0.0630     3.5586 </r>
       <r>     1.0279     0.0034     3.5589 </r>
       <r>     1.1084     0.3353     3.5858 </r>
       <r>     1.1888     0.7717     3.6479 </r>
       <r>     1.2693     0.0550     3.6523 </r>
       <r>     1.3497     0.0026     3.6525 </r>
       <r>     1.4302     0.3544     3.6811 </r>
       <r>     1.5106     1.4084     3.7944 </r>
       <r>     1.5911     0.9612     3.8717 </r>
       <r>     1.6715     0.4489     3.9078 </r>
       <r>     1.7519     2.0338     4.0714 </r>
       <r>     1.8324     1.3096     4.1768 </r>
       <r>     1.9128     0.5067     4.2175 </r>
       <r>     1.9933     0.5025     4.2580 </r>
       <r>     2.0737     0.3766     4.2882 </r>
       <r>     2.1542     0.1215     4.2980 </r>
       <r>     2.2346     0.7631     4.3594 </r>
       <r>     2.3151     1.8778     4.5105 </r>
       <r>     2.3955     2.7820     4.7343 </r>
       <r>     2.4760     2.5487     4.9393 </r>
       <r>     2.5564     1.4160     5.0532 </r>
       <r>     2.6369     0.1635     5.0664 </r>
       <r>     2.7173     0.0299     5.0688 </r>
       <r>     2.7977     0.9802     5.1476 </r>
       <r>     2.8782     1.3297     5.2546 </r>
       <r>     2.9586     0.3886     5.2859 </r>
       <r>     3.0391     1.9410     5.4420 </r>
       <r>     3.1195     2.9336     5.6780 </r>
       <r>     3.2000     1.5869     5.8057 </r>
       <r>     3.2804     0.9784     5.8844 </r>
       <r>     3.3609     1.0240     5.9668 </r>
       <r>     3.4413     1.0622     6.0522 </r>
       <r>     3.5218     2.0205     6.2148 </r>
       <r>     3.6022     2.0520     6.3798 </r>
       <r>     3.6827     0.8468     6.4480 </r>
       <r>     3.7631     0.1888     6.4631 </r>
       <r>     3.8435     2.1825     6.6387 </r>
       <r>     3.9240     2.2120     6.8167 </r>
       <r>     4.0044     0.6649     6.8701 </r>
       <r>     4.0849     0.1986     6.8861 </r>
       <r>     4.1653     1.6518     7.0190 </r>
       <r>     4.2458     1.3103     7.1244 </r>
       <r>     4.3262     0.8826     7.1954 </r>
       <r>     4.4067     1.3587     7.3047 </r>
       <r>     4.4871     2.1275     7.4759 </r>
       <r>     4.5676     1.5048     7.5969 </r>
       <r>     4.6480     0.5542     7.6415 </r>
       <r>     4.7285     0.3472     7.6694 </r>
       <r>     4.8089     0.0795     7.6758 </r>
       <r>     4.8893     0.1699     7.6895 </r>
       <r>     4.9698     1.2755     7.7921 </r>
       <r>     5.0502     0.9585     7.8692 </r>
       <r>     5.1307     0.1199     7.8789 </r>
       <r>     5.2111     0.0004     7.8789 </r>
       <r>     5.2916     0.0001     7.8789 </r>
       <r>     5.3720     0.0653     7.8842 </r>
       <r>     5.4525     0.7141     7.9416 </r>
       <r>     5.5329     0.5484     7.9857 </r>
       <r>     5.6134     0.0327     7.9884 </r>
       <r>     5.6938     0.0317     7.9909 </r>
       <r>     5.7743     0.0832     7.9976 </r>
       <r>     5.8547     0.0295     8.0000 </r>
       <r>     5.9351     0.0003     8.0000 </r>
       <r>     6.0156     0.0000     8.0000 </r>
       <r>     6.0960     0.0000     8.0000 </r>
       <r>     6.1765     0.0000     8.0000 </r>
       <r>     6.2569     0.0024     8.0002 </r>
       <r>     6.3374     0.0985     8.0081 </r>
       <r>     6.4178     0.1880     8.0232 </r>
       <r>     6.4983     0.2162     8.0406 </r>
       <r>     6.5787     0.1710     8.0544 </r>
       <r>     6.6592     0.6308     8.1051 </r>
       <r>     6.7396     0.3904     8.1366 </r>
       <r>     6.8201     0.0920     8.1440 </r>
       <r>     6.9005     0.2545     8.1644 </r>
       <r>     6.9809     0.4026     8.1968 </r>
       <r>     7.0614     0.4946     8.2366 </r>
       <r>     7.1418     0.6131     8.2859 </r>
       <r>     7.2223     0.5419     8.3295 </r>
       <r>     7.3027     0.9635     8.4070 </r>
       <r>     7.3832     0.6346     8.4581 </r>
       <r>     7.4636     0.1348     8.4689 </r>
       <r>     7.5441     0.2803     8.4915 </r>
       <r>     7.6245     0.8913     8.5632 </r>
       <r>     7.7050     2.0545     8.7285 </r>
       <r>     7.7854     1.6439     8.8607 </r>
       <r>     7.8659     1.1462     8.9529 </r>
       <r>     7.9463     1.5734     9.0795 </r>
       <r>     8.0268     1.3935     9.1916 </r>
       <r>     8.1072     1.8316     9.3389 </r>
       <r>     8.1876     2.1663     9.5132 </r>
       <r>     8.2681     1.3494     9.6218 </r>
       <r>     8.3485     0.5903     9.6692 </r>
       <r>     8.4290     1.2634     9.7709 </r>
       <r>     8.5094     0.9283     9.8456 </r>
       <r>     8.5899     1.5108     9.9671 </r>
       <r>     8.6703     2.3138    10.1532 </r>
       <r>     8.7508     2.0274    10.3163 </r>
       <r>     8.8312     1.3319    10.4235 </r>
       <r>     8.9117     1.4323    10.5387 </r>
       <r>     8.9921     0.4913    10.5782 </r>
       <r>     9.0726     0.3919    10.6098 </r>
       <r>     9.1530     0.8457    10.6778 </r>
       <r>     9.2334     1.9049    10.8310 </r>
       <r>     9.3139     2.6150    11.0414 </r>
       <r>     9.3943     3.0578    11.2874 </r>
       <r>     9.4748     2.3121    11.4734 </r>
       <r>     9.5552     0.8124    11.5387 </r>
       <r>     9.6357     2.0201    11.7012 </r>
       <r>     9.7161     0.7907    11.7649 </r>
       <r>     9.7966     0.3209    11.7907 </r>
       <r>     9.8770     1.1558    11.8836 </r>
       <r>     9.9575     1.7353    12.0233 </r>
       <r>    10.0379     1.6926    12.1594 </r>
       <r>    10.1184     1.3324    12.2666 </r>
       <r>    10.1988     2.2845    12.4504 </r>
       <r>    10.2792     1.6626    12.5841 </r>
       <r>    10.3597     0.6129    12.6334 </r>
       <r>    10.4401     0.5731    12.6795 </r>
       <r>    10.5206     1.1963    12.7758 </r>
       <r>    10.6010     0.4261    12.8100 </r>
       <r>    10.6815     0.5863    12.8572 </r>
       <r>    10.7619     1.3373    12.9648 </r>
       <r>    10.8424     1.2720    13.0671 </r>
       <r>    10.9228     1.3893    13.1789 </r>
       <r>    11.0033     1.0198    13.2609 </r>
       <r>    11.0837     1.2434    13.3609 </r>
       <r>    11.1642     1.8457    13.5094 </r>
       <r>    11.2446     2.0203    13.6719 </r>
       <r>    11.3250     1.4230    13.7864 </r>
       <r>    11.4055     1.0407    13.8701 </r>
       <r>    11.4859     1.1704    13.9643 </r>
       <r>    11.5664     1.0475    14.0486 </r>
       <r>    11.6468     2.4227    14.2435 </r>
       <r>    11.7273     2.4918    14.4439 </r>
       <r>    11.8077     0.7593    14.5050 </r>
       <r>    11.8882     0.4024    14.5374 </r>
       <r>    11.9686     0.6021    14.5858 </r>
       <r>    12.0491     1.5854    14.7133 </r>
       <r>    12.1295     0.1642    14.7265 </r>
       <r>    12.2100     0.0003    14.7266 </r>
       <r>    12.2904     0.0000    14.7266 </r>
       <r>    12.3708     0.0000    14.7266 </r>
       <r>    12.4513     0.0001    14.7266 </r>
       <r>    12.5317     0.0533    14.7309 </r>
       <r>    12.6122     0.6497    14.7831 </r>
       <r>    12.6926     0.9163    14.8568 </r>
       <r>    12.7731     0.8652    14.9264 </r>
       <r>    12.8535     0.8440    14.9943 </r>
       <r>    12.9340     0.5448    15.0382 </r>
       <r>    13.0144     0.3210    15.0640 </r>
       <r>    13.0949     1.3063    15.1691 </r>
       <r>    13.1753     1.3648    15.2789 </r>
       <r>    13.2558     0.8576    15.3479 </r>
       <r>    13.3362     0.2395    15.3671 </r>
       <r>    13.4166     0.1569    15.3797 </r>
       <r>    13.4971     0.4324    15.4145 </r>
       <r>    13.5775     0.8411    15.4822 </r>
       <r>    13.6580     2.0218    15.6448 </r>
       <r>    13.7384     0.9147    15.7184 </r>
       <r>    13.8189     0.6918    15.7741 </r>
       <r>    13.8993     0.7155    15.8316 </r>
       <r>    13.9798     0.4752    15.8699 </r>
       <r>    14.0602     0.5292    15.9124 </r>
       <r>    14.1407     0.6094    15.9615 </r>
       <r>    14.2211     0.1867    15.9765 </r>
       <r>    14.3016     0.0011    15.9766 </r>
       <r>    14.3820     0.0000    15.9766 </r>
       <r>    14.4625     0.0000    15.9766 </r>
       <r>    14.5429     0.0000    15.9766 </r>
       <r>    14.6233     0.0000    15.9766 </r>
       <r>    14.7038     0.0000    15.9766 </r>
       <r>    14.7842     0.0000    15.9766 </r>
       <r>    14.8647     0.0000    15.9766 </r>
       <r>    14.9451     0.0000    15.9766 </r>
       <r>    15.0256     0.0000    15.9766 </r>
       <r>    15.1060     0.0000    15.9766 </r>
       <r>    15.1865     0.0000    15.9766 </r>
       <r>    15.2669     0.0000    15.9766 </r>
       <r>    15.3474     0.0000    15.9766 </r>
       <r>    15.4278     0.0000    15.9766 </r>
       <r>    15.5083     0.0000    15.9766 </r>
       <r>    15.5887     0.0000    15.9766 </r>
       <r>    15.6691     0.0024    15.9768 </r>
       <r>    15.7496     0.1160    15.9861 </r>
       <r>    15.8300     0.1636    15.9993 </r>
       <r>    15.9105     0.0093    16.0000 </r>
       <r>    15.9909     0.0000    16.0000 </r>
       <r>    16.0714     0.0000    16.0000 </r>
       <r>    16.1518     0.0000    16.0000 </r>
       <r>    16.2323     0.0000    16.0000 </r>
       <r>    16.3127     0.0000    16.0000 </r>
       <r>    16.3932     0.0000    16.0000 </r>
       <r>    16.4736     0.0000    16.0000 </r>
       <r>    16.5541     0.0000    16.0000 </r>
       <r>    16.6345     0.0000    16.0000 </r>
       <r>    16.7149     0.0000    16.0000 </r>
       <r>    16.7954     0.0000    16.0000 </r>
       <r>    16.8758     0.0000    16.0000 </r>
      </set>
     </set>
    </array>
   </total>
  </dos>
 </calculation>
 <structure name="finalpos" >
  <crystal>
   <varray name="basis" >
    <v>       0.00000000       2.71500000       2.71500000 </v>
    <v>       2.74215000       0.00000000       2.71500000 </v>
    <v>       2.74215000       2.71500000       0.00000000 </v>
   </varray>
   <i name="volume">     40.42600927 </i>
   <varray name="rec_basis" >
    <v>      -0.18233868       0.18416206       0.18416206 </v>
    <v>       0.18233868      -0.18416206       0.18416206 </v>
    <v>       0.18233868       0.18416206      -0.18416206 </v>
   </varray>
  </crystal>
  <varray name="positions" >
   <v>       0.00000000       0.00000000       0.00000000 </v>
   <v>       0.25000000       0.25000000       0.25000000 </v>
  </varray>
 </structure>
</modeling>
