<?xml version="1.0" encoding="ISO-8859-1"?>
<modeling>
 <generator>
  <i name="program" type="string">vasp </i>
  <i name="version" type="string">6.3.0  </i>
  <i name="subversion" type="string">20Jan22 (build Mar 29 2022 17:59:55) complex                          parallel </i>
  <i name="platform" type="string">IFC91_ompi </i>
  <i name="date" type="string">2026 07 23 </i>
  <i name="time" type="string">12:36:33 </i>
 </generator>
 <incar>
  <i type="int" name="ISTART">     0</i>
  <i type="string" name="PREC">Accurate</i>
  <i type="int" name="ICHARG">    11</i>
  <i type="int" name="ISYM">     0</i>
  <i name="ENCUT">    320.00000000</i>
  <i type="int" name="ISMEAR">     0</i>
  <i name="SIGMA">      0.05000000</i>
  <i type="int" name="LORBIT">    11</i>
  <i type="string" name="GGA">PE</i>
 </incar>
 <primitive_cell>
  <structure name="primitive_cell" >
   <crystal>
    <varray name="basis" >
     <v>       0.00000000       2.71500000       2.71500000 </v>
     <v>       2.74215000       0.00000000       2.71500000 </v>
     <v>       2.74215000       2.71500000       0.00000000 </v>
    </varray>
    <i name="volume">     40.42600927 </i>
    <varray name="rec_basis" >
     <v>      -0.18233868       0.18416206       0.18416206 </v>
     <v>       0.18233868      -0.18416206       0.18416206 </v>
     <v>       0.18233868       0.18416206      -0.18416206 </v>
    </varray>
   </crystal>
   <varray name="positions" >
    <v>       0.00000000       0.00000000       0.00000000 </v>
    <v>       0.25000000       0.25000000       0.25000000 </v>
   </varray>
  </structure>
  <varray name="primitive_index" >
   <v type="int" >        1 </v>
   <v type="int" >        2 </v>
  </varray>
 </primitive_cell>
 <kpoints>
  <generation param="listgenerated">
   <i name="divisions" type="int">      40 </i>
   <v>       0.00000000       0.50000000       0.50000000 </v>
   <v>       0.00000000       0.00000000       0.00000000 </v>
   <v>       0.50000000       0.00000000       0.50000000 </v>
  </generation>
  <varray name="kpointlist" >
   <v>       0.00000000       0.50000000       0.50000000 </v>
   <v>       0.00000000       0.48717949       0.48717949 </v>
   <v>       0.00000000       0.47435897       0.47435897 </v>
   <v>       0.00000000       0.46153846       0.46153846 </v>
   <v>       0.00000000       0.44871795       0.44871795 </v>
   <v>       0.00000000       0.43589744       0.43589744 </v>
   <v>       0.00000000       0.42307692       0.42307692 </v>
   <v>       0.00000000       0.41025641       0.41025641 </v>
   <v>       0.00000000       0.39743590       0.39743590 </v>
   <v>       0.00000000       0.38461538       0.38461538 </v>
   <v>       0.00000000       0.37179487       0.37179487 </v>
   <v>       0.00000000       0.35897436       0.35897436 </v>
   <v>       0.00000000       0.34615385       0.34615385 </v>
   <v>       0.00000000       0.33333333       0.33333333 </v>
   <v>       0.00000000       0.32051282       0.32051282 </v>
   <v>       0.00000000       0.30769231       0.30769231 </v>
   <v>       0.00000000       0.29487179       0.29487179 </v>
   <v>       0.00000000       0.28205128       0.28205128 </v>
   <v>       0.00000000       0.26923077       0.26923077 </v>
   <v>       0.00000000       0.25641026       0.25641026 </v>
   <v>       0.00000000       0.24358974       0.24358974 </v>
   <v>       0.00000000       0.23076923       0.23076923 </v>
   <v>       0.00000000       0.21794872       0.21794872 </v>
   <v>       0.00000000       0.20512821       0.20512821 </v>
   <v>       0.00000000       0.19230769       0.19230769 </v>
   <v>       0.00000000       0.17948718       0.17948718 </v>
   <v>       0.00000000       0.16666667       0.16666667 </v>
   <v>       0.00000000       0.15384615       0.15384615 </v>
   <v>       0.00000000       0.14102564       0.14102564 </v>
   <v>       0.00000000       0.12820513       0.12820513 </v>
   <v>       0.00000000       0.11538462       0.11538462 </v>
   <v>       0.00000000       0.10256410       0.10256410 </v>
   <v>       0.00000000       0.08974359       0.08974359 </v>
   <v>       0.00000000       0.07692308       0.07692308 </v>
   <v>       0.00000000       0.06410256       0.06410256 </v>
   <v>       0.00000000       0.05128205       0.05128205 </v>
   <v>       0.00000000       0.03846154       0.03846154 </v>
   <v>       0.00000000       0.02564103       0.02564103 </v>
   <v>       0.00000000       0.01282051       0.01282051 </v>
   <v>       0.00000000       0.00000000       0.00000000 </v>
   <v>       0.00000000       0.00000000       0.00000000 </v>
   <v>       0.01282051       0.00000000       0.01282051 </v>
   <v>       0.02564103       0.00000000       0.02564103 </v>
   <v>       0.03846154       0.00000000       0.03846154 </v>
   <v>       0.05128205       0.00000000       0.05128205 </v>
   <v>       0.06410256       0.00000000       0.06410256 </v>
   <v>       0.07692308       0.00000000       0.07692308 </v>
   <v>       0.08974359       0.00000000       0.08974359 </v>
   <v>       0.10256410       0.00000000       0.10256410 </v>
   <v>       0.11538462       0.00000000       0.11538462 </v>
   <v>       0.12820513       0.00000000       0.12820513 </v>
   <v>       0.14102564       0.00000000       0.14102564 </v>
   <v>       0.15384615       0.00000000       0.15384615 </v>
   <v>       0.16666667       0.00000000       0.16666667 </v>
   <v>       0.17948718       0.00000000       0.17948718 </v>
   <v>       0.19230769       0.00000000       0.19230769 </v>
   <v>       0.20512821       0.00000000       0.20512821 </v>
   <v>       0.21794872       0.00000000       0.21794872 </v>
   <v>       0.23076923       0.00000000       0.23076923 </v>
   <v>       0.24358974       0.00000000       0.24358974 </v>
   <v>       0.25641026       0.00000000       0.25641026 </v>
   <v>       0.26923077       0.00000000       0.26923077 </v>
   <v>       0.28205128       0.00000000       0.28205128 </v>
   <v>       0.29487179       0.00000000       0.29487179 </v>
   <v>       0.30769231       0.00000000       0.30769231 </v>
   <v>       0.32051282       0.00000000       0.32051282 </v>
   <v>       0.33333333       0.00000000       0.33333333 </v>
   <v>       0.34615385       0.00000000       0.34615385 </v>
   <v>       0.35897436       0.00000000       0.35897436 </v>
   <v>       0.37179487       0.00000000       0.37179487 </v>
   <v>       0.38461538       0.00000000       0.38461538 </v>
   <v>       0.39743590       0.00000000       0.39743590 </v>
   <v>       0.41025641       0.00000000       0.41025641 </v>
   <v>       0.42307692       0.00000000       0.42307692 </v>
   <v>       0.43589744       0.00000000       0.43589744 </v>
   <v>       0.44871795       0.00000000       0.44871795 </v>
   <v>       0.46153846       0.00000000       0.46153846 </v>
   <v>       0.47435897       0.00000000       0.47435897 </v>
   <v>       0.48717949       0.00000000       0.48717949 </v>
   <v>       0.50000000       0.00000000       0.50000000 </v>
  </varray>
  <varray name="weights" >
   <v>       0.01250000 </v>
   <v>       0.01250000 </v>
   <v>       0.01250000 </v>
   <v>       0.01250000 </v>
   <v>       0.01250000 </v>
   <v>       0.01250000 </v>
   <v>       0.01250000 </v>
   <v>       0.01250000 </v>
   <v>       0.01250000 </v>
   <v>       0.01250000 </v>
   <v>       0.01250000 </v>
   <v>       0.01250000 </v>
   <v>       0.01250000 </v>
   <v>       0.01250000 </v>
   <v>       0.01250000 </v>
   <v>       0.01250000 </v>
   <v>       0.01250000 </v>
   <v>       0.01250000 </v>
   <v>       0.01250000 </v>
   <v>       0.01250000 </v>
   <v>       0.01250000 </v>
   <v>       0.01250000 </v>
   <v>       0.01250000 </v>
   <v>       0.01250000 </v>
   <v>       0.01250000 </v>
   <v>       0.01250000 </v>
   <v>       0.01250000 </v>
   <v>       0.01250000 </v>
   <v>       0.01250000 </v>
   <v>       0.01250000 </v>
   <v>       0.01250000 </v>
   <v>       0.01250000 </v>
   <v>       0.01250000 </v>
   <v>       0.01250000 </v>
   <v>       0.01250000 </v>
   <v>       0.01250000 </v>
   <v>       0.01250000 </v>
   <v>       0.01250000 </v>
   <v>       0.01250000 </v>
   <v>       0.01250000 </v>
   <v>       0.01250000 </v>
   <v>       0.01250000 </v>
   <v>       0.01250000 </v>
   <v>       0.01250000 </v>
   <v>       0.01250000 </v>
   <v>       0.01250000 </v>
   <v>       0.01250000 </v>
   <v>       0.01250000 </v>
   <v>       0.01250000 </v>
   <v>       0.01250000 </v>
   <v>       0.01250000 </v>
   <v>       0.01250000 </v>
   <v>       0.01250000 </v>
   <v>       0.01250000 </v>
   <v>       0.01250000 </v>
   <v>       0.01250000 </v>
   <v>       0.01250000 </v>
   <v>       0.01250000 </v>
   <v>       0.01250000 </v>
   <v>       0.01250000 </v>
   <v>       0.01250000 </v>
   <v>       0.01250000 </v>
   <v>       0.01250000 </v>
   <v>       0.01250000 </v>
   <v>       0.01250000 </v>
   <v>       0.01250000 </v>
   <v>       0.01250000 </v>
   <v>       0.01250000 </v>
   <v>       0.01250000 </v>
   <v>       0.01250000 </v>
   <v>       0.01250000 </v>
   <v>       0.01250000 </v>
   <v>       0.01250000 </v>
   <v>       0.01250000 </v>
   <v>       0.01250000 </v>
   <v>       0.01250000 </v>
   <v>       0.01250000 </v>
   <v>       0.01250000 </v>
   <v>       0.01250000 </v>
   <v>       0.01250000 </v>
  </varray>
  <kpoints_labels>
   <i name="X_par" type="int">       1 </i>
   <i name="\Gamma" type="int">       2 </i>
   <i name="\Gamma" type="int">       3 </i>
   <i name="X_perp" type="int">       4 </i>
  </kpoints_labels>
 </kpoints>
 <parameters>
  <separator name="general" >
   <i type="string" name="SYSTEM">unknown system</i>
   <i type="logical" name="LCOMPAT"> F  </i>
  </separator>
  <separator name="electronic" >
   <i type="string" name="PREC">accura</i>
   <i name="ENMAX">    320.00000000</i>
   <i name="ENAUG">    322.06900000</i>
   <i name="EDIFF">      0.00010000</i>
   <i type="int" name="IALGO">    38</i>
   <i type="int" name="IWAVPR">    10</i>
   <i type="int" name="NBANDS">     8</i>
   <i type="int" name="NBANDSLOW">    -1</i>
   <i type="int" name="NBANDSHIGH">    -1</i>
   <i name="NELECT">      8.00000000</i>
   <i type="int" name="TURBO">     0</i>
   <i type="int" name="IRESTART">     0</i>
   <i type="int" name="NREBOOT">     0</i>
   <i type="int" name="NMIN">     0</i>
   <i name="EREF">      0.00000000</i>
   <separator name="electronic smearing" >
    <i type="int" name="ISMEAR">     0</i>
    <i name="SIGMA">      0.05000000</i>
    <i name="KSPACING">      0.50000000</i>
    <i type="logical" name="KGAMMA"> T  </i>
    <i type="logical" name="KBLOWUP"> T  </i>
   </separator>
   <separator name="electronic projectors" >
    <i type="logical" name="LREAL"> F  </i>
    <v name="ROPT">      0.00000000</v>
    <i type="int" name="LMAXPAW">  -100</i>
    <i type="int" name="LMAXMIX">     2</i>
    <i type="logical" name="NLSPLINE"> F  </i>
   </separator>
   <separator name="electronic startup" >
    <i type="int" name="ISTART">     0</i>
    <i type="int" name="ICHARG">    11</i>
    <i type="int" name="INIWAV">     1</i>
   </separator>
   <separator name="electronic spin" >
    <i type="int" name="ISPIN">     1</i>
    <i type="logical" name="LNONCOLLINEAR"> F  </i>
    <v name="MAGMOM">      1.00000000      1.00000000</v>
    <i name="NUPDOWN">     -1.00000000</i>
    <i type="logical" name="LSORBIT"> F  </i>
    <v name="SAXIS">      0.00000000      0.00000000      1.00000000</v>
    <i type="logical" name="LSPIRAL"> F  </i>
    <v name="QSPIRAL">      0.00000000      0.00000000      0.00000000</v>
    <i type="logical" name="LZEROZ"> F  </i>
   </separator>
   <separator name="electronic exchange-correlation" >
    <i type="logical" name="LASPH"> F  </i>
    <i type="logical" name="LMETAGGA"> F  </i>
   </separator>
   <separator name="electronic convergence" >
    <i type="int" name="NELM">    60</i>
    <i type="int" name="NELMDL">    -5</i>
    <i type="int" name="NELMIN">     2</i>
    <i name="ENINI">    320.00000000</i>
    <separator name="electronic convergence detail" >
     <i type="logical" name="LDIAG"> T  </i>
     <i type="logical" name="LSUBROT"> F  </i>
     <i name="WEIMIN">      0.00000000</i>
     <i name="EBREAK">      0.00000313</i>
     <i name="DEPER">      0.30000000</i>
     <i type="int" name="NRMM">     4</i>
     <i name="TIME">      0.40000000</i>
    </separator>
   </separator>
   <separator name="electronic mixer" >
    <i name="AMIX">      0.40000000</i>
    <i name="BMIX">      1.00000000</i>
    <i name="AMIN">      0.10000000</i>
    <i name="AMIX_MAG">      1.60000000</i>
    <i name="BMIX_MAG">      1.00000000</i>
    <separator name="electronic mixer details" >
     <i type="int" name="IMIX">     4</i>
     <i type="logical" name="MIXFIRST"> F  </i>
     <i type="int" name="MAXMIX">   -45</i>
     <i name="WC">    100.00000000</i>
     <i type="int" name="INIMIX">     1</i>
     <i type="int" name="MIXPRE">     1</i>
     <i type="int" name="MREMOVE">     5</i>
    </separator>
   </separator>
   <separator name="electronic dipolcorrection" >
    <i type="logical" name="LDIPOL"> F  </i>
    <i type="logical" name="LMONO"> F  </i>
    <i type="int" name="IDIPOL">     0</i>
    <i name="EPSILON">      1.00000000</i>
    <v name="DIPOL">   -100.00000000   -100.00000000   -100.00000000</v>
    <i name="EFIELD">      0.00000000</i>
   </separator>
  </separator>
  <separator name="grids" >
   <i type="int" name="NGX">    24</i>
   <i type="int" name="NGY">    24</i>
   <i type="int" name="NGZ">    24</i>
   <i type="int" name="NGXF">    48</i>
   <i type="int" name="NGYF">    48</i>
   <i type="int" name="NGZF">    48</i>
   <i type="logical" name="ADDGRID"> F  </i>
  </separator>
  <separator name="ionic" >
   <i type="int" name="NSW">     0</i>
   <i type="int" name="IBRION">    -1</i>
   <i type="int" name="MDALGO">     0</i>
   <i type="int" name="ISIF">     2</i>
   <i name="PSTRESS">      0.00000000</i>
   <i name="EDIFFG">      0.00100000</i>
   <i type="int" name="NFREE">     0</i>
   <i name="POTIM">      0.50000000</i>
   <i name="SMASS">     -3.00000000</i>
   <i name="SCALEE">      1.00000000</i>
  </separator>
  <separator name="ionic md" >
   <i name="TEBEG">      0.00010000</i>
   <i name="TEEND">      0.00010000</i>
   <i type="int" name="NBLOCK">     1</i>
   <i type="int" name="KBLOCK">     1</i>
   <i type="int" name="NPACO">   256</i>
   <i name="APACO">     10.00000000</i>
  </separator>
  <separator name="symmetry" >
   <i type="int" name="ISYM">     0</i>
   <i name="SYMPREC">      0.00001000</i>
  </separator>
  <separator name="dos" >
   <i type="int" name="LORBIT">    11</i>
   <v name="RWIGS">     -1.00000000</v>
   <i type="int" name="NEDOS">   301</i>
   <i name="EMIN">     10.00000000</i>
   <i name="EMAX">    -10.00000000</i>
   <i name="EFERMI">      0.00000000</i>
  </separator>
  <separator name="writing" >
   <i type="int" name="NWRITE">     2</i>
   <i type="logical" name="LWAVE"> T  </i>
   <i type="logical" name="LDOWNSAMPLE"> F  </i>
   <i type="logical" name="LCHARG"> T  </i>
   <i type="logical" name="LPARD"> F  </i>
   <i type="logical" name="LVTOT"> F  </i>
   <i type="logical" name="LVHAR"> F  </i>
   <i type="logical" name="LELF"> F  </i>
   <i type="logical" name="LOPTICS"> F  </i>
   <v name="STM">      0.00000000      0.00000000      0.00000000      0.00000000      0.00000000      0.00000000      0.00000000</v>
  </separator>
  <separator name="performance" >
   <i type="int" name="NPAR">     1</i>
   <i type="int" name="NSIM">     4</i>
   <i type="int" name="NBLK">    -1</i>
   <i type="logical" name="LPLANE"> T  </i>
   <i type="logical" name="LSCALAPACK"> T  </i>
   <i type="logical" name="LSCAAWARE"> F  </i>
   <i type="logical" name="LSCALU"> F  </i>
   <i type="logical" name="LASYNC"> F  </i>
   <i type="logical" name="LORBITALREAL"> F  </i>
  </separator>
  <separator name="miscellaneous" >
   <i type="int" name="IDIOT">     3</i>
   <i type="int" name="PHON_NSTRUCT">    -1</i>
   <i type="logical" name="LMUSIC"> F  </i>
   <v name="POMASS">     28.08500000</v>
   <v name="DARWINR">      0.00000000</v>
   <v name="DARWINV">      1.00000000</v>
   <i type="logical" name="LCORR"> T  </i>
  </separator>
  <i type="logical" name="GGA_COMPAT"> T  </i>
  <i type="logical" name="LBERRY"> F  </i>
  <i type="int" name="ICORELEVEL">     0</i>
  <i type="logical" name="LDAU"> F  </i>
  <i type="int" name="I_CONSTRAINED_M">     0</i>
  <separator name="electronic exchange-correlation" >
   <i type="string" name="GGA">PE</i>
   <i type="int" name="VOSKOWN">     0</i>
   <i type="logical" name="LHFCALC"> F  </i>
   <i type="string" name="PRECFOCK"></i>
   <i type="logical" name="LSYMGRAD"> F  </i>
   <i type="logical" name="LHFONE"> F  </i>
   <i type="logical" name="LRHFCALC"> F  </i>
   <i type="logical" name="LTHOMAS"> F  </i>
   <i type="logical" name="LMODELHF"> F  </i>
   <i type="logical" name="LFOCKACE"> F  </i>
   <i name="ENCUT4O">     -1.00000000</i>
   <i type="int" name="EXXOEP">     0</i>
   <i type="int" name="FOURORBIT">     0</i>
   <i name="AEXX">      0.00000000</i>
   <i name="HFALPHA">      0.00000000</i>
   <i name="MCALPHA">      0.00000000</i>
   <i name="ALDAX">      1.00000000</i>
   <i name="AGGAX">      1.00000000</i>
   <i name="ALDAC">      1.00000000</i>
   <i name="AGGAC">      1.00000000</i>
   <i type="int" name="NKREDX">     1</i>
   <i type="int" name="NKREDY">     1</i>
   <i type="int" name="NKREDZ">     1</i>
   <i type="logical" name="SHIFTRED"> F  </i>
   <i type="logical" name="ODDONLY"> F  </i>
   <i type="logical" name="EVENONLY"> F  </i>
   <i type="int" name="LMAXFOCK">     0</i>
   <i type="int" name="NMAXFOCKAE">     0</i>
   <i type="logical" name="LFOCKAEDFT"> F  </i>
   <i name="HFSCREEN">      0.00000000</i>
   <i name="HFSCREENC">      0.00000000</i>
   <i type="int" name="NBANDSGWLOW">     0</i>
  </separator>
  <separator name="vdW DFT" >
   <i type="logical" name="LUSE_VDW"> F  </i>
   <i name="Zab_VDW">     -0.84910000</i>
   <i name="PARAM1">      0.12340000</i>
   <i name="PARAM2">      1.00000000</i>
   <i name="PARAM3">      0.00000000</i>
  </separator>
  <separator name="model GW" >
   <i type="int" name="MODEL_GW">     0</i>
   <i name="MODEL_EPS0">     12.12780278</i>
   <i name="MODEL_ALPHA">      1.00000000</i>
  </separator>
  <separator name="linear response parameters" >
   <i type="logical" name="LEPSILON"> F  </i>
   <i type="logical" name="LRPA"> F  </i>
   <i type="logical" name="LNABLA"> F  </i>
   <i type="logical" name="LVEL"> F  </i>
   <i name="CSHIFT">      0.10000000</i>
   <i name="OMEGAMAX">     -1.00000000</i>
   <i name="DEG_THRESHOLD">      0.00200000</i>
   <i name="RTIME">     -0.10000000</i>
   <i name="WPLASMAI">      0.00000000</i>
   <v name="DFIELD">      0.00000000      0.00000000      0.00000000</v>
   <v name="WPLASMA">      0.00000000      0.00000000      0.00000000      0.00000000      0.00000000      0.00000000      0.00000000      0.00000000      0.00000000</v>
  </separator>
  <separator name="orbital magnetization" >
   <i type="logical" name="NUCIND"> F  </i>
   <v name="MAGPOS">      0.00000000      0.00000000      0.00000000</v>
   <i type="logical" name="LNICSALL"> T  </i>
   <i type="logical" name="ORBITALMAG"> F  </i>
   <i type="logical" name="LMAGBLOCH"> F  </i>
   <i type="logical" name="LCHIMAG"> F  </i>
   <i type="logical" name="LGAUGE"> T  </i>
   <i type="int" name="MAGATOM">     0</i>
   <v name="MAGDIPOL">      0.00000000      0.00000000      0.00000000</v>
   <v name="AVECCONST">      0.00000000      0.00000000      0.00000000</v>
  </separator>
  <separator name="response functions" >
   <i type="logical" name="LFINITE_TEMPERATURE"> F  </i>
   <i type="logical" name="LADDER"> F  </i>
   <i type="logical" name="LRPAFORCE"> F  </i>
   <i type="logical" name="LFXC"> F  </i>
   <i type="logical" name="LHARTREE"> T  </i>
   <i type="int" name="IBSE">     0</i>
   <v type="int" name="KPOINT">    -1     0     0     0</v>
   <i type="logical" name="LTCTC"> F  </i>
   <i type="logical" name="LTCTE"> F  </i>
   <i type="logical" name="LTETE"> F  </i>
   <i type="logical" name="LTRIPLET"> F  </i>
   <i type="logical" name="LFXCEPS"> F  </i>
   <i type="logical" name="LFXHEG"> F  </i>
   <i type="int" name="NATURALO">     2</i>
   <i type="logical" name="LHOLEGF"> F  </i>
   <i type="logical" name="L2ORDER"> F  </i>
   <i type="logical" name="LDMP1"> F  </i>
   <i type="logical" name="LMP2LT"> F  </i>
   <i type="logical" name="LSMP2LT"> F  </i>
   <i type="logical" name="LGWLF"> F  </i>
   <i name="ENCUTGW">     -2.00000000</i>
   <i name="ENCUTGWSOFT">     -2.00000000</i>
   <i name="ENCUTLF">     -1.00000000</i>
   <i type="logical" name="LESF_SPLINES"> F  </i>
   <i type="int" name="LMAXMP2">    -1</i>
   <i name="SCISSOR">      0.00000000</i>
   <i type="int" name="NOMEGA">     0</i>
   <i type="int" name="NOMEGAR">     0</i>
   <i type="int" name="NBANDSGW">    -1</i>
   <i type="int" name="NBANDSO">    -1</i>
   <i type="int" name="NBANDSV">    -1</i>
   <i type="int" name="NELMGW">     1</i>
   <i type="int" name="NELMHF">     1</i>
   <i type="int" name="DIM">     3</i>
   <i type="int" name="IESPILON">     4</i>
   <i type="int" name="ANTIRES">     0</i>
   <i name="OMEGAMAX">    -30.00000000</i>
   <i name="OMEGAMIN">    -30.00000000</i>
   <i name="OMEGATL">   -200.00000000</i>
   <i type="int" name="OMEGAGRID">     0</i>
   <i name="CSHIFT">     -0.10000000</i>
   <i type="logical" name="LSELFENERGY"> F  </i>
   <i type="logical" name="LSPECTRAL"> F  </i>
   <i type="logical" name="LSPECTRALGW"> F  </i>
   <i type="logical" name="LSINGLES"> F  </i>
   <i type="logical" name="LFERMIGW"> F  </i>
   <i type="logical" name="ODDONLYGW"> F  </i>
   <i type="logical" name="EVENONLYGW"> F  </i>
   <i type="int" name="NKREDLFX">     1</i>
   <i type="int" name="NKREDLFY">     1</i>
   <i type="int" name="NKREDLFZ">     1</i>
   <i type="int" name="MAXMEM">  2800</i>
   <i type="int" name="TELESCOPE">     0</i>
   <i type="int" name="NTAUPAR">    -1</i>
   <i type="int" name="NOMEGAPAR">    -1</i>
   <i name="DAMP_NEWTON">      0.80000001</i>
   <i name="LAMBDA">      1.00000000</i>
  </separator>
  <separator name="External order field" >
   <i name="OFIELD_KAPPA">      0.00000000</i>
   <v name="OFIELD_K">      0.00000000      0.00000000      0.00000000</v>
   <i name="OFIELD_Q6_NEAR">      0.00000000</i>
   <i name="OFIELD_Q6_FAR">      0.00000000</i>
   <i name="OFIELD_A">      0.00000000</i>
  </separator>
  <separator name="optional k-points parameters" >
   <i type="int" name="KPOINTS_OPT_MODE">     1</i>
   <i type="logical" name="LKPOINTS_OPT"> F  </i>
  </separator>
 </parameters>
 <atominfo>
  <atoms>       2 </atoms>
  <types>       1 </types>
  <array name="atoms" >
   <dimension dim="1">ion</dimension>
   <field type="string">element</field>
   <field type="int">atomtype</field>
   <set>
    <rc><c>Si</c><c>   1</c></rc>
    <rc><c>Si</c><c>   1</c></rc>
   </set>
  </array>
  <array name="atomtypes" >
   <dimension dim="1">type</dimension>
   <field type="int">atomspertype</field>
   <field type="string">element</field>
   <field>mass</field>
   <field>valence</field>
   <field type="string">pseudopotential</field>
   <set>
    <rc><c>   2</c><c>Si</c><c>     28.08500000</c><c>      4.00000000</c><c>  PAW_PBE Si 05Jan2001                  </c></rc>
   </set>
  </array>
 </atominfo>
 <structure name="initialpos" >
  <crystal>
   <varray name="basis" >
    <v>       0.00000000       2.71500000       2.71500000 </v>
    <v>       2.74215000       0.00000000       2.71500000 </v>
    <v>       2.74215000       2.71500000       0.00000000 </v>
   </varray>
   <i name="volume">     40.42600927 </i>
   <varray name="rec_basis" >
    <v>      -0.18233868       0.18416206       0.18416206 </v>
    <v>       0.18233868      -0.18416206       0.18416206 </v>
    <v>       0.18233868       0.18416206      -0.18416206 </v>
   </varray>
  </crystal>
  <varray name="positions" >
   <v>       0.00000000       0.00000000       0.00000000 </v>
   <v>       0.25000000       0.25000000       0.25000000 </v>
  </varray>
 </structure>
 <calculation>
  <scstep>
   <time name="dav">    0.88    0.88</time>
   <time name="total">    0.93    0.93</time>
   <energy>
    <i name="alphaZ">      3.33083887 </i>
    <i name="ewald">   -227.81013315 </i>
    <i name="hartreedc">    -15.04397762 </i>
    <i name="XCdc">    -18.00480332 </i>
    <i name="pawpsdc">    875.48423136 </i>
    <i name="pawaedc">   -840.51469564 </i>
    <i name="eentropy">     -0.00180393 </i>
    <i name="bandstr">     25.85283287 </i>
    <i name="atom">    206.13066687 </i>
    <i name="e_fr_energy">      9.42315631 </i>
    <i name="e_wo_entrp">      9.42496024 </i>
    <i name="e_0_energy">      9.42405828 </i>
   </energy>
  </scstep>
  <scstep>
   <time name="dav">    1.32    1.32</time>
   <time name="total">    1.32    1.32</time>
   <energy>
    <i name="e_fr_energy">     -5.15331349 </i>
    <i name="e_wo_entrp">     -5.15331349 </i>
    <i name="e_0_energy">     -5.15331349 </i>
   </energy>
  </scstep>
  <scstep>
   <time name="dav">    1.06    1.06</time>
   <time name="total">    1.06    1.06</time>
   <energy>
    <i name="e_fr_energy">     -5.32407450 </i>
    <i name="e_wo_entrp">     -5.32407450 </i>
    <i name="e_0_energy">     -5.32407450 </i>
   </energy>
  </scstep>
  <scstep>
   <time name="dav">    1.24    1.24</time>
   <time name="total">    1.24    1.24</time>
   <energy>
    <i name="e_fr_energy">     -5.32467120 </i>
    <i name="e_wo_entrp">     -5.32467120 </i>
    <i name="e_0_energy">     -5.32467120 </i>
   </energy>
  </scstep>
  <scstep>
   <time name="dav">    1.02    1.02</time>
   <time name="total">    1.02    1.02</time>
   <energy>
    <i name="e_fr_energy">     -5.32467285 </i>
    <i name="e_wo_entrp">     -5.32467285 </i>
    <i name="e_0_energy">     -5.32467285 </i>
   </energy>
  </scstep>
  <scstep>
   <time name="dav">    1.00    1.00</time>
   <time name="total">    1.00    1.00</time>
   <energy>
    <i name="alphaZ">      3.33083887 </i>
    <i name="ewald">   -227.81013315 </i>
    <i name="hartreedc">    -15.04397762 </i>
    <i name="XCdc">    -18.00480332 </i>
    <i name="pawpsdc">    875.48423136 </i>
    <i name="pawaedc">   -840.51469564 </i>
    <i name="eentropy">     -0.00000000 </i>
    <i name="bandstr">     11.10319974 </i>
    <i name="atom">    206.13066687 </i>
    <i name="e_fr_energy">     -5.32467288 </i>
    <i name="e_wo_entrp">     -5.32467288 </i>
    <i name="e_0_energy">     -5.32467288 </i>
   </energy>
  </scstep>
  <structure>
   <crystal>
    <varray name="basis" >
     <v>       0.00000000       2.71500000       2.71500000 </v>
     <v>       2.74215000       0.00000000       2.71500000 </v>
     <v>       2.74215000       2.71500000       0.00000000 </v>
    </varray>
    <i name="volume">     40.42600927 </i>
    <varray name="rec_basis" >
     <v>      -0.18233868       0.18416206       0.18416206 </v>
     <v>       0.18233868      -0.18416206       0.18416206 </v>
     <v>       0.18233868       0.18416206      -0.18416206 </v>
    </varray>
   </crystal>
   <varray name="positions" >
    <v>       0.00000000       0.00000000       0.00000000 </v>
    <v>       0.25000000       0.25000000       0.25000000 </v>
   </varray>
  </structure>
  <varray name="forces" >
   <v>      -0.00000202       0.00000106      -0.00000289 </v>
   <v>       0.00000202      -0.00000106       0.00000289 </v>
  </varray>
  <varray name="stress" >
   <v>     217.61289592       0.00007070       0.00010535 </v>
   <v>       0.00007069     227.41418932       0.00017289 </v>
   <v>       0.00010536       0.00017290     327.02518586 </v>
  </varray>
  <energy>
   <i name="e_fr_energy">     -5.32467288 </i>
   <i name="e_wo_entrp">     -5.32467288 </i>
   <i name="e_0_energy">     -5.32467288 </i>
  </energy>
  <time name="totalsc">    7.18    7.18</time>
  <eigenvalues>
   <array>
    <dimension dim="1">band</dimension>
    <dimension dim="2">kpoint</dimension>
    <dimension dim="3">spin</dimension>
    <field>eigene</field>
    <field>occ</field>
    <set>
     <set comment="spin 1">
      <set comment="kpoint 1">
       <r>   -2.0896    1.0000 </r>
       <r>   -2.0896    1.0000 </r>
       <r>    2.9576    1.0000 </r>
       <r>    2.9576    1.0000 </r>
       <r>    6.5163    0.0000 </r>
       <r>    6.5163    0.0000 </r>
       <r>   15.7791    0.0000 </r>
       <r>   15.7803    0.0000 </r>
      </set>
      <set comment="kpoint 2">
       <r>   -2.2834    1.0000 </r>
       <r>   -1.8924    1.0000 </r>
       <r>    2.9601    1.0000 </r>
       <r>    2.9601    1.0000 </r>
       <r>    6.4758    0.0000 </r>
       <r>    6.5644    0.0000 </r>
       <r>   15.7097    0.0000 </r>
       <r>   15.7121    0.0000 </r>
      </set>
      <set comment="kpoint 3">
       <r>   -2.4735    1.0000 </r>
       <r>   -1.6919    1.0000 </r>
       <r>    2.9678    1.0000 </r>
       <r>    2.9678    1.0000 </r>
       <r>    6.4427    0.0000 </r>
       <r>    6.6201    0.0000 </r>
       <r>   15.5437    0.0000 </r>
       <r>   15.5441    0.0000 </r>
      </set>
      <set comment="kpoint 4">
       <r>   -2.6599    1.0000 </r>
       <r>   -1.4883    1.0000 </r>
       <r>    2.9805    1.0000 </r>
       <r>    2.9805    1.0000 </r>
       <r>    6.4169    0.0000 </r>
       <r>    6.6836    0.0000 </r>
       <r>   15.3345    0.0000 </r>
       <r>   15.3345    0.0000 </r>
      </set>
      <set comment="kpoint 5">
       <r>   -2.8424    1.0000 </r>
       <r>   -1.2816    1.0000 </r>
       <r>    2.9983    1.0000 </r>
       <r>    2.9983    1.0000 </r>
       <r>    6.3984    0.0000 </r>
       <r>    6.7547    0.0000 </r>
       <r>   15.1060    0.0000 </r>
       <r>   15.1060    0.0000 </r>
      </set>
      <set comment="kpoint 6">
       <r>   -3.0210    1.0000 </r>
       <r>   -1.0721    1.0000 </r>
       <r>    3.0212    1.0000 </r>
       <r>    3.0212    1.0000 </r>
       <r>    6.3870    0.0000 </r>
       <r>    6.8342    0.0000 </r>
       <r>   14.8713    0.0000 </r>
       <r>   14.8713    0.0000 </r>
      </set>
      <set comment="kpoint 7">
       <r>   -3.1954    1.0000 </r>
       <r>   -0.8600    1.0000 </r>
       <r>    3.0492    1.0000 </r>
       <r>    3.0492    1.0000 </r>
       <r>    6.3823    0.0000 </r>
       <r>    6.9211    0.0000 </r>
       <r>   14.6321    0.0000 </r>
       <r>   14.6321    0.0000 </r>
      </set>
      <set comment="kpoint 8">
       <r>   -3.3656    1.0000 </r>
       <r>   -0.6453    1.0000 </r>
       <r>    3.0821    1.0000 </r>
       <r>    3.0821    1.0000 </r>
       <r>    6.3846    0.0000 </r>
       <r>    7.0164    0.0000 </r>
       <r>   14.3914    0.0000 </r>
       <r>   14.3914    0.0000 </r>
      </set>
      <set comment="kpoint 9">
       <r>   -3.5315    1.0000 </r>
       <r>   -0.4284    1.0000 </r>
       <r>    3.1201    1.0000 </r>
       <r>    3.1201    1.0000 </r>
       <r>    6.3937    0.0000 </r>
       <r>    7.1196    0.0000 </r>
       <r>   14.1501    0.0000 </r>
       <r>   14.1501    0.0000 </r>
      </set>
      <set comment="kpoint 10">
       <r>   -3.6930    1.0000 </r>
       <r>   -0.2094    1.0000 </r>
       <r>    3.1631    1.0000 </r>
       <r>    3.1631    1.0000 </r>
       <r>    6.4093    0.0000 </r>
       <r>    7.2311    0.0000 </r>
       <r>   13.9092    0.0000 </r>
       <r>   13.9092    0.0000 </r>
      </set>
      <set comment="kpoint 11">
       <r>   -3.8499    1.0000 </r>
       <r>    0.0115    1.0000 </r>
       <r>    3.2110    1.0000 </r>
       <r>    3.2110    1.0000 </r>
       <r>    6.4313    0.0000 </r>
       <r>    7.3507    0.0000 </r>
       <r>   13.6691    0.0000 </r>
       <r>   13.6691    0.0000 </r>
      </set>
      <set comment="kpoint 12">
       <r>   -4.0021    1.0000 </r>
       <r>    0.2341    1.0000 </r>
       <r>    3.2638    1.0000 </r>
       <r>    3.2638    1.0000 </r>
       <r>    6.4596    0.0000 </r>
       <r>    7.4784    0.0000 </r>
       <r>   13.4298    0.0000 </r>
       <r>   13.4303    0.0000 </r>
      </set>
      <set comment="kpoint 13">
       <r>   -4.1497    1.0000 </r>
       <r>    0.4583    1.0000 </r>
       <r>    3.3214    1.0000 </r>
       <r>    3.3214    1.0000 </r>
       <r>    6.4940    0.0000 </r>
       <r>    7.6141    0.0000 </r>
       <r>   13.1917    0.0000 </r>
       <r>   13.1917    0.0000 </r>
      </set>
      <set comment="kpoint 14">
       <r>   -4.2925    1.0000 </r>
       <r>    0.6839    1.0000 </r>
       <r>    3.3839    1.0000 </r>
       <r>    3.3839    1.0000 </r>
       <r>    6.5352    0.0000 </r>
       <r>    7.7579    0.0000 </r>
       <r>   12.9557    0.0000 </r>
       <r>   12.9557    0.0000 </r>
      </set>
      <set comment="kpoint 15">
       <r>   -4.4305    1.0000 </r>
       <r>    0.9106    1.0000 </r>
       <r>    3.4511    1.0000 </r>
       <r>    3.4511    1.0000 </r>
       <r>    6.5813    0.0000 </r>
       <r>    7.9093    0.0000 </r>
       <r>   12.7202    0.0000 </r>
       <r>   12.7202    0.0000 </r>
      </set>
      <set comment="kpoint 16">
       <r>   -4.5635    1.0000 </r>
       <r>    1.1382    1.0000 </r>
       <r>    3.5229    1.0000 </r>
       <r>    3.5229    1.0000 </r>
       <r>    6.6330    0.0000 </r>
       <r>    8.0682    0.0000 </r>
       <r>   12.4862    0.0000 </r>
       <r>   12.4862    0.0000 </r>
      </set>
      <set comment="kpoint 17">
       <r>   -4.6917    1.0000 </r>
       <r>    1.3665    1.0000 </r>
       <r>    3.5992    1.0000 </r>
       <r>    3.5992    1.0000 </r>
       <r>    6.6896    0.0000 </r>
       <r>    8.2340    0.0000 </r>
       <r>   12.2518    0.0000 </r>
       <r>   12.2518    0.0000 </r>
      </set>
      <set comment="kpoint 18">
       <r>   -4.8147    1.0000 </r>
       <r>    1.5954    1.0000 </r>
       <r>    3.6801    1.0000 </r>
       <r>    3.6801    1.0000 </r>
       <r>    6.7517    0.0000 </r>
       <r>    8.4067    0.0000 </r>
       <r>   12.0210    0.0000 </r>
       <r>   12.0210    0.0000 </r>
      </set>
      <set comment="kpoint 19">
       <r>   -4.9326    1.0000 </r>
       <r>    1.8248    1.0000 </r>
       <r>    3.7654    1.0000 </r>
       <r>    3.7654    1.0000 </r>
       <r>    6.8187    0.0000 </r>
       <r>    8.5855    0.0000 </r>
       <r>   11.7920    0.0000 </r>
       <r>   11.7920    0.0000 </r>
      </set>
      <set comment="kpoint 20">
       <r>   -5.0453    1.0000 </r>
       <r>    2.0542    1.0000 </r>
       <r>    3.8550    1.0000 </r>
       <r>    3.8550    1.0000 </r>
       <r>    6.8903    0.0000 </r>
       <r>    8.7694    0.0000 </r>
       <r>   11.5650    0.0000 </r>
       <r>   11.5650    0.0000 </r>
      </set>
      <set comment="kpoint 21">
       <r>   -5.1529    1.0000 </r>
       <r>    2.2837    1.0000 </r>
       <r>    3.9487    1.0000 </r>
       <r>    3.9487    1.0000 </r>
       <r>    6.9661    0.0000 </r>
       <r>    8.9572    0.0000 </r>
       <r>   11.3400    0.0000 </r>
       <r>   11.3400    0.0000 </r>
      </set>
      <set comment="kpoint 22">
       <r>   -5.2551    1.0000 </r>
       <r>    2.5128    1.0000 </r>
       <r>    4.0463    1.0000 </r>
       <r>    4.0463    1.0000 </r>
       <r>    7.0458    0.0000 </r>
       <r>    9.1473    0.0000 </r>
       <r>   11.1174    0.0000 </r>
       <r>   11.1174    0.0000 </r>
      </set>
      <set comment="kpoint 23">
       <r>   -5.3521    1.0000 </r>
       <r>    2.7414    1.0000 </r>
       <r>    4.1476    1.0000 </r>
       <r>    4.1476    1.0000 </r>
       <r>    7.1291    0.0000 </r>
       <r>    9.3370    0.0000 </r>
       <r>   10.8972    0.0000 </r>
       <r>   10.8972    0.0000 </r>
      </set>
      <set comment="kpoint 24">
       <r>   -5.4438    1.0000 </r>
       <r>    2.9692    1.0000 </r>
       <r>    4.2524    1.0000 </r>
       <r>    4.2524    1.0000 </r>
       <r>    7.2153    0.0000 </r>
       <r>    9.5229    0.0000 </r>
       <r>   10.6797    0.0000 </r>
       <r>   10.6797    0.0000 </r>
      </set>
      <set comment="kpoint 25">
       <r>   -5.5300    1.0000 </r>
       <r>    3.1959    1.0000 </r>
       <r>    4.3605    1.0000 </r>
       <r>    4.3605    1.0000 </r>
       <r>    7.3043    0.0000 </r>
       <r>    9.6995    0.0000 </r>
       <r>   10.4660    0.0000 </r>
       <r>   10.4660    0.0000 </r>
      </set>
      <set comment="kpoint 26">
       <r>   -5.6109    1.0000 </r>
       <r>    3.4211    1.0000 </r>
       <r>    4.4715    1.0000 </r>
       <r>    4.4715    1.0000 </r>
       <r>    7.3951    0.0000 </r>
       <r>    9.8586    0.0000 </r>
       <r>   10.2554    0.0000 </r>
       <r>   10.2554    0.0000 </r>
      </set>
      <set comment="kpoint 27">
       <r>   -5.6863    1.0000 </r>
       <r>    3.6442    1.0000 </r>
       <r>    4.5849    1.0000 </r>
       <r>    4.5849    1.0000 </r>
       <r>    7.4870    0.0000 </r>
       <r>    9.9884    0.0000 </r>
       <r>   10.0479    0.0000 </r>
       <r>   10.0479    0.0000 </r>
      </set>
      <set comment="kpoint 28">
       <r>   -5.7562    1.0000 </r>
       <r>    3.8649    1.0000 </r>
       <r>    4.7004    1.0000 </r>
       <r>    4.7004    1.0000 </r>
       <r>    7.5796    0.0000 </r>
       <r>    9.8458    0.0000 </r>
       <r>    9.8458    0.0000 </r>
       <r>   10.0748    0.0000 </r>
      </set>
      <set comment="kpoint 29">
       <r>   -5.8207    1.0000 </r>
       <r>    4.0823    1.0000 </r>
       <r>    4.8172    1.0000 </r>
       <r>    4.8172    1.0000 </r>
       <r>    7.6719    0.0000 </r>
       <r>    9.6490    0.0000 </r>
       <r>    9.6490    0.0000 </r>
       <r>   10.1039    0.0000 </r>
      </set>
      <set comment="kpoint 30">
       <r>   -5.8796    1.0000 </r>
       <r>    4.2959    1.0000 </r>
       <r>    4.9346    1.0000 </r>
       <r>    4.9346    1.0000 </r>
       <r>    7.7629    0.0000 </r>
       <r>    9.4583    0.0000 </r>
       <r>    9.4583    0.0000 </r>
       <r>   10.0716    0.0000 </r>
      </set>
      <set comment="kpoint 31">
       <r>   -5.9329    1.0000 </r>
       <r>    4.5038    1.0000 </r>
       <r>    5.0517    1.0000 </r>
       <r>    5.0517    1.0000 </r>
       <r>    7.8515    0.0000 </r>
       <r>    9.2749    0.0000 </r>
       <r>    9.2749    0.0000 </r>
       <r>    9.9855    0.0000 </r>
      </set>
      <set comment="kpoint 32">
       <r>   -5.9807    1.0000 </r>
       <r>    4.7048    1.0000 </r>
       <r>    5.1671    1.0000 </r>
       <r>    5.1671    1.0000 </r>
       <r>    7.9366    0.0000 </r>
       <r>    9.0996    0.0000 </r>
       <r>    9.0996    0.0000 </r>
       <r>    9.8621    0.0000 </r>
      </set>
      <set comment="kpoint 33">
       <r>   -6.0229    1.0000 </r>
       <r>    4.8970    1.0000 </r>
       <r>    5.2794    1.0000 </r>
       <r>    5.2794    1.0000 </r>
       <r>    8.0167    0.0000 </r>
       <r>    8.9344    0.0000 </r>
       <r>    8.9344    0.0000 </r>
       <r>    9.7178    0.0000 </r>
      </set>
      <set comment="kpoint 34">
       <r>   -6.0595    1.0000 </r>
       <r>    5.0776    1.0000 </r>
       <r>    5.3866    1.0000 </r>
       <r>    5.3866    1.0000 </r>
       <r>    8.0904    0.0000 </r>
       <r>    8.7812    0.0000 </r>
       <r>    8.7812    0.0000 </r>
       <r>    9.5659    0.0000 </r>
      </set>
      <set comment="kpoint 35">
       <r>   -6.0905    1.0000 </r>
       <r>    5.2435    1.0000 </r>
       <r>    5.4862    1.0000 </r>
       <r>    5.4862    1.0000 </r>
       <r>    8.1563    0.0000 </r>
       <r>    8.6426    0.0000 </r>
       <r>    8.6426    0.0000 </r>
       <r>    9.4169    0.0000 </r>
      </set>
      <set comment="kpoint 36">
       <r>   -6.1159    1.0000 </r>
       <r>    5.3903    1.0000 </r>
       <r>    5.5753    1.0000 </r>
       <r>    5.5753    1.0000 </r>
       <r>    8.2129    0.0000 </r>
       <r>    8.5215    0.0000 </r>
       <r>    8.5215    0.0000 </r>
       <r>    9.2795    0.0000 </r>
      </set>
      <set comment="kpoint 37">
       <r>   -6.1357    1.0000 </r>
       <r>    5.5132    1.0000 </r>
       <r>    5.6503    1.0000 </r>
       <r>    5.6503    1.0000 </r>
       <r>    8.2586    0.0000 </r>
       <r>    8.4215    0.0000 </r>
       <r>    8.4215    0.0000 </r>
       <r>    9.1617    0.0000 </r>
      </set>
      <set comment="kpoint 38">
       <r>   -6.1498    1.0000 </r>
       <r>    5.6066    1.0000 </r>
       <r>    5.7076    1.0000 </r>
       <r>    5.7076    1.0000 </r>
       <r>    8.2924    0.0000 </r>
       <r>    8.3464    0.0000 </r>
       <r>    8.3464    0.0000 </r>
       <r>    9.0708    0.0000 </r>
      </set>
      <set comment="kpoint 39">
       <r>   -6.1582    1.0000 </r>
       <r>    5.6652    1.0000 </r>
       <r>    5.7437    1.0000 </r>
       <r>    5.7437    1.0000 </r>
       <r>    8.2996    0.0000 </r>
       <r>    8.2996    0.0000 </r>
       <r>    8.3130    0.0000 </r>
       <r>    9.0132    0.0000 </r>
      </set>
      <set comment="kpoint 40">
       <r>   -6.1610    1.0000 </r>
       <r>    5.6853    1.0000 </r>
       <r>    5.7561    1.0000 </r>
       <r>    5.7561    1.0000 </r>
       <r>    8.2837    0.0000 </r>
       <r>    8.2837    0.0000 </r>
       <r>    8.3200    0.0000 </r>
       <r>    8.9935    0.0000 </r>
      </set>
      <set comment="kpoint 41">
       <r>   -6.1610    1.0000 </r>
       <r>    5.6853    1.0000 </r>
       <r>    5.7561    1.0000 </r>
       <r>    5.7561    1.0000 </r>
       <r>    8.2837    0.0000 </r>
       <r>    8.2837    0.0000 </r>
       <r>    8.3200    0.0000 </r>
       <r>    8.9935    0.0000 </r>
      </set>
      <set comment="kpoint 42">
       <r>   -6.1582    1.0000 </r>
       <r>    5.6732    1.0000 </r>
       <r>    5.7358    1.0000 </r>
       <r>    5.7434    1.0000 </r>
       <r>    8.2765    0.0000 </r>
       <r>    8.2992    0.0000 </r>
       <r>    8.3363    0.0000 </r>
       <r>    9.0134    0.0000 </r>
      </set>
      <set comment="kpoint 43">
       <r>   -6.1496    1.0000 </r>
       <r>    5.6377    1.0000 </r>
       <r>    5.6763    1.0000 </r>
       <r>    5.7063    1.0000 </r>
       <r>    8.2550    0.0000 </r>
       <r>    8.3449    0.0000 </r>
       <r>    8.3841    0.0000 </r>
       <r>    9.0714    0.0000 </r>
      </set>
      <set comment="kpoint 44">
       <r>   -6.1352    1.0000 </r>
       <r>    5.5813    1.0000 </r>
       <r>    5.5819    1.0000 </r>
       <r>    5.6474    1.0000 </r>
       <r>    8.2200    0.0000 </r>
       <r>    8.4183    0.0000 </r>
       <r>    8.4609    0.0000 </r>
       <r>    9.1627    0.0000 </r>
      </set>
      <set comment="kpoint 45">
       <r>   -6.1151    1.0000 </r>
       <r>    5.4578    1.0000 </r>
       <r>    5.5073    1.0000 </r>
       <r>    5.5703    1.0000 </r>
       <r>    8.1725    0.0000 </r>
       <r>    8.5162    0.0000 </r>
       <r>    8.5630    0.0000 </r>
       <r>    9.2808    0.0000 </r>
      </set>
      <set comment="kpoint 46">
       <r>   -6.0893    1.0000 </r>
       <r>    5.3098    1.0000 </r>
       <r>    5.4192    1.0000 </r>
       <r>    5.4789    1.0000 </r>
       <r>    8.1139    0.0000 </r>
       <r>    8.6349    0.0000 </r>
       <r>    8.6865    0.0000 </r>
       <r>    9.4179    0.0000 </r>
      </set>
      <set comment="kpoint 47">
       <r>   -6.0578    1.0000 </r>
       <r>    5.1430    1.0000 </r>
       <r>    5.3205    1.0000 </r>
       <r>    5.3767    1.0000 </r>
       <r>    8.0457    0.0000 </r>
       <r>    8.7710    0.0000 </r>
       <r>    8.8279    0.0000 </r>
       <r>    9.5662    0.0000 </r>
      </set>
      <set comment="kpoint 48">
       <r>   -6.0205    1.0000 </r>
       <r>    4.9617    1.0000 </r>
       <r>    5.2139    1.0000 </r>
       <r>    5.2668    1.0000 </r>
       <r>    7.9694    0.0000 </r>
       <r>    8.9215    0.0000 </r>
       <r>    8.9840    0.0000 </r>
       <r>    9.7166    0.0000 </r>
      </set>
      <set comment="kpoint 49">
       <r>   -5.9776    1.0000 </r>
       <r>    4.7690    1.0000 </r>
       <r>    5.1020    1.0000 </r>
       <r>    5.1517    1.0000 </r>
       <r>    7.8866    0.0000 </r>
       <r>    9.0840    0.0000 </r>
       <r>    9.1523    0.0000 </r>
       <r>    9.8591    0.0000 </r>
      </set>
      <set comment="kpoint 50">
       <r>   -5.9289    1.0000 </r>
       <r>    4.5678    1.0000 </r>
       <r>    4.9868    1.0000 </r>
       <r>    5.0333    1.0000 </r>
       <r>    7.7987    0.0000 </r>
       <r>    9.2565    0.0000 </r>
       <r>    9.3307    0.0000 </r>
       <r>    9.9810    0.0000 </r>
      </set>
      <set comment="kpoint 51">
       <r>   -5.8747    1.0000 </r>
       <r>    4.3599    1.0000 </r>
       <r>    4.8698    1.0000 </r>
       <r>    4.9134    1.0000 </r>
       <r>    7.7073    0.0000 </r>
       <r>    9.4372    0.0000 </r>
       <r>    9.5175    0.0000 </r>
       <r>   10.0673    0.0000 </r>
      </set>
      <set comment="kpoint 52">
       <r>   -5.8147    1.0000 </r>
       <r>    4.1468    1.0000 </r>
       <r>    4.7523    1.0000 </r>
       <r>    4.7931    1.0000 </r>
       <r>    7.6136    0.0000 </r>
       <r>    9.6257    0.0000 </r>
       <r>    9.7121    0.0000 </r>
       <r>   10.1034    0.0000 </r>
      </set>
      <set comment="kpoint 53">
       <r>   -5.7492    1.0000 </r>
       <r>    3.9298    1.0000 </r>
       <r>    4.6351    1.0000 </r>
       <r>    4.6734    1.0000 </r>
       <r>    7.5185    0.0000 </r>
       <r>    9.8191    0.0000 </r>
       <r>    9.9118    0.0000 </r>
       <r>   10.0804    0.0000 </r>
      </set>
      <set comment="kpoint 54">
       <r>   -5.6781    1.0000 </r>
       <r>    3.7095    1.0000 </r>
       <r>    4.5193    1.0000 </r>
       <r>    4.5551    1.0000 </r>
       <r>    7.4231    0.0000 </r>
       <r>   10.0006    0.0000 </r>
       <r>   10.0178    0.0000 </r>
       <r>   10.1170    0.0000 </r>
      </set>
      <set comment="kpoint 55">
       <r>   -5.6014    1.0000 </r>
       <r>    3.4868    1.0000 </r>
       <r>    4.4053    1.0000 </r>
       <r>    4.4388    1.0000 </r>
       <r>    7.3284    0.0000 </r>
       <r>    9.8755    0.0000 </r>
       <r>   10.2210    0.0000 </r>
       <r>   10.3266    0.0000 </r>
      </set>
      <set comment="kpoint 56">
       <r>   -5.5192    1.0000 </r>
       <r>    3.2623    1.0000 </r>
       <r>    4.2938    1.0000 </r>
       <r>    4.3251    1.0000 </r>
       <r>    7.2351    0.0000 </r>
       <r>    9.7196    0.0000 </r>
       <r>   10.4280    0.0000 </r>
       <r>   10.5404    0.0000 </r>
      </set>
      <set comment="kpoint 57">
       <r>   -5.4315    1.0000 </r>
       <r>    3.0364    1.0000 </r>
       <r>    4.1851    1.0000 </r>
       <r>    4.2144    1.0000 </r>
       <r>    7.1439    0.0000 </r>
       <r>    9.5439    0.0000 </r>
       <r>   10.6386    0.0000 </r>
       <r>   10.7575    0.0000 </r>
      </set>
      <set comment="kpoint 58">
       <r>   -5.3384    1.0000 </r>
       <r>    2.8093    1.0000 </r>
       <r>    4.0795    1.0000 </r>
       <r>    4.1069    1.0000 </r>
       <r>    7.0550    0.0000 </r>
       <r>    9.3568    0.0000 </r>
       <r>   10.8516    0.0000 </r>
       <r>   10.9771    0.0000 </r>
      </set>
      <set comment="kpoint 59">
       <r>   -5.2398    1.0000 </r>
       <r>    2.5815    1.0000 </r>
       <r>    3.9774    1.0000 </r>
       <r>    4.0030    1.0000 </r>
       <r>    6.9697    0.0000 </r>
       <r>    9.1643    0.0000 </r>
       <r>   11.0676    0.0000 </r>
       <r>   11.1999    0.0000 </r>
      </set>
      <set comment="kpoint 60">
       <r>   -5.1358    1.0000 </r>
       <r>    2.3531    1.0000 </r>
       <r>    3.8791    1.0000 </r>
       <r>    3.9030    1.0000 </r>
       <r>    6.8879    0.0000 </r>
       <r>    8.9705    0.0000 </r>
       <r>   11.2861    0.0000 </r>
       <r>   11.4252    0.0000 </r>
      </set>
      <set comment="kpoint 61">
       <r>   -5.0266    1.0000 </r>
       <r>    2.1244    1.0000 </r>
       <r>    3.7847    1.0000 </r>
       <r>    3.8069    1.0000 </r>
       <r>    6.8102    0.0000 </r>
       <r>    8.7780    0.0000 </r>
       <r>   11.5068    0.0000 </r>
       <r>   11.6527    0.0000 </r>
      </set>
      <set comment="kpoint 62">
       <r>   -4.9120    1.0000 </r>
       <r>    1.8955    1.0000 </r>
       <r>    3.6944    1.0000 </r>
       <r>    3.7151    1.0000 </r>
       <r>    6.7370    0.0000 </r>
       <r>    8.5889    0.0000 </r>
       <r>   11.7295    0.0000 </r>
       <r>   11.8822    0.0000 </r>
      </set>
      <set comment="kpoint 63">
       <r>   -4.7922    1.0000 </r>
       <r>    1.6668    1.0000 </r>
       <r>    3.6086    1.0000 </r>
       <r>    3.6278    1.0000 </r>
       <r>    6.6687    0.0000 </r>
       <r>    8.4046    0.0000 </r>
       <r>   11.9547    0.0000 </r>
       <r>   12.1142    0.0000 </r>
      </set>
      <set comment="kpoint 64">
       <r>   -4.6672    1.0000 </r>
       <r>    1.4382    1.0000 </r>
       <r>    3.5270    1.0000 </r>
       <r>    3.5448    1.0000 </r>
       <r>    6.6052    0.0000 </r>
       <r>    8.2262    0.0000 </r>
       <r>   12.1813    0.0000 </r>
       <r>   12.3482    0.0000 </r>
      </set>
      <set comment="kpoint 65">
       <r>   -4.5372    1.0000 </r>
       <r>    1.2101    1.0000 </r>
       <r>    3.4499    1.0000 </r>
       <r>    3.4663    1.0000 </r>
       <r>    6.5469    0.0000 </r>
       <r>    8.0543    0.0000 </r>
       <r>   12.4093    0.0000 </r>
       <r>   12.5827    0.0000 </r>
      </set>
      <set comment="kpoint 66">
       <r>   -4.4021    1.0000 </r>
       <r>    0.9827    1.0000 </r>
       <r>    3.3774    1.0000 </r>
       <r>    3.3925    1.0000 </r>
       <r>    6.4940    0.0000 </r>
       <r>    7.8898    0.0000 </r>
       <r>   12.6386    0.0000 </r>
       <r>   12.8186    0.0000 </r>
      </set>
      <set comment="kpoint 67">
       <r>   -4.2621    1.0000 </r>
       <r>    0.7559    1.0000 </r>
       <r>    3.3097    1.0000 </r>
       <r>    3.3235    1.0000 </r>
       <r>    6.4470    0.0000 </r>
       <r>    7.7326    0.0000 </r>
       <r>   12.8698    0.0000 </r>
       <r>   13.0561    0.0000 </r>
      </set>
      <set comment="kpoint 68">
       <r>   -4.1172    1.0000 </r>
       <r>    0.5302    1.0000 </r>
       <r>    3.2467    1.0000 </r>
       <r>    3.2593    1.0000 </r>
       <r>    6.4056    0.0000 </r>
       <r>    7.5833    0.0000 </r>
       <r>   13.1022    0.0000 </r>
       <r>   13.2943    0.0000 </r>
      </set>
      <set comment="kpoint 69">
       <r>   -3.9675    1.0000 </r>
       <r>    0.3057    1.0000 </r>
       <r>    3.1887    1.0000 </r>
       <r>    3.2001    1.0000 </r>
       <r>    6.3708    0.0000 </r>
       <r>    7.4421    0.0000 </r>
       <r>   13.3375    0.0000 </r>
       <r>   13.5345    0.0000 </r>
      </set>
      <set comment="kpoint 70">
       <r>   -3.8130    1.0000 </r>
       <r>    0.0825    1.0000 </r>
       <r>    3.1355    1.0000 </r>
       <r>    3.1458    1.0000 </r>
       <r>    6.3422    0.0000 </r>
       <r>    7.3092    0.0000 </r>
       <r>   13.5730    0.0000 </r>
       <r>   13.7754    0.0000 </r>
      </set>
      <set comment="kpoint 71">
       <r>   -3.6540    1.0000 </r>
       <r>   -0.1391    1.0000 </r>
       <r>    3.0874    1.0000 </r>
       <r>    3.0964    1.0000 </r>
       <r>    6.3202    0.0000 </r>
       <r>    7.1847    0.0000 </r>
       <r>   13.8097    0.0000 </r>
       <r>   14.0170    0.0000 </r>
      </set>
      <set comment="kpoint 72">
       <r>   -3.4903    1.0000 </r>
       <r>   -0.3589    1.0000 </r>
       <r>    3.0442    1.0000 </r>
       <r>    3.0522    1.0000 </r>
       <r>    6.3049    0.0000 </r>
       <r>    7.0688    0.0000 </r>
       <r>   14.0476    0.0000 </r>
       <r>   14.2590    0.0000 </r>
      </set>
      <set comment="kpoint 73">
       <r>   -3.3222    1.0000 </r>
       <r>   -0.5768    1.0000 </r>
       <r>    3.0061    1.0000 </r>
       <r>    3.0130    1.0000 </r>
       <r>    6.2963    0.0000 </r>
       <r>    6.9609    0.0000 </r>
       <r>   14.2859    0.0000 </r>
       <r>   14.5009    0.0000 </r>
      </set>
      <set comment="kpoint 74">
       <r>   -3.1498    1.0000 </r>
       <r>   -0.7925    1.0000 </r>
       <r>    2.9730    1.0000 </r>
       <r>    2.9790    1.0000 </r>
       <r>    6.2946    0.0000 </r>
       <r>    6.8616    0.0000 </r>
       <r>   14.5243    0.0000 </r>
       <r>   14.7431    0.0000 </r>
      </set>
      <set comment="kpoint 75">
       <r>   -2.9733    1.0000 </r>
       <r>   -1.0060    1.0000 </r>
       <r>    2.9450    1.0000 </r>
       <r>    2.9500    1.0000 </r>
       <r>    6.3000    0.0000 </r>
       <r>    6.7706    0.0000 </r>
       <r>   14.7629    0.0000 </r>
       <r>   14.9811    0.0000 </r>
      </set>
      <set comment="kpoint 76">
       <r>   -2.7926    1.0000 </r>
       <r>   -1.2169    1.0000 </r>
       <r>    2.9222    1.0000 </r>
       <r>    2.9262    1.0000 </r>
       <r>    6.3126    0.0000 </r>
       <r>    6.6878    0.0000 </r>
       <r>   14.9978    0.0000 </r>
       <r>   15.2130    0.0000 </r>
      </set>
      <set comment="kpoint 77">
       <r>   -2.6080    1.0000 </r>
       <r>   -1.4251    1.0000 </r>
       <r>    2.9046    1.0000 </r>
       <r>    2.9075    1.0000 </r>
       <r>    6.3325    0.0000 </r>
       <r>    6.6131    0.0000 </r>
       <r>   15.2264    0.0000 </r>
       <r>   15.4322    0.0000 </r>
      </set>
      <set comment="kpoint 78">
       <r>   -2.4195    1.0000 </r>
       <r>   -1.6304    1.0000 </r>
       <r>    2.8921    1.0000 </r>
       <r>    2.8941    1.0000 </r>
       <r>    6.3599    0.0000 </r>
       <r>    6.5465    0.0000 </r>
       <r>   15.4427    0.0000 </r>
       <r>   15.6226    0.0000 </r>
      </set>
      <set comment="kpoint 79">
       <r>   -2.2274    1.0000 </r>
       <r>   -1.8327    1.0000 </r>
       <r>    2.8848    1.0000 </r>
       <r>    2.8858    1.0000 </r>
       <r>    6.3949    0.0000 </r>
       <r>    6.4881    0.0000 </r>
       <r>   15.6296    0.0000 </r>
       <r>   15.7460    0.0000 </r>
      </set>
      <set comment="kpoint 80">
       <r>   -2.0317    1.0000 </r>
       <r>   -2.0317    1.0000 </r>
       <r>    2.8827    1.0000 </r>
       <r>    2.8827    1.0000 </r>
       <r>    6.4376    0.0000 </r>
       <r>    6.4376    0.0000 </r>
       <r>   15.7490    0.0000 </r>
       <r>   15.7494    0.0000 </r>
      </set>
     </set>
    </set>
   </array>
  </eigenvalues>
  <separator name="orbital magnetization" >
   <v name="MAGDIPOLOUT">      0.00000000      0.00000000      0.00000000</v>
  </separator>
  <dos>
   <i name="efermi">      6.02140570 </i>
   <total>
    <array>
     <dimension dim="1">gridpoints</dimension>
     <dimension dim="2">spin</dimension>
     <field>energy</field>
     <field>total</field>
     <field>integrated</field>
     <set>
      <set comment="spin 1">
       <r>    -7.2581     0.0000     0.0000 </r>
       <r>    -7.1777     0.0000     0.0000 </r>
       <r>    -7.0972     0.0000     0.0000 </r>
       <r>    -7.0168     0.0000     0.0000 </r>
       <r>    -6.9363     0.0000     0.0000 </r>
       <r>    -6.8559     0.0000     0.0000 </r>
       <r>    -6.7754     0.0000     0.0000 </r>
       <r>    -6.6949     0.0000     0.0000 </r>
       <r>    -6.6145     0.0000     0.0000 </r>
       <r>    -6.5340     0.0000     0.0000 </r>
       <r>    -6.4536     0.0000     0.0000 </r>
       <r>    -6.3731     0.0000     0.0000 </r>
       <r>    -6.2927     0.0001     0.0000 </r>
       <r>    -6.2122     0.1203     0.0097 </r>
       <r>    -6.1318     1.9083     0.1632 </r>
       <r>    -6.0513     2.0843     0.3309 </r>
       <r>    -5.9709     1.2589     0.4322 </r>
       <r>    -5.8904     0.9930     0.5121 </r>
       <r>    -5.8100     0.8509     0.5805 </r>
       <r>    -5.7295     0.7571     0.6414 </r>
       <r>    -5.6491     0.6887     0.6968 </r>
       <r>    -5.5686     0.6373     0.7481 </r>
       <r>    -5.4882     0.5984     0.7962 </r>
       <r>    -5.4077     0.5678     0.8419 </r>
       <r>    -5.3273     0.5376     0.8852 </r>
       <r>    -5.2468     0.4989     0.9253 </r>
       <r>    -5.1664     0.4686     0.9630 </r>
       <r>    -5.0859     0.4796     1.0016 </r>
       <r>    -5.0055     0.4831     1.0405 </r>
       <r>    -4.9250     0.4107     1.0735 </r>
       <r>    -4.8446     0.4020     1.1058 </r>
       <r>    -4.7641     0.4660     1.1433 </r>
       <r>    -4.6837     0.3657     1.1728 </r>
       <r>    -4.6032     0.3761     1.2030 </r>
       <r>    -4.5228     0.4408     1.2385 </r>
       <r>    -4.4423     0.2965     1.2623 </r>
       <r>    -4.3619     0.4291     1.2968 </r>
       <r>    -4.2814     0.3237     1.3229 </r>
       <r>    -4.2010     0.3481     1.3509 </r>
       <r>    -4.1205     0.3801     1.3815 </r>
       <r>    -4.0401     0.2757     1.4037 </r>
       <r>    -3.9596     0.4128     1.4369 </r>
       <r>    -3.8791     0.2341     1.4557 </r>
       <r>    -3.7987     0.4217     1.4896 </r>
       <r>    -3.7182     0.2122     1.5067 </r>
       <r>    -3.6378     0.4196     1.5405 </r>
       <r>    -3.5573     0.1989     1.5565 </r>
       <r>    -3.4769     0.4129     1.5897 </r>
       <r>    -3.3964     0.1922     1.6051 </r>
       <r>    -3.3160     0.3992     1.6373 </r>
       <r>    -3.2355     0.1984     1.6532 </r>
       <r>    -3.1551     0.3683     1.6829 </r>
       <r>    -3.0746     0.2285     1.7012 </r>
       <r>    -2.9942     0.3117     1.7263 </r>
       <r>    -2.9137     0.2866     1.7494 </r>
       <r>    -2.8333     0.2337     1.7682 </r>
       <r>    -2.7528     0.3547     1.7967 </r>
       <r>    -2.6724     0.1640     1.8099 </r>
       <r>    -2.5919     0.3891     1.8412 </r>
       <r>    -2.5115     0.1537     1.8536 </r>
       <r>    -2.4310     0.3465     1.8814 </r>
       <r>    -2.3506     0.2316     1.9001 </r>
       <r>    -2.2701     0.2351     1.9190 </r>
       <r>    -2.1897     0.3412     1.9464 </r>
       <r>    -2.1092     0.2331     1.9652 </r>
       <r>    -2.0288     0.7377     2.0245 </r>
       <r>    -1.9483     0.3286     2.0510 </r>
       <r>    -1.8679     0.2726     2.0729 </r>
       <r>    -1.7874     0.3062     2.0975 </r>
       <r>    -1.7070     0.1394     2.1088 </r>
       <r>    -1.6265     0.3610     2.1378 </r>
       <r>    -1.5461     0.1650     2.1511 </r>
       <r>    -1.4656     0.2555     2.1716 </r>
       <r>    -1.3852     0.3124     2.1968 </r>
       <r>    -1.3047     0.1220     2.2066 </r>
       <r>    -1.2243     0.3424     2.2341 </r>
       <r>    -1.1438     0.1979     2.2500 </r>
       <r>    -1.0633     0.2014     2.2662 </r>
       <r>    -0.9829     0.3379     2.2934 </r>
       <r>    -0.9024     0.1170     2.3028 </r>
       <r>    -0.8220     0.2943     2.3265 </r>
       <r>    -0.7415     0.2695     2.3482 </r>
       <r>    -0.6611     0.1269     2.3584 </r>
       <r>    -0.5806     0.3377     2.3856 </r>
       <r>    -0.5002     0.1812     2.4002 </r>
       <r>    -0.4197     0.1970     2.4160 </r>
       <r>    -0.3393     0.3309     2.4426 </r>
       <r>    -0.2588     0.1164     2.4520 </r>
       <r>    -0.1784     0.2685     2.4736 </r>
       <r>    -0.0979     0.2904     2.4969 </r>
       <r>    -0.0175     0.1027     2.5052 </r>
       <r>     0.0630     0.3136     2.5304 </r>
       <r>     0.1434     0.2315     2.5491 </r>
       <r>     0.2239     0.1348     2.5599 </r>
       <r>     0.3043     0.3309     2.5865 </r>
       <r>     0.3848     0.1694     2.6002 </r>
       <r>     0.4652     0.1878     2.6153 </r>
       <r>     0.5457     0.3269     2.6416 </r>
       <r>     0.6261     0.1198     2.6512 </r>
       <r>     0.7066     0.2402     2.6705 </r>
       <r>     0.7870     0.3070     2.6952 </r>
       <r>     0.8675     0.0940     2.7028 </r>
       <r>     0.9479     0.2817     2.7254 </r>
       <r>     1.0284     0.2749     2.7476 </r>
       <r>     1.1088     0.0940     2.7551 </r>
       <r>     1.1893     0.3104     2.7801 </r>
       <r>     1.2697     0.2341     2.7989 </r>
       <r>     1.3502     0.1154     2.8082 </r>
       <r>     1.4306     0.3268     2.8345 </r>
       <r>     1.5111     0.1891     2.8497 </r>
       <r>     1.5915     0.1504     2.8618 </r>
       <r>     1.6720     0.3327     2.8886 </r>
       <r>     1.7525     0.1458     2.9003 </r>
       <r>     1.8329     0.1916     2.9157 </r>
       <r>     1.9134     0.3286     2.9422 </r>
       <r>     1.9938     0.1101     2.9510 </r>
       <r>     2.0743     0.2335     2.9698 </r>
       <r>     2.1547     0.3138     2.9951 </r>
       <r>     2.2352     0.0878     3.0021 </r>
       <r>     2.3156     0.2724     3.0240 </r>
       <r>     2.3961     0.2878     3.0472 </r>
       <r>     2.4765     0.0827     3.0538 </r>
       <r>     2.5570     0.3059     3.0784 </r>
       <r>     2.6374     0.2506     3.0986 </r>
       <r>     2.7179     0.0973     3.1064 </r>
       <r>     2.7983     0.3441     3.1341 </r>
       <r>     2.8788     1.1897     3.2298 </r>
       <r>     2.9592     3.8605     3.5404 </r>
       <r>     3.0397     4.4724     3.9002 </r>
       <r>     3.1201     2.8059     4.1260 </r>
       <r>     3.2006     2.2592     4.3077 </r>
       <r>     3.2810     2.1266     4.4788 </r>
       <r>     3.3615     1.7010     4.6157 </r>
       <r>     3.4419     1.6984     4.7523 </r>
       <r>     3.5224     1.6677     4.8865 </r>
       <r>     3.6028     1.3563     4.9956 </r>
       <r>     3.6833     1.5016     5.1164 </r>
       <r>     3.7637     1.4034     5.2293 </r>
       <r>     3.8442     1.2023     5.3260 </r>
       <r>     3.9246     1.4033     5.4389 </r>
       <r>     4.0051     1.2114     5.5364 </r>
       <r>     4.0855     1.1705     5.6306 </r>
       <r>     4.1660     1.3085     5.7358 </r>
       <r>     4.2464     1.0527     5.8205 </r>
       <r>     4.3269     1.1900     5.9163 </r>
       <r>     4.4073     1.1952     6.0124 </r>
       <r>     4.4878     1.0328     6.0955 </r>
       <r>     4.5683     1.2042     6.1924 </r>
       <r>     4.6487     1.0293     6.2752 </r>
       <r>     4.7292     1.1510     6.3678 </r>
       <r>     4.8096     1.1403     6.4595 </r>
       <r>     4.8901     0.9952     6.5396 </r>
       <r>     4.9705     1.2475     6.6400 </r>
       <r>     5.0510     1.0386     6.7235 </r>
       <r>     5.1314     1.1631     6.8171 </r>
       <r>     5.2119     1.1877     6.9126 </r>
       <r>     5.2923     1.2395     7.0124 </r>
       <r>     5.3728     1.2289     7.1112 </r>
       <r>     5.4532     1.3709     7.2215 </r>
       <r>     5.5337     1.5413     7.3455 </r>
       <r>     5.6141     1.8558     7.4948 </r>
       <r>     5.6946     2.7615     7.7170 </r>
       <r>     5.7750     2.9026     7.9505 </r>
       <r>     5.8555     0.6112     7.9997 </r>
       <r>     5.9359     0.0039     8.0000 </r>
       <r>     6.0164     0.0000     8.0000 </r>
       <r>     6.0968     0.0000     8.0000 </r>
       <r>     6.1773     0.0004     8.0000 </r>
       <r>     6.2577     0.1923     8.0155 </r>
       <r>     6.3382     1.9519     8.1725 </r>
       <r>     6.4186     3.4410     8.4494 </r>
       <r>     6.4991     3.1432     8.7022 </r>
       <r>     6.5795     2.2087     8.8799 </r>
       <r>     6.6600     1.6707     9.0143 </r>
       <r>     6.7404     1.4613     9.1319 </r>
       <r>     6.8209     1.3236     9.2384 </r>
       <r>     6.9013     1.2290     9.3373 </r>
       <r>     6.9818     1.1529     9.4300 </r>
       <r>     7.0622     1.0786     9.5168 </r>
       <r>     7.1427     1.0344     9.6000 </r>
       <r>     7.2231     1.0037     9.6808 </r>
       <r>     7.3036     0.9269     9.7553 </r>
       <r>     7.3841     0.9616     9.8327 </r>
       <r>     7.4645     0.9186     9.9066 </r>
       <r>     7.5450     0.8641     9.9761 </r>
       <r>     7.6254     0.9638    10.0537 </r>
       <r>     7.7059     0.7806    10.1165 </r>
       <r>     7.7863     0.9938    10.1964 </r>
       <r>     7.8668     0.7662    10.2581 </r>
       <r>     7.9472     1.0409    10.3418 </r>
       <r>     8.0277     0.8069    10.4067 </r>
       <r>     8.1081     1.1633    10.5003 </r>
       <r>     8.1886     0.9994    10.5807 </r>
       <r>     8.2690     2.3511    10.7699 </r>
       <r>     8.3495     3.6720    11.0653 </r>
       <r>     8.4299     2.1098    11.2350 </r>
       <r>     8.5104     1.1763    11.3297 </r>
       <r>     8.5908     1.2014    11.4263 </r>
       <r>     8.6713     1.1505    11.5189 </r>
       <r>     8.7517     0.7647    11.5804 </r>
       <r>     8.8322     1.2588    11.6817 </r>
       <r>     8.9126     0.5801    11.7283 </r>
       <r>     8.9931     1.7169    11.8665 </r>
       <r>     9.0735     1.6062    11.9957 </r>
       <r>     9.1540     1.6482    12.1283 </r>
       <r>     9.2344     1.0901    12.2160 </r>
       <r>     9.3149     1.3808    12.3271 </r>
       <r>     9.3953     1.0630    12.4126 </r>
       <r>     9.4758     1.2080    12.5098 </r>
       <r>     9.5562     1.1641    12.6034 </r>
       <r>     9.6367     1.0097    12.6847 </r>
       <r>     9.7171     1.3288    12.7916 </r>
       <r>     9.7976     0.8906    12.8632 </r>
       <r>     9.8780     1.5077    12.9845 </r>
       <r>     9.9585     1.0469    13.0687 </r>
       <r>    10.0389     1.6130    13.1985 </r>
       <r>    10.1194     2.0172    13.3608 </r>
       <r>    10.1999     0.6039    13.4094 </r>
       <r>    10.2803     0.6816    13.4642 </r>
       <r>    10.3608     0.4021    13.4965 </r>
       <r>    10.4412     0.3941    13.5282 </r>
       <r>    10.5217     0.6368    13.5795 </r>
       <r>    10.6021     0.2981    13.6035 </r>
       <r>    10.6826     0.5702    13.6493 </r>
       <r>    10.7630     0.4899    13.6887 </r>
       <r>    10.8435     0.3046    13.7133 </r>
       <r>    10.9239     0.6417    13.7649 </r>
       <r>    11.0044     0.3792    13.7954 </r>
       <r>    11.0848     0.3815    13.8261 </r>
       <r>    11.1653     0.6035    13.8746 </r>
       <r>    11.2457     0.3266    13.9009 </r>
       <r>    11.3262     0.4762    13.9392 </r>
       <r>    11.4066     0.5198    13.9810 </r>
       <r>    11.4871     0.3213    14.0069 </r>
       <r>    11.5675     0.5428    14.0506 </r>
       <r>    11.6480     0.4399    14.0860 </r>
       <r>    11.7284     0.3435    14.1136 </r>
       <r>    11.8089     0.5686    14.1593 </r>
       <r>    11.8893     0.3830    14.1901 </r>
       <r>    11.9698     0.3728    14.2201 </r>
       <r>    12.0502     0.5649    14.2656 </r>
       <r>    12.1307     0.3512    14.2938 </r>
       <r>    12.2111     0.4020    14.3262 </r>
       <r>    12.2916     0.5426    14.3698 </r>
       <r>    12.3720     0.3425    14.3974 </r>
       <r>    12.4525     0.4141    14.4307 </r>
       <r>    12.5329     0.5178    14.4724 </r>
       <r>    12.6134     0.3582    14.5012 </r>
       <r>    12.6938     0.4192    14.5349 </r>
       <r>    12.7743     0.4928    14.5746 </r>
       <r>    12.8547     0.3740    14.6047 </r>
       <r>    12.9352     0.4175    14.6382 </r>
       <r>    13.0157     0.4704    14.6761 </r>
       <r>    13.0961     0.3934    14.7077 </r>
       <r>    13.1766     0.4167    14.7413 </r>
       <r>    13.2570     0.4480    14.7773 </r>
       <r>    13.3375     0.4055    14.8099 </r>
       <r>    13.4179     0.4111    14.8430 </r>
       <r>    13.4984     0.4342    14.8779 </r>
       <r>    13.5788     0.4206    14.9118 </r>
       <r>    13.6593     0.4051    14.9444 </r>
       <r>    13.7397     0.4227    14.9784 </r>
       <r>    13.8202     0.4322    15.0131 </r>
       <r>    13.9006     0.3968    15.0451 </r>
       <r>    13.9811     0.4165    15.0786 </r>
       <r>    14.0615     0.4410    15.1140 </r>
       <r>    14.1420     0.3895    15.1454 </r>
       <r>    14.2224     0.4136    15.1787 </r>
       <r>    14.3029     0.4486    15.2147 </r>
       <r>    14.3833     0.3814    15.2454 </r>
       <r>    14.4638     0.4142    15.2788 </r>
       <r>    14.5442     0.4558    15.3154 </r>
       <r>    14.6247     0.3776    15.3458 </r>
       <r>    14.7051     0.4107    15.3788 </r>
       <r>    14.7856     0.4618    15.4160 </r>
       <r>    14.8660     0.3856    15.4470 </r>
       <r>    14.9465     0.4112    15.4801 </r>
       <r>    15.0269     0.4720    15.5181 </r>
       <r>    15.1074     0.4068    15.5508 </r>
       <r>    15.1878     0.4113    15.5839 </r>
       <r>    15.2683     0.4751    15.6221 </r>
       <r>    15.3487     0.4480    15.6582 </r>
       <r>    15.4292     0.4617    15.6953 </r>
       <r>    15.5096     0.4595    15.7323 </r>
       <r>    15.5901     0.5685    15.7780 </r>
       <r>    15.6705     0.6113    15.8272 </r>
       <r>    15.7510     1.1404    15.9189 </r>
       <r>    15.8315     0.9545    15.9957 </r>
       <r>    15.9119     0.0532    16.0000 </r>
       <r>    15.9924     0.0001    16.0000 </r>
       <r>    16.0728     0.0000    16.0000 </r>
       <r>    16.1533     0.0000    16.0000 </r>
       <r>    16.2337     0.0000    16.0000 </r>
       <r>    16.3142     0.0000    16.0000 </r>
       <r>    16.3946     0.0000    16.0000 </r>
       <r>    16.4751     0.0000    16.0000 </r>
       <r>    16.5555     0.0000    16.0000 </r>
       <r>    16.6360     0.0000    16.0000 </r>
       <r>    16.7164     0.0000    16.0000 </r>
       <r>    16.7969     0.0000    16.0000 </r>
       <r>    16.8773     0.0000    16.0000 </r>
      </set>
     </set>
    </array>
   </total>
   <partial>
    <array>
     <dimension dim="1">gridpoints</dimension>
     <dimension dim="2">spin</dimension>
     <dimension dim="3">ion</dimension>
     <field>energy</field>
     <field>    s</field>
     <field>   py</field>
     <field>   pz</field>
     <field>   px</field>
     <field>  dxy</field>
     <field>  dyz</field>
     <field>  dz2</field>
     <field>  dxz</field>
     <field>x2-y2</field>
     <set>
      <set comment="ion 1">
       <set comment="spin 1">
        <r>    -7.2581     0.0000     0.0000     0.0000     0.0000     0.0000     0.0000     0.0000     0.0000     0.0000 </r>
        <r>    -7.1777     0.0000     0.0000     0.0000     0.0000     0.0000     0.0000     0.0000     0.0000     0.0000 </r>
        <r>    -7.0972     0.0000     0.0000     0.0000     0.0000     0.0000     0.0000     0.0000     0.0000     0.0000 </r>
        <r>    -7.0168     0.0000     0.0000     0.0000     0.0000     0.0000     0.0000     0.0000     0.0000     0.0000 </r>
        <r>    -6.9363     0.0000     0.0000     0.0000     0.0000     0.0000     0.0000     0.0000     0.0000     0.0000 </r>
        <r>    -6.8559     0.0000     0.0000     0.0000     0.0000     0.0000     0.0000     0.0000     0.0000     0.0000 </r>
        <r>    -6.7754     0.0000     0.0000     0.0000     0.0000     0.0000     0.0000     0.0000     0.0000     0.0000 </r>
        <r>    -6.6949     0.0000     0.0000     0.0000     0.0000     0.0000     0.0000     0.0000     0.0000     0.0000 </r>
        <r>    -6.6145     0.0000     0.0000     0.0000     0.0000     0.0000     0.0000     0.0000     0.0000     0.0000 </r>
        <r>    -6.5340     0.0000     0.0000     0.0000     0.0000     0.0000     0.0000     0.0000     0.0000     0.0000 </r>
        <r>    -6.4536     0.0000     0.0000     0.0000     0.0000     0.0000     0.0000     0.0000     0.0000     0.0000 </r>
        <r>    -6.3731     0.0000     0.0000     0.0000     0.0000     0.0000     0.0000     0.0000     0.0000     0.0000 </r>
        <r>    -6.2927     0.0000     0.0000     0.0000     0.0000     0.0000     0.0000     0.0000     0.0000     0.0000 </r>
        <r>    -6.2122     0.0256     0.0000     0.0000     0.0000     0.0000     0.0000     0.0000     0.0000     0.0000 </r>
        <r>    -6.1318     0.4058     0.0002     0.0000     0.0002     0.0000     0.0000     0.0000     0.0000     0.0000 </r>
        <r>    -6.0513     0.4428     0.0006     0.0000     0.0006     0.0000     0.0000     0.0000     0.0000     0.0000 </r>
        <r>    -5.9709     0.2669     0.0010     0.0000     0.0010     0.0000     0.0000     0.0000     0.0000     0.0000 </r>
        <r>    -5.8904     0.2101     0.0012     0.0000     0.0012     0.0000     0.0000     0.0000     0.0000     0.0000 </r>
        <r>    -5.8100     0.1797     0.0014     0.0000     0.0015     0.0000     0.0000     0.0000     0.0000     0.0000 </r>
        <r>    -5.7295     0.1595     0.0016     0.0000     0.0016     0.0000     0.0000     0.0000     0.0000     0.0000 </r>
        <r>    -5.6491     0.1449     0.0018     0.0000     0.0018     0.0000     0.0000     0.0000     0.0000     0.0000 </r>
        <r>    -5.5686     0.1338     0.0019     0.0000     0.0019     0.0000     0.0000     0.0000     0.0000     0.0000 </r>
        <r>    -5.4882     0.1254     0.0021     0.0000     0.0021     0.0000     0.0000     0.0000     0.0000     0.0000 </r>
        <r>    -5.4077     0.1188     0.0022     0.0000     0.0022     0.0000     0.0000     0.0000     0.0000     0.0000 </r>
        <r>    -5.3273     0.1122     0.0023     0.0000     0.0024     0.0000     0.0000     0.0000     0.0000     0.0000 </r>
        <r>    -5.2468     0.1039     0.0023     0.0000     0.0025     0.0000     0.0000     0.0000     0.0000     0.0000 </r>
        <r>    -5.1664     0.0974     0.0024     0.0000     0.0024     0.0000     0.0000     0.0000     0.0000     0.0000 </r>
        <r>    -5.0859     0.0996     0.0028     0.0000     0.0026     0.0000     0.0000     0.0000     0.0000     0.0000 </r>
        <r>    -5.0055     0.1001     0.0029     0.0000     0.0030     0.0000     0.0000     0.0000     0.0000     0.0000 </r>
        <r>    -4.9250     0.0849     0.0025     0.0000     0.0029     0.0000     0.0000     0.0000     0.0000     0.0000 </r>
        <r>    -4.8446     0.0830     0.0029     0.0000     0.0026     0.0000     0.0000     0.0000     0.0000     0.0000 </r>
        <r>    -4.7641     0.0960     0.0034     0.0000     0.0035     0.0000     0.0000     0.0000     0.0000     0.0000 </r>
        <r>    -4.6837     0.0752     0.0026     0.0000     0.0032     0.0000     0.0000     0.0000     0.0000     0.0000 </r>
        <r>    -4.6032     0.0773     0.0034     0.0000     0.0027     0.0000     0.0000     0.0000     0.0000     0.0000 </r>
        <r>    -4.5228     0.0903     0.0036     0.0000     0.0041     0.0000     0.0000     0.0000     0.0000     0.0000 </r>
        <r>    -4.4423     0.0606     0.0026     0.0000     0.0028     0.0000     0.0000     0.0000     0.0000     0.0000 </r>
        <r>    -4.3619     0.0876     0.0045     0.0000     0.0037     0.0000     0.0000     0.0000     0.0000     0.0000 </r>
        <r>    -4.2814     0.0659     0.0026     0.0000     0.0040     0.0000     0.0000     0.0000     0.0000     0.0000 </r>
        <r>    -4.2010     0.0709     0.0043     0.0000     0.0029     0.0000     0.0000     0.0000     0.0000     0.0000 </r>
        <r>    -4.1205     0.0771     0.0034     0.0000     0.0050     0.0000     0.0000     0.0000     0.0000     0.0000 </r>
        <r>    -4.0401     0.0559     0.0037     0.0000     0.0024     0.0000     0.0000     0.0000     0.0000     0.0000 </r>
        <r>    -3.9596     0.0835     0.0043     0.0000     0.0055     0.0000     0.0000     0.0000     0.0000     0.0000 </r>
        <r>    -3.8791     0.0473     0.0032     0.0000     0.0024     0.0000     0.0000     0.0000     0.0000     0.0000 </r>
        <r>    -3.7987     0.0850     0.0050     0.0000     0.0057     0.0000     0.0000     0.0000     0.0000     0.0000 </r>
        <r>    -3.7182     0.0427     0.0030     0.0000     0.0026     0.0000     0.0000     0.0000     0.0000     0.0000 </r>
        <r>    -3.6378     0.0842     0.0054     0.0000     0.0059     0.0000     0.0000     0.0000     0.0000     0.0000 </r>
        <r>    -3.5573     0.0399     0.0030     0.0000     0.0026     0.0000     0.0000     0.0000     0.0000     0.0000 </r>
        <r>    -3.4769     0.0826     0.0056     0.0000     0.0064     0.0000     0.0000     0.0000     0.0000     0.0000 </r>
        <r>    -3.3964     0.0384     0.0033     0.0000     0.0024     0.0000     0.0000     0.0000     0.0000     0.0000 </r>
        <r>    -3.3160     0.0795     0.0053     0.0000     0.0070     0.0000     0.0000     0.0000     0.0000     0.0000 </r>
        <r>    -3.2355     0.0395     0.0041     0.0000     0.0021     0.0000     0.0000     0.0000     0.0000     0.0000 </r>
        <r>    -3.1551     0.0731     0.0045     0.0000     0.0076     0.0000     0.0000     0.0000     0.0000     0.0000 </r>
        <r>    -3.0746     0.0454     0.0055     0.0000     0.0020     0.0000     0.0000     0.0000     0.0000     0.0000 </r>
        <r>    -2.9942     0.0616     0.0031     0.0000     0.0077     0.0000     0.0000     0.0000     0.0000     0.0000 </r>
        <r>    -2.9137     0.0567     0.0073     0.0000     0.0026     0.0000     0.0000     0.0000     0.0000     0.0000 </r>
        <r>    -2.8333     0.0460     0.0019     0.0000     0.0066     0.0000     0.0000     0.0000     0.0000     0.0000 </r>
        <r>    -2.7528     0.0699     0.0085     0.0000     0.0045     0.0000     0.0000     0.0000     0.0000     0.0000 </r>
        <r>    -2.6724     0.0322     0.0019     0.0000     0.0044     0.0000     0.0000     0.0000     0.0000     0.0000 </r>
        <r>    -2.5919     0.0763     0.0077     0.0000     0.0073     0.0000     0.0000     0.0000     0.0000     0.0000 </r>
        <r>    -2.5115     0.0301     0.0039     0.0000     0.0021     0.0000     0.0000     0.0000     0.0000     0.0000 </r>
        <r>    -2.4310     0.0675     0.0047     0.0000     0.0094     0.0000     0.0000     0.0000     0.0000     0.0000 </r>
        <r>    -2.3506     0.0452     0.0076     0.0000     0.0018     0.0000     0.0000     0.0000     0.0000     0.0000 </r>
        <r>    -2.2701     0.0456     0.0018     0.0000     0.0082     0.0000     0.0000     0.0000     0.0000     0.0000 </r>
        <r>    -2.1897     0.0663     0.0099     0.0000     0.0047     0.0000     0.0000     0.0000     0.0000     0.0000 </r>
        <r>    -2.1092     0.0450     0.0023     0.0000     0.0081     0.0000     0.0000     0.0000     0.0000     0.0000 </r>
        <r>    -2.0288     0.1425     0.0145     0.0000     0.0187     0.0000     0.0000     0.0000     0.0000     0.0000 </r>
        <r>    -1.9483     0.0636     0.0128     0.0000     0.0020     0.0000     0.0000     0.0000     0.0000     0.0000 </r>
        <r>    -1.8679     0.0523     0.0026     0.0000     0.0103     0.0000     0.0000     0.0000     0.0000     0.0000 </r>
        <r>    -1.7874     0.0589     0.0108     0.0000     0.0036     0.0000     0.0000     0.0000     0.0000     0.0000 </r>
        <r>    -1.7070     0.0266     0.0017     0.0000     0.0051     0.0000     0.0000     0.0000     0.0000     0.0000 </r>
        <r>    -1.6265     0.0690     0.0081     0.0000     0.0097     0.0000     0.0000     0.0000     0.0000     0.0000 </r>
        <r>    -1.5461     0.0316     0.0069     0.0000     0.0013     0.0000     0.0000     0.0000     0.0000     0.0000 </r>
        <r>    -1.4656     0.0484     0.0021     0.0000     0.0111     0.0000     0.0000     0.0000     0.0000     0.0000 </r>
        <r>    -1.3852     0.0595     0.0120     0.0000     0.0042     0.0000     0.0000     0.0000     0.0000     0.0000 </r>
        <r>    -1.3047     0.0231     0.0022     0.0000     0.0043     0.0000     0.0000     0.0000     0.0000     0.0000 </r>
        <r>    -1.2243     0.0646     0.0069     0.0000     0.0116     0.0000     0.0000     0.0000     0.0000     0.0000 </r>
        <r>    -1.1438     0.0375     0.0095     0.0000     0.0013     0.0000     0.0000     0.0000     0.0000     0.0000 </r>
        <r>    -1.0633     0.0377     0.0012     0.0000     0.0102     0.0000     0.0000     0.0000     0.0000     0.0000 </r>
        <r>    -0.9829     0.0635     0.0121     0.0000     0.0070     0.0000     0.0000     0.0000     0.0000     0.0000 </r>
        <r>    -0.9024     0.0219     0.0045     0.0000     0.0022     0.0000     0.0000     0.0000     0.0000     0.0000 </r>
        <r>    -0.8220     0.0547     0.0037     0.0000     0.0137     0.0000     0.0000     0.0000     0.0000     0.0000 </r>
        <r>    -0.7415     0.0504     0.0132     0.0000     0.0027     0.0000     0.0000     0.0000     0.0000     0.0000 </r>
        <r>    -0.6611     0.0234     0.0015     0.0000     0.0062     0.0000     0.0000     0.0000     0.0000     0.0000 </r>
        <r>    -0.5806     0.0624     0.0086     0.0000     0.0122     0.0000     0.0000     0.0000     0.0000     0.0000 </r>
        <r>    -0.5002     0.0336     0.0101     0.0000     0.0011     0.0000     0.0000     0.0000     0.0000     0.0000 </r>
        <r>    -0.4197     0.0360     0.0011     0.0000     0.0115     0.0000     0.0000     0.0000     0.0000     0.0000 </r>
        <r>    -0.3393     0.0608     0.0133     0.0000     0.0079     0.0000     0.0000     0.0000     0.0000     0.0000 </r>
        <r>    -0.2588     0.0214     0.0057     0.0000     0.0018     0.0000     0.0000     0.0000     0.0000     0.0000 </r>
        <r>    -0.1784     0.0487     0.0028     0.0000     0.0152     0.0000     0.0000     0.0000     0.0000     0.0000 </r>
        <r>    -0.0979     0.0530     0.0154     0.0000     0.0040     0.0000     0.0000     0.0000     0.0000     0.0000 </r>
        <r>    -0.0175     0.0186     0.0026     0.0000     0.0045     0.0000     0.0000     0.0000     0.0000     0.0000 </r>
        <r>     0.0630     0.0564     0.0062     0.0000     0.0156     0.0000     0.0000     0.0000     0.0000     0.0000 </r>
        <r>     0.1434     0.0419     0.0144     0.0000     0.0017     0.0000     0.0000     0.0000     0.0000     0.0000 </r>
        <r>     0.2239     0.0240     0.0011     0.0000     0.0086     0.0000     0.0000     0.0000     0.0000     0.0000 </r>
        <r>     0.3043     0.0590     0.0106     0.0000     0.0133     0.0000     0.0000     0.0000     0.0000     0.0000 </r>
        <r>     0.3848     0.0303     0.0112     0.0000     0.0010     0.0000     0.0000     0.0000     0.0000     0.0000 </r>
        <r>     0.4652     0.0330     0.0010     0.0000     0.0131     0.0000     0.0000     0.0000     0.0000     0.0000 </r>
        <r>     0.5457     0.0577     0.0148     0.0000     0.0097     0.0000     0.0000     0.0000     0.0000     0.0000 </r>
        <r>     0.6261     0.0212     0.0076     0.0000     0.0014     0.0000     0.0000     0.0000     0.0000     0.0000 </r>
        <r>     0.7066     0.0417     0.0020     0.0000     0.0167     0.0000     0.0000     0.0000     0.0000     0.0000 </r>
        <r>     0.7870     0.0537     0.0176     0.0000     0.0063     0.0000     0.0000     0.0000     0.0000     0.0000 </r>
        <r>     0.8675     0.0163     0.0046     0.0000     0.0029     0.0000     0.0000     0.0000     0.0000     0.0000 </r>
        <r>     0.9479     0.0483     0.0041     0.0000     0.0188     0.0000     0.0000     0.0000     0.0000     0.0000 </r>
        <r>     1.0284     0.0475     0.0185     0.0000     0.0037     0.0000     0.0000     0.0000     0.0000     0.0000 </r>
        <r>     1.1088     0.0160     0.0025     0.0000     0.0053     0.0000     0.0000     0.0000     0.0000     0.0000 </r>
        <r>     1.1893     0.0525     0.0072     0.0000     0.0189     0.0000     0.0000     0.0000     0.0000     0.0000 </r>
        <r>     1.2697     0.0399     0.0176     0.0000     0.0020     0.0000     0.0000     0.0000     0.0000     0.0000 </r>
        <r>     1.3502     0.0192     0.0014     0.0000     0.0087     0.0000     0.0000     0.0000     0.0000     0.0000 </r>
        <r>     1.4306     0.0545     0.0110     0.0000     0.0175     0.0000     0.0000     0.0000     0.0000     0.0000 </r>
        <r>     1.5111     0.0317     0.0152     0.0000     0.0012     0.0000     0.0000     0.0000     0.0000     0.0000 </r>
        <r>     1.5915     0.0246     0.0010     0.0000     0.0126     0.0000     0.0000     0.0000     0.0000     0.0000 </r>
        <r>     1.6720     0.0546     0.0151     0.0000     0.0149     0.0000     0.0000     0.0000     0.0000     0.0000 </r>
        <r>     1.7525     0.0240     0.0121     0.0000     0.0010     0.0000     0.0000     0.0000     0.0000     0.0000 </r>
        <r>     1.8329     0.0307     0.0013     0.0000     0.0167     0.0000     0.0000     0.0000     0.0000     0.0000 </r>
        <r>     1.9134     0.0529     0.0190     0.0000     0.0118     0.0000     0.0000     0.0000     0.0000     0.0000 </r>
        <r>     1.9938     0.0177     0.0088     0.0000     0.0015     0.0000     0.0000     0.0000     0.0000     0.0000 </r>
        <r>     2.0743     0.0366     0.0024     0.0000     0.0204     0.0000     0.0000     0.0000     0.0000     0.0000 </r>
        <r>     2.1547     0.0495     0.0218     0.0000     0.0086     0.0000     0.0000     0.0000     0.0000     0.0000 </r>
        <r>     2.2352     0.0137     0.0059     0.0000     0.0027     0.0000     0.0000     0.0000     0.0000     0.0000 </r>
        <r>     2.3156     0.0417     0.0045     0.0000     0.0231     0.0000     0.0000     0.0000     0.0000     0.0000 </r>
        <r>     2.3961     0.0444     0.0232     0.0000     0.0058     0.0000     0.0000     0.0000     0.0000     0.0000 </r>
        <r>     2.4765     0.0125     0.0035     0.0000     0.0050     0.0000     0.0000     0.0000     0.0000     0.0000 </r>
        <r>     2.5570     0.0456     0.0078     0.0000     0.0243     0.0000     0.0000     0.0000     0.0000     0.0000 </r>
        <r>     2.6374     0.0377     0.0226     0.0000     0.0035     0.0000     0.0000     0.0000     0.0000     0.0000 </r>
        <r>     2.7179     0.0141     0.0020     0.0000     0.0085     0.0000     0.0000     0.0000     0.0000     0.0000 </r>
        <r>     2.7983     0.0480     0.0125     0.0013     0.0248     0.0000     0.0000     0.0000     0.0000     0.0000 </r>
        <r>     2.8788     0.0298     0.0220     0.0970     0.0969     0.0000     0.0000     0.0000     0.0000     0.0000 </r>
        <r>     2.9592     0.0184     0.1137     0.3671     0.2679     0.0000     0.0000     0.0000     0.0000     0.0000 </r>
        <r>     3.0397     0.0484     0.2721     0.4066     0.1734     0.0000     0.0000     0.0000     0.0000     0.0000 </r>
        <r>     3.1201     0.0216     0.1656     0.2613     0.1130     0.0000     0.0000     0.0000     0.0000     0.0000 </r>
        <r>     3.2006     0.0245     0.1130     0.2047     0.1132     0.0000     0.0000     0.0000     0.0000     0.0000 </r>
        <r>     3.2810     0.0463     0.1176     0.1759     0.0985     0.0000     0.0000     0.0000     0.0000     0.0000 </r>
        <r>     3.3615     0.0147     0.0933     0.1569     0.0766     0.0000     0.0000     0.0000     0.0000     0.0000 </r>
        <r>     3.4419     0.0312     0.0789     0.1435     0.0946     0.0000     0.0000     0.0000     0.0000     0.0000 </r>
        <r>     3.5224     0.0410     0.0972     0.1333     0.0748     0.0000     0.0000     0.0000     0.0000     0.0000 </r>
        <r>     3.6028     0.0110     0.0709     0.1252     0.0655     0.0000     0.0000     0.0000     0.0000     0.0000 </r>
        <r>     3.6833     0.0371     0.0701     0.1184     0.0872     0.0000     0.0000     0.0000     0.0000     0.0000 </r>
        <r>     3.7637     0.0324     0.0856     0.1128     0.0605     0.0000     0.0000     0.0000     0.0000     0.0000 </r>
        <r>     3.8442     0.0126     0.0576     0.1083     0.0650     0.0000     0.0000     0.0000     0.0000     0.0000 </r>
        <r>     3.9246     0.0400     0.0705     0.1046     0.0804     0.0000     0.0000     0.0000     0.0000     0.0000 </r>
        <r>     4.0051     0.0218     0.0741     0.1009     0.0529     0.0000     0.0000     0.0000     0.0000     0.0000 </r>
        <r>     4.0855     0.0195     0.0543     0.0978     0.0697     0.0000     0.0000     0.0000     0.0000     0.0000 </r>
        <r>     4.1660     0.0378     0.0778     0.0959     0.0654     0.0000     0.0000     0.0000     0.0000     0.0000 </r>
        <r>     4.2464     0.0127     0.0574     0.0932     0.0519     0.0000     0.0000     0.0000     0.0000     0.0000 </r>
        <r>     4.3269     0.0281     0.0527     0.0891     0.0804     0.0000     0.0000     0.0000     0.0000     0.0000 </r>
        <r>     4.4073     0.0290     0.0818     0.0898     0.0512     0.0000     0.0000     0.0000     0.0000     0.0000 </r>
        <r>     4.4878     0.0122     0.0505     0.0915     0.0583     0.0000     0.0000     0.0000     0.0000     0.0000 </r>
        <r>     4.5683     0.0320     0.0627     0.0842     0.0775     0.0000     0.0000     0.0000     0.0000     0.0000 </r>
        <r>     4.6487     0.0161     0.0677     0.0833     0.0472     0.0000     0.0000     0.0000     0.0000     0.0000 </r>
        <r>     4.7292     0.0209     0.0546     0.0915     0.0749     0.0000     0.0000     0.0000     0.0000     0.0000 </r>
        <r>     4.8096     0.0251     0.0752     0.0830     0.0587     0.0000     0.0000     0.0000     0.0000     0.0000 </r>
        <r>     4.8901     0.0126     0.0494     0.0796     0.0662     0.0000     0.0000     0.0000     0.0000     0.0000 </r>
        <r>     4.9705     0.0246     0.0785     0.0927     0.0695     0.0000     0.0000     0.0000     0.0000     0.0000 </r>
        <r>     5.0510     0.0131     0.0609     0.0850     0.0592     0.0000     0.0000     0.0000     0.0000     0.0000 </r>
        <r>     5.1314     0.0194     0.0616     0.0801     0.0867     0.0000     0.0000     0.0000     0.0000     0.0000 </r>
        <r>     5.2119     0.0147     0.0827     0.0952     0.0587     0.0000     0.0000     0.0000     0.0000     0.0000 </r>
        <r>     5.2923     0.0150     0.0651     0.0939     0.0897     0.0000     0.0000     0.0000     0.0000     0.0000 </r>
        <r>     5.3728     0.0135     0.0827     0.0893     0.0765     0.0000     0.0000     0.0000     0.0000     0.0000 </r>
        <r>     5.4532     0.0117     0.0804     0.1009     0.0995     0.0000     0.0000     0.0000     0.0000     0.0000 </r>
        <r>     5.5337     0.0106     0.0951     0.1135     0.1105     0.0000     0.0000     0.0000     0.0000     0.0000 </r>
        <r>     5.6141     0.0083     0.1143     0.1285     0.1468     0.0000     0.0000     0.0000     0.0000     0.0000 </r>
        <r>     5.6946     0.0050     0.1542     0.1764     0.2582     0.0000     0.0000     0.0000     0.0000     0.0000 </r>
        <r>     5.7750     0.0017     0.2541     0.2792     0.0892     0.0000     0.0000     0.0000     0.0000     0.0000 </r>
        <r>     5.8555     0.0001     0.0626     0.0676     0.0010     0.0000     0.0000     0.0000     0.0000     0.0000 </r>
        <r>     5.9359     0.0000     0.0004     0.0004     0.0000     0.0000     0.0000     0.0000     0.0000     0.0000 </r>
        <r>     6.0164     0.0000     0.0000     0.0000     0.0000     0.0000     0.0000     0.0000     0.0000     0.0000 </r>
        <r>     6.0968     0.0000     0.0000     0.0000     0.0000     0.0000     0.0000     0.0000     0.0000     0.0000 </r>
        <r>     6.1773     0.0000     0.0000     0.0000     0.0000     0.0000     0.0000     0.0000     0.0000     0.0000 </r>
        <r>     6.2577     0.0101     0.0086     0.0000     0.0000     0.0000     0.0000     0.0000     0.0000     0.0000 </r>
        <r>     6.3382     0.1027     0.0816     0.0000     0.0058     0.0000     0.0000     0.0000     0.0000     0.0000 </r>
        <r>     6.4186     0.1801     0.0790     0.0000     0.0744     0.0000     0.0000     0.0000     0.0000     0.0000 </r>
        <r>     6.4991     0.1622     0.0588     0.0000     0.0822     0.0000     0.0000     0.0000     0.0000     0.0000 </r>
        <r>     6.5795     0.1114     0.0437     0.0000     0.0593     0.0000     0.0000     0.0000     0.0000     0.0000 </r>
        <r>     6.6600     0.0820     0.0389     0.0000     0.0441     0.0000     0.0000     0.0000     0.0000     0.0000 </r>
        <r>     6.7404     0.0700     0.0363     0.0000     0.0392     0.0000     0.0000     0.0000     0.0000     0.0000 </r>
        <r>     6.8209     0.0618     0.0346     0.0000     0.0364     0.0000     0.0000     0.0000     0.0000     0.0000 </r>
        <r>     6.9013     0.0559     0.0336     0.0000     0.0346     0.0000     0.0000     0.0000     0.0000     0.0000 </r>
        <r>     6.9818     0.0510     0.0329     0.0000     0.0335     0.0000     0.0000     0.0000     0.0000     0.0000 </r>
        <r>     7.0622     0.0463     0.0316     0.0000     0.0331     0.0000     0.0000     0.0000     0.0000     0.0000 </r>
        <r>     7.1427     0.0431     0.0314     0.0000     0.0327     0.0000     0.0000     0.0000     0.0000     0.0000 </r>
        <r>     7.2231     0.0405     0.0325     0.0000     0.0316     0.0000     0.0000     0.0000     0.0000     0.0000 </r>
        <r>     7.3036     0.0360     0.0311     0.0000     0.0317     0.0000     0.0000     0.0000     0.0000     0.0000 </r>
        <r>     7.3841     0.0364     0.0325     0.0000     0.0331     0.0000     0.0000     0.0000     0.0000     0.0000 </r>
        <r>     7.4645     0.0331     0.0348     0.0000     0.0316     0.0000     0.0000     0.0000     0.0000     0.0000 </r>
        <r>     7.5450     0.0295     0.0326     0.0000     0.0340     0.0000     0.0000     0.0000     0.0000     0.0000 </r>
        <r>     7.6254     0.0326     0.0366     0.0000     0.0353     0.0000     0.0000     0.0000     0.0000     0.0000 </r>
        <r>     7.7059     0.0231     0.0336     0.0000     0.0348     0.0000     0.0000     0.0000     0.0000     0.0000 </r>
        <r>     7.7863     0.0310     0.0394     0.0000     0.0388     0.0000     0.0000     0.0000     0.0000     0.0000 </r>
        <r>     7.8668     0.0190     0.0382     0.0000     0.0370     0.0000     0.0000     0.0000     0.0000     0.0000 </r>
        <r>     7.9472     0.0288     0.0455     0.0000     0.0438     0.0000     0.0000     0.0000     0.0000     0.0000 </r>
        <r>     8.0277     0.0154     0.0458     0.0000     0.0432     0.0000     0.0000     0.0000     0.0000     0.0000 </r>
        <r>     8.1081     0.0267     0.0575     0.0000     0.0537     0.0000     0.0000     0.0000     0.0000     0.0000 </r>
        <r>     8.1886     0.0113     0.0671     0.0004     0.0589     0.0000     0.0000     0.0000     0.0000     0.0000 </r>
        <r>     8.2690     0.0240     0.1464     0.0513     0.0980     0.0000     0.0000     0.0000     0.0000     0.0000 </r>
        <r>     8.3495     0.0064     0.1677     0.1797     0.1927     0.0000     0.0000     0.0000     0.0000     0.0000 </r>
        <r>     8.4299     0.0198     0.0651     0.1092     0.0964     0.0000     0.0000     0.0000     0.0000     0.0000 </r>
        <r>     8.5104     0.0074     0.0404     0.0758     0.0460     0.0000     0.0000     0.0000     0.0000     0.0000 </r>
        <r>     8.5908     0.0154     0.0387     0.0652     0.0437     0.0000     0.0000     0.0000     0.0000     0.0000 </r>
        <r>     8.6713     0.0132     0.0419     0.0717     0.0329     0.0000     0.0000     0.0000     0.0000     0.0000 </r>
        <r>     8.7517     0.0084     0.0230     0.0429     0.0340     0.0000     0.0000     0.0000     0.0000     0.0000 </r>
        <r>     8.8322     0.0207     0.0445     0.0680     0.0360     0.0000     0.0000     0.0000     0.0000     0.0000 </r>
        <r>     8.9126     0.0070     0.0184     0.0383     0.0249     0.0000     0.0000     0.0000     0.0000     0.0000 </r>
        <r>     8.9931     0.1962     0.0432     0.0633     0.0378     0.0000     0.0000     0.0000     0.0000     0.0000 </r>
        <r>     9.0735     0.3786     0.0189     0.0334     0.0243     0.0000     0.0000     0.0000     0.0000     0.0000 </r>
        <r>     9.1540     0.2137     0.0438     0.0644     0.0365     0.0000     0.0000     0.0000     0.0000     0.0000 </r>
        <r>     9.2344     0.1596     0.0211     0.0262     0.0301     0.0000     0.0000     0.0000     0.0000     0.0000 </r>
        <r>     9.3149     0.1618     0.0456     0.0668     0.0316     0.0000     0.0000     0.0000     0.0000     0.0000 </r>
        <r>     9.3953     0.1114     0.0236     0.0242     0.0381     0.0000     0.0000     0.0000     0.0000     0.0000 </r>
        <r>     9.4758     0.1395     0.0433     0.0607     0.0274     0.0000     0.0000     0.0000     0.0000     0.0000 </r>
        <r>     9.5562     0.1098     0.0317     0.0343     0.0441     0.0000     0.0000     0.0000     0.0000     0.0000 </r>
        <r>     9.6367     0.1226     0.0330     0.0405     0.0278     0.0000     0.0000     0.0000     0.0000     0.0000 </r>
        <r>     9.7171     0.1176     0.0483     0.0535     0.0433     0.0000     0.0000     0.0000     0.0000     0.0000 </r>
        <r>     9.7976     0.1139     0.0243     0.0226     0.0342     0.0000     0.0000     0.0000     0.0000     0.0000 </r>
        <r>     9.8780     0.1451     0.0615     0.0623     0.0443     0.0000     0.0000     0.0000     0.0000     0.0000 </r>
        <r>     9.9585     0.1214     0.0329     0.0275     0.0450     0.0000     0.0000     0.0000     0.0000     0.0000 </r>
        <r>    10.0389     0.2036     0.0607     0.0428     0.0567     0.0000     0.0000     0.0000     0.0000     0.0000 </r>
        <r>    10.1194     0.2560     0.0841     0.0492     0.0724     0.0000     0.0000     0.0000     0.0000     0.0000 </r>
        <r>    10.1999     0.0587     0.0168     0.0221     0.0319     0.0000     0.0000     0.0000     0.0000     0.0000 </r>
        <r>    10.2803     0.0004     0.0363     0.0581     0.0187     0.0000     0.0000     0.0000     0.0000     0.0000 </r>
        <r>    10.3608     0.0000     0.0124     0.0315     0.0227     0.0000     0.0000     0.0000     0.0000     0.0000 </r>
        <r>    10.4412     0.0000     0.0125     0.0335     0.0197     0.0000     0.0000     0.0000     0.0000     0.0000 </r>
        <r>    10.5217     0.0000     0.0363     0.0531     0.0166     0.0000     0.0000     0.0000     0.0000     0.0000 </r>
        <r>    10.6021     0.0000     0.0037     0.0238     0.0220     0.0000     0.0000     0.0000     0.0000     0.0000 </r>
        <r>    10.6826     0.0000     0.0268     0.0481     0.0202     0.0000     0.0000     0.0000     0.0000     0.0000 </r>
        <r>    10.7630     0.0000     0.0238     0.0405     0.0173     0.0000     0.0000     0.0000     0.0000     0.0000 </r>
        <r>    10.8435     0.0000     0.0038     0.0250     0.0219     0.0000     0.0000     0.0000     0.0000     0.0000 </r>
        <r>    10.9239     0.0000     0.0369     0.0535     0.0168     0.0000     0.0000     0.0000     0.0000     0.0000 </r>
        <r>    11.0044     0.0000     0.0117     0.0317     0.0198     0.0000     0.0000     0.0000     0.0000     0.0000 </r>
        <r>    11.0848     0.0000     0.0093     0.0313     0.0232     0.0000     0.0000     0.0000     0.0000     0.0000 </r>
        <r>    11.1653     0.0000     0.0381     0.0502     0.0125     0.0000     0.0000     0.0000     0.0000     0.0000 </r>
        <r>    11.2457     0.0000     0.0047     0.0277     0.0219     0.0000     0.0000     0.0000     0.0000     0.0000 </r>
        <r>    11.3262     0.0000     0.0178     0.0385     0.0232     0.0000     0.0000     0.0000     0.0000     0.0000 </r>
        <r>    11.4066     0.0000     0.0323     0.0437     0.0108     0.0000     0.0000     0.0000     0.0000     0.0000 </r>
        <r>    11.4871     0.0000     0.0023     0.0272     0.0240     0.0000     0.0000     0.0000     0.0000     0.0000 </r>
        <r>    11.5675     0.0000     0.0267     0.0437     0.0202     0.0000     0.0000     0.0000     0.0000     0.0000 </r>
        <r>    11.6480     0.0000     0.0239     0.0376     0.0117     0.0000     0.0000     0.0000     0.0000     0.0000 </r>
        <r>    11.7284     0.0000     0.0024     0.0284     0.0264     0.0000     0.0000     0.0000     0.0000     0.0000 </r>
        <r>    11.8089     0.0000     0.0335     0.0459     0.0154     0.0000     0.0000     0.0000     0.0000     0.0000 </r>
        <r>    11.8893     0.0000     0.0162     0.0335     0.0140     0.0000     0.0000     0.0000     0.0000     0.0000 </r>
        <r>    11.9698     0.0000     0.0040     0.0299     0.0282     0.0000     0.0000     0.0000     0.0000     0.0000 </r>
        <r>    12.0502     0.0000     0.0373     0.0459     0.0108     0.0000     0.0000     0.0000     0.0000     0.0000 </r>
        <r>    12.1307     0.0000     0.0105     0.0313     0.0166     0.0000     0.0000     0.0000     0.0000     0.0000 </r>
        <r>    12.2111     0.0000     0.0065     0.0314     0.0289     0.0000     0.0000     0.0000     0.0000     0.0000 </r>
        <r>    12.2916     0.0000     0.0385     0.0445     0.0073     0.0000     0.0000     0.0000     0.0000     0.0000 </r>
        <r>    12.3720     0.0000     0.0067     0.0308     0.0194     0.0000     0.0000     0.0000     0.0000     0.0000 </r>
        <r>    12.4525     0.0000     0.0088     0.0318     0.0282     0.0000     0.0000     0.0000     0.0000     0.0000 </r>
        <r>    12.5329     0.0000     0.0381     0.0429     0.0051     0.0000     0.0000     0.0000     0.0000     0.0000 </r>
        <r>    12.6134     0.0000     0.0049     0.0320     0.0226     0.0000     0.0000     0.0000     0.0000     0.0000 </r>
        <r>    12.6938     0.0000     0.0117     0.0319     0.0260     0.0000     0.0000     0.0000     0.0000     0.0000 </r>
        <r>    12.7743     0.0000     0.0366     0.0412     0.0041     0.0000     0.0000     0.0000     0.0000     0.0000 </r>
        <r>    12.8547     0.0000     0.0034     0.0331     0.0256     0.0000     0.0000     0.0000     0.0000     0.0000 </r>
        <r>    12.9352     0.0000     0.0144     0.0317     0.0232     0.0000     0.0000     0.0000     0.0000     0.0000 </r>
        <r>    13.0157     0.0000     0.0348     0.0395     0.0038     0.0000     0.0000     0.0000     0.0000     0.0000 </r>
        <r>    13.0961     0.0000     0.0025     0.0342     0.0284     0.0000     0.0000     0.0000     0.0000     0.0000 </r>
        <r>    13.1766     0.0000     0.0171     0.0318     0.0202     0.0000     0.0000     0.0000     0.0000     0.0000 </r>
        <r>    13.2570     0.0000     0.0327     0.0379     0.0038     0.0000     0.0000     0.0000     0.0000     0.0000 </r>
        <r>    13.3375     0.0000     0.0019     0.0350     0.0304     0.0000     0.0000     0.0000     0.0000     0.0000 </r>
        <r>    13.4179     0.0000     0.0186     0.0315     0.0181     0.0000     0.0000     0.0000     0.0000     0.0000 </r>
        <r>    13.4984     0.0000     0.0314     0.0368     0.0039     0.0000     0.0000     0.0000     0.0000     0.0000 </r>
        <r>    13.5788     0.0000     0.0017     0.0359     0.0322     0.0000     0.0000     0.0000     0.0000     0.0000 </r>
        <r>    13.6593     0.0000     0.0199     0.0313     0.0160     0.0000     0.0000     0.0000     0.0000     0.0000 </r>
        <r>    13.7397     0.0000     0.0303     0.0360     0.0040     0.0000     0.0000     0.0000     0.0000     0.0000 </r>
        <r>    13.8202     0.0000     0.0015     0.0367     0.0337     0.0000     0.0000     0.0000     0.0000     0.0000 </r>
        <r>    13.9006     0.0000     0.0206     0.0309     0.0145     0.0000     0.0000     0.0000     0.0000     0.0000 </r>
        <r>    13.9811     0.0000     0.0298     0.0355     0.0041     0.0000     0.0000     0.0000     0.0000     0.0000 </r>
        <r>    14.0615     0.0000     0.0014     0.0374     0.0348     0.0000     0.0000     0.0000     0.0000     0.0000 </r>
        <r>    14.1420     0.0000     0.0210     0.0307     0.0134     0.0000     0.0000     0.0000     0.0000     0.0000 </r>
        <r>    14.2224     0.0000     0.0297     0.0354     0.0042     0.0000     0.0000     0.0000     0.0000     0.0000 </r>
        <r>    14.3029     0.0000     0.0014     0.0381     0.0359     0.0000     0.0000     0.0000     0.0000     0.0000 </r>
        <r>    14.3833     0.0000     0.0212     0.0306     0.0126     0.0000     0.0000     0.0000     0.0000     0.0000 </r>
        <r>    14.4638     0.0000     0.0299     0.0358     0.0044     0.0000     0.0000     0.0000     0.0000     0.0000 </r>
        <r>    14.5442     0.0000     0.0014     0.0390     0.0370     0.0000     0.0000     0.0000     0.0000     0.0000 </r>
        <r>    14.6247     0.0000     0.0219     0.0309     0.0118     0.0000     0.0000     0.0000     0.0000     0.0000 </r>
        <r>    14.7051     0.0000     0.0300     0.0359     0.0046     0.0000     0.0000     0.0000     0.0000     0.0000 </r>
        <r>    14.7856     0.0000     0.0015     0.0402     0.0383     0.0000     0.0000     0.0000     0.0000     0.0000 </r>
        <r>    14.8660     0.0000     0.0236     0.0325     0.0112     0.0000     0.0000     0.0000     0.0000     0.0000 </r>
        <r>    14.9465     0.0000     0.0295     0.0368     0.0059     0.0000     0.0000     0.0000     0.0000     0.0000 </r>
        <r>    15.0269     0.0000     0.0016     0.0419     0.0404     0.0000     0.0000     0.0000     0.0000     0.0000 </r>
        <r>    15.1074     0.0000     0.0283     0.0358     0.0092     0.0000     0.0000     0.0000     0.0000     0.0000 </r>
        <r>    15.1878     0.0000     0.0267     0.0381     0.0102     0.0000     0.0000     0.0000     0.0000     0.0000 </r>
        <r>    15.2683     0.0000     0.0024     0.0435     0.0422     0.0000     0.0000     0.0000     0.0000     0.0000 </r>
        <r>    15.3487     0.0000     0.0371     0.0421     0.0059     0.0000     0.0000     0.0000     0.0000     0.0000 </r>
        <r>    15.4292     0.0000     0.0202     0.0455     0.0240     0.0000     0.0000     0.0000     0.0000     0.0000 </r>
        <r>    15.5096     0.0000     0.0108     0.0450     0.0357     0.0000     0.0000     0.0000     0.0000     0.0000 </r>
        <r>    15.5901     0.0000     0.0474     0.0592     0.0116     0.0000     0.0000     0.0000     0.0000     0.0000 </r>
        <r>    15.6705     0.0000     0.0148     0.0664     0.0516     0.0000     0.0000     0.0000     0.0000     0.0000 </r>
        <r>    15.7510     0.0000     0.0674     0.1317     0.0654     0.0000     0.0000     0.0000     0.0000     0.0000 </r>
        <r>    15.8315     0.0000     0.0637     0.1122     0.0515     0.0000     0.0000     0.0000     0.0000     0.0000 </r>
        <r>    15.9119     0.0000     0.0056     0.0062     0.0010     0.0000     0.0000     0.0000     0.0000     0.0000 </r>
        <r>    15.9924     0.0000     0.0000     0.0000     0.0000     0.0000     0.0000     0.0000     0.0000     0.0000 </r>
        <r>    16.0728     0.0000     0.0000     0.0000     0.0000     0.0000     0.0000     0.0000     0.0000     0.0000 </r>
        <r>    16.1533     0.0000     0.0000     0.0000     0.0000     0.0000     0.0000     0.0000     0.0000     0.0000 </r>
        <r>    16.2337     0.0000     0.0000     0.0000     0.0000     0.0000     0.0000     0.0000     0.0000     0.0000 </r>
        <r>    16.3142     0.0000     0.0000     0.0000     0.0000     0.0000     0.0000     0.0000     0.0000     0.0000 </r>
        <r>    16.3946     0.0000     0.0000     0.0000     0.0000     0.0000     0.0000     0.0000     0.0000     0.0000 </r>
        <r>    16.4751     0.0000     0.0000     0.0000     0.0000     0.0000     0.0000     0.0000     0.0000     0.0000 </r>
        <r>    16.5555     0.0000     0.0000     0.0000     0.0000     0.0000     0.0000     0.0000     0.0000     0.0000 </r>
        <r>    16.6360     0.0000     0.0000     0.0000     0.0000     0.0000     0.0000     0.0000     0.0000     0.0000 </r>
        <r>    16.7164     0.0000     0.0000     0.0000     0.0000     0.0000     0.0000     0.0000     0.0000     0.0000 </r>
        <r>    16.7969     0.0000     0.0000     0.0000     0.0000     0.0000     0.0000     0.0000     0.0000     0.0000 </r>
        <r>    16.8773     0.0000     0.0000     0.0000     0.0000     0.0000     0.0000     0.0000     0.0000     0.0000 </r>
       </set>
      </set>
      <set comment="ion 2">
       <set comment="spin 1">
        <r>    -7.2581     0.0000     0.0000     0.0000     0.0000     0.0000     0.0000     0.0000     0.0000     0.0000 </r>
        <r>    -7.1777     0.0000     0.0000     0.0000     0.0000     0.0000     0.0000     0.0000     0.0000     0.0000 </r>
        <r>    -7.0972     0.0000     0.0000     0.0000     0.0000     0.0000     0.0000     0.0000     0.0000     0.0000 </r>
        <r>    -7.0168     0.0000     0.0000     0.0000     0.0000     0.0000     0.0000     0.0000     0.0000     0.0000 </r>
        <r>    -6.9363     0.0000     0.0000     0.0000     0.0000     0.0000     0.0000     0.0000     0.0000     0.0000 </r>
        <r>    -6.8559     0.0000     0.0000     0.0000     0.0000     0.0000     0.0000     0.0000     0.0000     0.0000 </r>
        <r>    -6.7754     0.0000     0.0000     0.0000     0.0000     0.0000     0.0000     0.0000     0.0000     0.0000 </r>
        <r>    -6.6949     0.0000     0.0000     0.0000     0.0000     0.0000     0.0000     0.0000     0.0000     0.0000 </r>
        <r>    -6.6145     0.0000     0.0000     0.0000     0.0000     0.0000     0.0000     0.0000     0.0000     0.0000 </r>
        <r>    -6.5340     0.0000     0.0000     0.0000     0.0000     0.0000     0.0000     0.0000     0.0000     0.0000 </r>
        <r>    -6.4536     0.0000     0.0000     0.0000     0.0000     0.0000     0.0000     0.0000     0.0000     0.0000 </r>
        <r>    -6.3731     0.0000     0.0000     0.0000     0.0000     0.0000     0.0000     0.0000     0.0000     0.0000 </r>
        <r>    -6.2927     0.0000     0.0000     0.0000     0.0000     0.0000     0.0000     0.0000     0.0000     0.0000 </r>
        <r>    -6.2122     0.0256     0.0000     0.0000     0.0000     0.0000     0.0000     0.0000     0.0000     0.0000 </r>
        <r>    -6.1318     0.4058     0.0002     0.0000     0.0002     0.0000     0.0000     0.0000     0.0000     0.0000 </r>
        <r>    -6.0513     0.4428     0.0006     0.0000     0.0006     0.0000     0.0000     0.0000     0.0000     0.0000 </r>
        <r>    -5.9709     0.2669     0.0010     0.0000     0.0010     0.0000     0.0000     0.0000     0.0000     0.0000 </r>
        <r>    -5.8904     0.2101     0.0012     0.0000     0.0012     0.0000     0.0000     0.0000     0.0000     0.0000 </r>
        <r>    -5.8100     0.1797     0.0014     0.0000     0.0015     0.0000     0.0000     0.0000     0.0000     0.0000 </r>
        <r>    -5.7295     0.1595     0.0016     0.0000     0.0016     0.0000     0.0000     0.0000     0.0000     0.0000 </r>
        <r>    -5.6491     0.1449     0.0018     0.0000     0.0018     0.0000     0.0000     0.0000     0.0000     0.0000 </r>
        <r>    -5.5686     0.1338     0.0019     0.0000     0.0019     0.0000     0.0000     0.0000     0.0000     0.0000 </r>
        <r>    -5.4882     0.1254     0.0021     0.0000     0.0021     0.0000     0.0000     0.0000     0.0000     0.0000 </r>
        <r>    -5.4077     0.1188     0.0022     0.0000     0.0022     0.0000     0.0000     0.0000     0.0000     0.0000 </r>
        <r>    -5.3273     0.1122     0.0023     0.0000     0.0024     0.0000     0.0000     0.0000     0.0000     0.0000 </r>
        <r>    -5.2468     0.1039     0.0023     0.0000     0.0025     0.0000     0.0000     0.0000     0.0000     0.0000 </r>
        <r>    -5.1664     0.0974     0.0024     0.0000     0.0024     0.0000     0.0000     0.0000     0.0000     0.0000 </r>
        <r>    -5.0859     0.0996     0.0028     0.0000     0.0026     0.0000     0.0000     0.0000     0.0000     0.0000 </r>
        <r>    -5.0055     0.1001     0.0029     0.0000     0.0030     0.0000     0.0000     0.0000     0.0000     0.0000 </r>
        <r>    -4.9250     0.0849     0.0025     0.0000     0.0029     0.0000     0.0000     0.0000     0.0000     0.0000 </r>
        <r>    -4.8446     0.0830     0.0029     0.0000     0.0026     0.0000     0.0000     0.0000     0.0000     0.0000 </r>
        <r>    -4.7641     0.0960     0.0034     0.0000     0.0035     0.0000     0.0000     0.0000     0.0000     0.0000 </r>
        <r>    -4.6837     0.0752     0.0026     0.0000     0.0032     0.0000     0.0000     0.0000     0.0000     0.0000 </r>
        <r>    -4.6032     0.0773     0.0034     0.0000     0.0027     0.0000     0.0000     0.0000     0.0000     0.0000 </r>
        <r>    -4.5228     0.0903     0.0036     0.0000     0.0041     0.0000     0.0000     0.0000     0.0000     0.0000 </r>
        <r>    -4.4423     0.0606     0.0026     0.0000     0.0028     0.0000     0.0000     0.0000     0.0000     0.0000 </r>
        <r>    -4.3619     0.0876     0.0045     0.0000     0.0037     0.0000     0.0000     0.0000     0.0000     0.0000 </r>
        <r>    -4.2814     0.0659     0.0026     0.0000     0.0040     0.0000     0.0000     0.0000     0.0000     0.0000 </r>
        <r>    -4.2010     0.0709     0.0043     0.0000     0.0029     0.0000     0.0000     0.0000     0.0000     0.0000 </r>
        <r>    -4.1205     0.0771     0.0034     0.0000     0.0050     0.0000     0.0000     0.0000     0.0000     0.0000 </r>
        <r>    -4.0401     0.0559     0.0037     0.0000     0.0024     0.0000     0.0000     0.0000     0.0000     0.0000 </r>
        <r>    -3.9596     0.0835     0.0043     0.0000     0.0055     0.0000     0.0000     0.0000     0.0000     0.0000 </r>
        <r>    -3.8791     0.0473     0.0032     0.0000     0.0024     0.0000     0.0000     0.0000     0.0000     0.0000 </r>
        <r>    -3.7987     0.0850     0.0050     0.0000     0.0057     0.0000     0.0000     0.0000     0.0000     0.0000 </r>
        <r>    -3.7182     0.0427     0.0030     0.0000     0.0026     0.0000     0.0000     0.0000     0.0000     0.0000 </r>
        <r>    -3.6378     0.0842     0.0054     0.0000     0.0059     0.0000     0.0000     0.0000     0.0000     0.0000 </r>
        <r>    -3.5573     0.0399     0.0030     0.0000     0.0026     0.0000     0.0000     0.0000     0.0000     0.0000 </r>
        <r>    -3.4769     0.0826     0.0056     0.0000     0.0064     0.0000     0.0000     0.0000     0.0000     0.0000 </r>
        <r>    -3.3964     0.0384     0.0033     0.0000     0.0024     0.0000     0.0000     0.0000     0.0000     0.0000 </r>
        <r>    -3.3160     0.0795     0.0053     0.0000     0.0070     0.0000     0.0000     0.0000     0.0000     0.0000 </r>
        <r>    -3.2355     0.0395     0.0041     0.0000     0.0021     0.0000     0.0000     0.0000     0.0000     0.0000 </r>
        <r>    -3.1551     0.0731     0.0045     0.0000     0.0076     0.0000     0.0000     0.0000     0.0000     0.0000 </r>
        <r>    -3.0746     0.0454     0.0055     0.0000     0.0020     0.0000     0.0000     0.0000     0.0000     0.0000 </r>
        <r>    -2.9942     0.0616     0.0031     0.0000     0.0077     0.0000     0.0000     0.0000     0.0000     0.0000 </r>
        <r>    -2.9137     0.0567     0.0073     0.0000     0.0026     0.0000     0.0000     0.0000     0.0000     0.0000 </r>
        <r>    -2.8333     0.0460     0.0019     0.0000     0.0066     0.0000     0.0000     0.0000     0.0000     0.0000 </r>
        <r>    -2.7528     0.0699     0.0085     0.0000     0.0045     0.0000     0.0000     0.0000     0.0000     0.0000 </r>
        <r>    -2.6724     0.0322     0.0019     0.0000     0.0044     0.0000     0.0000     0.0000     0.0000     0.0000 </r>
        <r>    -2.5919     0.0763     0.0077     0.0000     0.0073     0.0000     0.0000     0.0000     0.0000     0.0000 </r>
        <r>    -2.5115     0.0301     0.0039     0.0000     0.0021     0.0000     0.0000     0.0000     0.0000     0.0000 </r>
        <r>    -2.4310     0.0675     0.0047     0.0000     0.0094     0.0000     0.0000     0.0000     0.0000     0.0000 </r>
        <r>    -2.3506     0.0452     0.0076     0.0000     0.0018     0.0000     0.0000     0.0000     0.0000     0.0000 </r>
        <r>    -2.2701     0.0456     0.0018     0.0000     0.0082     0.0000     0.0000     0.0000     0.0000     0.0000 </r>
        <r>    -2.1897     0.0663     0.0099     0.0000     0.0047     0.0000     0.0000     0.0000     0.0000     0.0000 </r>
        <r>    -2.1092     0.0450     0.0023     0.0000     0.0081     0.0000     0.0000     0.0000     0.0000     0.0000 </r>
        <r>    -2.0288     0.1425     0.0145     0.0000     0.0187     0.0000     0.0000     0.0000     0.0000     0.0000 </r>
        <r>    -1.9483     0.0636     0.0128     0.0000     0.0020     0.0000     0.0000     0.0000     0.0000     0.0000 </r>
        <r>    -1.8679     0.0523     0.0026     0.0000     0.0103     0.0000     0.0000     0.0000     0.0000     0.0000 </r>
        <r>    -1.7874     0.0589     0.0108     0.0000     0.0036     0.0000     0.0000     0.0000     0.0000     0.0000 </r>
        <r>    -1.7070     0.0266     0.0017     0.0000     0.0051     0.0000     0.0000     0.0000     0.0000     0.0000 </r>
        <r>    -1.6265     0.0690     0.0081     0.0000     0.0097     0.0000     0.0000     0.0000     0.0000     0.0000 </r>
        <r>    -1.5461     0.0316     0.0069     0.0000     0.0013     0.0000     0.0000     0.0000     0.0000     0.0000 </r>
        <r>    -1.4656     0.0484     0.0021     0.0000     0.0111     0.0000     0.0000     0.0000     0.0000     0.0000 </r>
        <r>    -1.3852     0.0595     0.0120     0.0000     0.0042     0.0000     0.0000     0.0000     0.0000     0.0000 </r>
        <r>    -1.3047     0.0231     0.0022     0.0000     0.0043     0.0000     0.0000     0.0000     0.0000     0.0000 </r>
        <r>    -1.2243     0.0646     0.0069     0.0000     0.0116     0.0000     0.0000     0.0000     0.0000     0.0000 </r>
        <r>    -1.1438     0.0375     0.0095     0.0000     0.0013     0.0000     0.0000     0.0000     0.0000     0.0000 </r>
        <r>    -1.0633     0.0377     0.0012     0.0000     0.0102     0.0000     0.0000     0.0000     0.0000     0.0000 </r>
        <r>    -0.9829     0.0635     0.0121     0.0000     0.0070     0.0000     0.0000     0.0000     0.0000     0.0000 </r>
        <r>    -0.9024     0.0219     0.0045     0.0000     0.0022     0.0000     0.0000     0.0000     0.0000     0.0000 </r>
        <r>    -0.8220     0.0547     0.0037     0.0000     0.0137     0.0000     0.0000     0.0000     0.0000     0.0000 </r>
        <r>    -0.7415     0.0504     0.0132     0.0000     0.0027     0.0000     0.0000     0.0000     0.0000     0.0000 </r>
        <r>    -0.6611     0.0234     0.0015     0.0000     0.0062     0.0000     0.0000     0.0000     0.0000     0.0000 </r>
        <r>    -0.5806     0.0624     0.0086     0.0000     0.0122     0.0000     0.0000     0.0000     0.0000     0.0000 </r>
        <r>    -0.5002     0.0336     0.0101     0.0000     0.0011     0.0000     0.0000     0.0000     0.0000     0.0000 </r>
        <r>    -0.4197     0.0360     0.0011     0.0000     0.0115     0.0000     0.0000     0.0000     0.0000     0.0000 </r>
        <r>    -0.3393     0.0608     0.0133     0.0000     0.0079     0.0000     0.0000     0.0000     0.0000     0.0000 </r>
        <r>    -0.2588     0.0214     0.0057     0.0000     0.0018     0.0000     0.0000     0.0000     0.0000     0.0000 </r>
        <r>    -0.1784     0.0487     0.0028     0.0000     0.0152     0.0000     0.0000     0.0000     0.0000     0.0000 </r>
        <r>    -0.0979     0.0530     0.0154     0.0000     0.0040     0.0000     0.0000     0.0000     0.0000     0.0000 </r>
        <r>    -0.0175     0.0186     0.0026     0.0000     0.0045     0.0000     0.0000     0.0000     0.0000     0.0000 </r>
        <r>     0.0630     0.0564     0.0062     0.0000     0.0156     0.0000     0.0000     0.0000     0.0000     0.0000 </r>
        <r>     0.1434     0.0419     0.0144     0.0000     0.0017     0.0000     0.0000     0.0000     0.0000     0.0000 </r>
        <r>     0.2239     0.0240     0.0011     0.0000     0.0086     0.0000     0.0000     0.0000     0.0000     0.0000 </r>
        <r>     0.3043     0.0590     0.0106     0.0000     0.0133     0.0000     0.0000     0.0000     0.0000     0.0000 </r>
        <r>     0.3848     0.0303     0.0112     0.0000     0.0010     0.0000     0.0000     0.0000     0.0000     0.0000 </r>
        <r>     0.4652     0.0330     0.0010     0.0000     0.0131     0.0000     0.0000     0.0000     0.0000     0.0000 </r>
        <r>     0.5457     0.0577     0.0148     0.0000     0.0097     0.0000     0.0000     0.0000     0.0000     0.0000 </r>
        <r>     0.6261     0.0212     0.0076     0.0000     0.0014     0.0000     0.0000     0.0000     0.0000     0.0000 </r>
        <r>     0.7066     0.0417     0.0020     0.0000     0.0167     0.0000     0.0000     0.0000     0.0000     0.0000 </r>
        <r>     0.7870     0.0537     0.0176     0.0000     0.0063     0.0000     0.0000     0.0000     0.0000     0.0000 </r>
        <r>     0.8675     0.0163     0.0046     0.0000     0.0029     0.0000     0.0000     0.0000     0.0000     0.0000 </r>
        <r>     0.9479     0.0483     0.0041     0.0000     0.0188     0.0000     0.0000     0.0000     0.0000     0.0000 </r>
        <r>     1.0284     0.0475     0.0185     0.0000     0.0037     0.0000     0.0000     0.0000     0.0000     0.0000 </r>
        <r>     1.1088     0.0160     0.0025     0.0000     0.0053     0.0000     0.0000     0.0000     0.0000     0.0000 </r>
        <r>     1.1893     0.0525     0.0072     0.0000     0.0189     0.0000     0.0000     0.0000     0.0000     0.0000 </r>
        <r>     1.2697     0.0399     0.0176     0.0000     0.0020     0.0000     0.0000     0.0000     0.0000     0.0000 </r>
        <r>     1.3502     0.0192     0.0014     0.0000     0.0087     0.0000     0.0000     0.0000     0.0000     0.0000 </r>
        <r>     1.4306     0.0545     0.0110     0.0000     0.0175     0.0000     0.0000     0.0000     0.0000     0.0000 </r>
        <r>     1.5111     0.0317     0.0152     0.0000     0.0012     0.0000     0.0000     0.0000     0.0000     0.0000 </r>
        <r>     1.5915     0.0246     0.0010     0.0000     0.0126     0.0000     0.0000     0.0000     0.0000     0.0000 </r>
        <r>     1.6720     0.0546     0.0151     0.0000     0.0149     0.0000     0.0000     0.0000     0.0000     0.0000 </r>
        <r>     1.7525     0.0240     0.0121     0.0000     0.0010     0.0000     0.0000     0.0000     0.0000     0.0000 </r>
        <r>     1.8329     0.0307     0.0013     0.0000     0.0167     0.0000     0.0000     0.0000     0.0000     0.0000 </r>
        <r>     1.9134     0.0529     0.0190     0.0000     0.0118     0.0000     0.0000     0.0000     0.0000     0.0000 </r>
        <r>     1.9938     0.0177     0.0088     0.0000     0.0015     0.0000     0.0000     0.0000     0.0000     0.0000 </r>
        <r>     2.0743     0.0366     0.0024     0.0000     0.0204     0.0000     0.0000     0.0000     0.0000     0.0000 </r>
        <r>     2.1547     0.0495     0.0218     0.0000     0.0086     0.0000     0.0000     0.0000     0.0000     0.0000 </r>
        <r>     2.2352     0.0137     0.0059     0.0000     0.0027     0.0000     0.0000     0.0000     0.0000     0.0000 </r>
        <r>     2.3156     0.0417     0.0045     0.0000     0.0231     0.0000     0.0000     0.0000     0.0000     0.0000 </r>
        <r>     2.3961     0.0444     0.0232     0.0000     0.0058     0.0000     0.0000     0.0000     0.0000     0.0000 </r>
        <r>     2.4765     0.0125     0.0035     0.0000     0.0050     0.0000     0.0000     0.0000     0.0000     0.0000 </r>
        <r>     2.5570     0.0456     0.0078     0.0000     0.0243     0.0000     0.0000     0.0000     0.0000     0.0000 </r>
        <r>     2.6374     0.0377     0.0226     0.0000     0.0035     0.0000     0.0000     0.0000     0.0000     0.0000 </r>
        <r>     2.7179     0.0141     0.0020     0.0000     0.0085     0.0000     0.0000     0.0000     0.0000     0.0000 </r>
        <r>     2.7983     0.0480     0.0125     0.0013     0.0248     0.0000     0.0000     0.0000     0.0000     0.0000 </r>
        <r>     2.8788     0.0298     0.0220     0.0970     0.0969     0.0000     0.0000     0.0000     0.0000     0.0000 </r>
        <r>     2.9592     0.0184     0.1137     0.3671     0.2679     0.0000     0.0000     0.0000     0.0000     0.0000 </r>
        <r>     3.0397     0.0484     0.2721     0.4066     0.1734     0.0000     0.0000     0.0000     0.0000     0.0000 </r>
        <r>     3.1201     0.0216     0.1656     0.2613     0.1130     0.0000     0.0000     0.0000     0.0000     0.0000 </r>
        <r>     3.2006     0.0245     0.1130     0.2047     0.1132     0.0000     0.0000     0.0000     0.0000     0.0000 </r>
        <r>     3.2810     0.0463     0.1176     0.1759     0.0985     0.0000     0.0000     0.0000     0.0000     0.0000 </r>
        <r>     3.3615     0.0147     0.0933     0.1569     0.0766     0.0000     0.0000     0.0000     0.0000     0.0000 </r>
        <r>     3.4419     0.0312     0.0789     0.1435     0.0946     0.0000     0.0000     0.0000     0.0000     0.0000 </r>
        <r>     3.5224     0.0410     0.0972     0.1333     0.0748     0.0000     0.0000     0.0000     0.0000     0.0000 </r>
        <r>     3.6028     0.0110     0.0709     0.1252     0.0655     0.0000     0.0000     0.0000     0.0000     0.0000 </r>
        <r>     3.6833     0.0371     0.0701     0.1184     0.0872     0.0000     0.0000     0.0000     0.0000     0.0000 </r>
        <r>     3.7637     0.0324     0.0856     0.1128     0.0605     0.0000     0.0000     0.0000     0.0000     0.0000 </r>
        <r>     3.8442     0.0126     0.0576     0.1083     0.0650     0.0000     0.0000     0.0000     0.0000     0.0000 </r>
        <r>     3.9246     0.0400     0.0705     0.1046     0.0804     0.0000     0.0000     0.0000     0.0000     0.0000 </r>
        <r>     4.0051     0.0218     0.0741     0.1009     0.0529     0.0000     0.0000     0.0000     0.0000     0.0000 </r>
        <r>     4.0855     0.0195     0.0543     0.0978     0.0697     0.0000     0.0000     0.0000     0.0000     0.0000 </r>
        <r>     4.1660     0.0378     0.0778     0.0959     0.0654     0.0000     0.0000     0.0000     0.0000     0.0000 </r>
        <r>     4.2464     0.0127     0.0574     0.0932     0.0519     0.0000     0.0000     0.0000     0.0000     0.0000 </r>
        <r>     4.3269     0.0281     0.0527     0.0891     0.0804     0.0000     0.0000     0.0000     0.0000     0.0000 </r>
        <r>     4.4073     0.0290     0.0818     0.0898     0.0512     0.0000     0.0000     0.0000     0.0000     0.0000 </r>
        <r>     4.4878     0.0122     0.0505     0.0915     0.0583     0.0000     0.0000     0.0000     0.0000     0.0000 </r>
        <r>     4.5683     0.0320     0.0627     0.0842     0.0775     0.0000     0.0000     0.0000     0.0000     0.0000 </r>
        <r>     4.6487     0.0161     0.0677     0.0833     0.0472     0.0000     0.0000     0.0000     0.0000     0.0000 </r>
        <r>     4.7292     0.0209     0.0546     0.0915     0.0749     0.0000     0.0000     0.0000     0.0000     0.0000 </r>
        <r>     4.8096     0.0251     0.0752     0.0830     0.0587     0.0000     0.0000     0.0000     0.0000     0.0000 </r>
        <r>     4.8901     0.0126     0.0494     0.0796     0.0662     0.0000     0.0000     0.0000     0.0000     0.0000 </r>
        <r>     4.9705     0.0246     0.0785     0.0927     0.0695     0.0000     0.0000     0.0000     0.0000     0.0000 </r>
        <r>     5.0510     0.0131     0.0609     0.0850     0.0592     0.0000     0.0000     0.0000     0.0000     0.0000 </r>
        <r>     5.1314     0.0194     0.0616     0.0801     0.0867     0.0000     0.0000     0.0000     0.0000     0.0000 </r>
        <r>     5.2119     0.0147     0.0827     0.0952     0.0587     0.0000     0.0000     0.0000     0.0000     0.0000 </r>
        <r>     5.2923     0.0150     0.0651     0.0939     0.0897     0.0000     0.0000     0.0000     0.0000     0.0000 </r>
        <r>     5.3728     0.0135     0.0827     0.0893     0.0765     0.0000     0.0000     0.0000     0.0000     0.0000 </r>
        <r>     5.4532     0.0117     0.0804     0.1009     0.0995     0.0000     0.0000     0.0000     0.0000     0.0000 </r>
        <r>     5.5337     0.0106     0.0951     0.1135     0.1105     0.0000     0.0000     0.0000     0.0000     0.0000 </r>
        <r>     5.6141     0.0083     0.1143     0.1285     0.1468     0.0000     0.0000     0.0000     0.0000     0.0000 </r>
        <r>     5.6946     0.0050     0.1542     0.1764     0.2582     0.0000     0.0000     0.0000     0.0000     0.0000 </r>
        <r>     5.7750     0.0017     0.2541     0.2792     0.0892     0.0000     0.0000     0.0000     0.0000     0.0000 </r>
        <r>     5.8555     0.0001     0.0626     0.0676     0.0010     0.0000     0.0000     0.0000     0.0000     0.0000 </r>
        <r>     5.9359     0.0000     0.0004     0.0004     0.0000     0.0000     0.0000     0.0000     0.0000     0.0000 </r>
        <r>     6.0164     0.0000     0.0000     0.0000     0.0000     0.0000     0.0000     0.0000     0.0000     0.0000 </r>
        <r>     6.0968     0.0000     0.0000     0.0000     0.0000     0.0000     0.0000     0.0000     0.0000     0.0000 </r>
        <r>     6.1773     0.0000     0.0000     0.0000     0.0000     0.0000     0.0000     0.0000     0.0000     0.0000 </r>
        <r>     6.2577     0.0101     0.0086     0.0000     0.0000     0.0000     0.0000     0.0000     0.0000     0.0000 </r>
        <r>     6.3382     0.1027     0.0816     0.0000     0.0058     0.0000     0.0000     0.0000     0.0000     0.0000 </r>
        <r>     6.4186     0.1801     0.0790     0.0000     0.0744     0.0000     0.0000     0.0000     0.0000     0.0000 </r>
        <r>     6.4991     0.1622     0.0588     0.0000     0.0822     0.0000     0.0000     0.0000     0.0000     0.0000 </r>
        <r>     6.5795     0.1114     0.0437     0.0000     0.0593     0.0000     0.0000     0.0000     0.0000     0.0000 </r>
        <r>     6.6600     0.0820     0.0389     0.0000     0.0441     0.0000     0.0000     0.0000     0.0000     0.0000 </r>
        <r>     6.7404     0.0700     0.0363     0.0000     0.0392     0.0000     0.0000     0.0000     0.0000     0.0000 </r>
        <r>     6.8209     0.0618     0.0346     0.0000     0.0364     0.0000     0.0000     0.0000     0.0000     0.0000 </r>
        <r>     6.9013     0.0559     0.0336     0.0000     0.0346     0.0000     0.0000     0.0000     0.0000     0.0000 </r>
        <r>     6.9818     0.0510     0.0329     0.0000     0.0335     0.0000     0.0000     0.0000     0.0000     0.0000 </r>
        <r>     7.0622     0.0463     0.0316     0.0000     0.0331     0.0000     0.0000     0.0000     0.0000     0.0000 </r>
        <r>     7.1427     0.0431     0.0314     0.0000     0.0327     0.0000     0.0000     0.0000     0.0000     0.0000 </r>
        <r>     7.2231     0.0405     0.0325     0.0000     0.0316     0.0000     0.0000     0.0000     0.0000     0.0000 </r>
        <r>     7.3036     0.0360     0.0311     0.0000     0.0317     0.0000     0.0000     0.0000     0.0000     0.0000 </r>
        <r>     7.3841     0.0364     0.0325     0.0000     0.0331     0.0000     0.0000     0.0000     0.0000     0.0000 </r>
        <r>     7.4645     0.0331     0.0348     0.0000     0.0316     0.0000     0.0000     0.0000     0.0000     0.0000 </r>
        <r>     7.5450     0.0295     0.0326     0.0000     0.0340     0.0000     0.0000     0.0000     0.0000     0.0000 </r>
        <r>     7.6254     0.0326     0.0366     0.0000     0.0353     0.0000     0.0000     0.0000     0.0000     0.0000 </r>
        <r>     7.7059     0.0231     0.0336     0.0000     0.0348     0.0000     0.0000     0.0000     0.0000     0.0000 </r>
        <r>     7.7863     0.0310     0.0394     0.0000     0.0388     0.0000     0.0000     0.0000     0.0000     0.0000 </r>
        <r>     7.8668     0.0190     0.0382     0.0000     0.0370     0.0000     0.0000     0.0000     0.0000     0.0000 </r>
        <r>     7.9472     0.0288     0.0455     0.0000     0.0438     0.0000     0.0000     0.0000     0.0000     0.0000 </r>
        <r>     8.0277     0.0154     0.0458     0.0000     0.0432     0.0000     0.0000     0.0000     0.0000     0.0000 </r>
        <r>     8.1081     0.0267     0.0575     0.0000     0.0537     0.0000     0.0000     0.0000     0.0000     0.0000 </r>
        <r>     8.1886     0.0113     0.0671     0.0004     0.0589     0.0000     0.0000     0.0000     0.0000     0.0000 </r>
        <r>     8.2690     0.0240     0.1464     0.0513     0.0980     0.0000     0.0000     0.0000     0.0000     0.0000 </r>
        <r>     8.3495     0.0064     0.1677     0.1797     0.1927     0.0000     0.0000     0.0000     0.0000     0.0000 </r>
        <r>     8.4299     0.0198     0.0651     0.1092     0.0964     0.0000     0.0000     0.0000     0.0000     0.0000 </r>
        <r>     8.5104     0.0074     0.0404     0.0758     0.0460     0.0000     0.0000     0.0000     0.0000     0.0000 </r>
        <r>     8.5908     0.0154     0.0387     0.0652     0.0437     0.0000     0.0000     0.0000     0.0000     0.0000 </r>
        <r>     8.6713     0.0132     0.0419     0.0717     0.0329     0.0000     0.0000     0.0000     0.0000     0.0000 </r>
        <r>     8.7517     0.0084     0.0230     0.0429     0.0340     0.0000     0.0000     0.0000     0.0000     0.0000 </r>
        <r>     8.8322     0.0207     0.0445     0.0680     0.0360     0.0000     0.0000     0.0000     0.0000     0.0000 </r>
        <r>     8.9126     0.0070     0.0184     0.0383     0.0249     0.0000     0.0000     0.0000     0.0000     0.0000 </r>
        <r>     8.9931     0.1962     0.0432     0.0633     0.0378     0.0000     0.0000     0.0000     0.0000     0.0000 </r>
        <r>     9.0735     0.3786     0.0189     0.0334     0.0243     0.0000     0.0000     0.0000     0.0000     0.0000 </r>
        <r>     9.1540     0.2137     0.0438     0.0644     0.0365     0.0000     0.0000     0.0000     0.0000     0.0000 </r>
        <r>     9.2344     0.1596     0.0211     0.0262     0.0301     0.0000     0.0000     0.0000     0.0000     0.0000 </r>
        <r>     9.3149     0.1618     0.0456     0.0668     0.0316     0.0000     0.0000     0.0000     0.0000     0.0000 </r>
        <r>     9.3953     0.1114     0.0236     0.0242     0.0381     0.0000     0.0000     0.0000     0.0000     0.0000 </r>
        <r>     9.4758     0.1395     0.0433     0.0607     0.0274     0.0000     0.0000     0.0000     0.0000     0.0000 </r>
        <r>     9.5562     0.1098     0.0317     0.0343     0.0441     0.0000     0.0000     0.0000     0.0000     0.0000 </r>
        <r>     9.6367     0.1227     0.0330     0.0405     0.0278     0.0000     0.0000     0.0000     0.0000     0.0000 </r>
        <r>     9.7171     0.1176     0.0483     0.0535     0.0433     0.0000     0.0000     0.0000     0.0000     0.0000 </r>
        <r>     9.7976     0.1140     0.0243     0.0226     0.0342     0.0000     0.0000     0.0000     0.0000     0.0000 </r>
        <r>     9.8780     0.1451     0.0615     0.0623     0.0443     0.0000     0.0000     0.0000     0.0000     0.0000 </r>
        <r>     9.9585     0.1214     0.0329     0.0275     0.0450     0.0000     0.0000     0.0000     0.0000     0.0000 </r>
        <r>    10.0389     0.2036     0.0607     0.0428     0.0567     0.0000     0.0000     0.0000     0.0000     0.0000 </r>
        <r>    10.1194     0.2560     0.0841     0.0492     0.0724     0.0000     0.0000     0.0000     0.0000     0.0000 </r>
        <r>    10.1999     0.0587     0.0168     0.0221     0.0319     0.0000     0.0000     0.0000     0.0000     0.0000 </r>
        <r>    10.2803     0.0004     0.0363     0.0581     0.0187     0.0000     0.0000     0.0000     0.0000     0.0000 </r>
        <r>    10.3608     0.0000     0.0124     0.0315     0.0227     0.0000     0.0000     0.0000     0.0000     0.0000 </r>
        <r>    10.4412     0.0000     0.0125     0.0335     0.0197     0.0000     0.0000     0.0000     0.0000     0.0000 </r>
        <r>    10.5217     0.0000     0.0363     0.0531     0.0166     0.0000     0.0000     0.0000     0.0000     0.0000 </r>
        <r>    10.6021     0.0000     0.0037     0.0238     0.0220     0.0000     0.0000     0.0000     0.0000     0.0000 </r>
        <r>    10.6826     0.0000     0.0268     0.0481     0.0202     0.0000     0.0000     0.0000     0.0000     0.0000 </r>
        <r>    10.7630     0.0000     0.0238     0.0405     0.0173     0.0000     0.0000     0.0000     0.0000     0.0000 </r>
        <r>    10.8435     0.0000     0.0038     0.0250     0.0219     0.0000     0.0000     0.0000     0.0000     0.0000 </r>
        <r>    10.9239     0.0000     0.0369     0.0535     0.0168     0.0000     0.0000     0.0000     0.0000     0.0000 </r>
        <r>    11.0044     0.0000     0.0117     0.0317     0.0198     0.0000     0.0000     0.0000     0.0000     0.0000 </r>
        <r>    11.0848     0.0000     0.0093     0.0313     0.0232     0.0000     0.0000     0.0000     0.0000     0.0000 </r>
        <r>    11.1653     0.0000     0.0381     0.0502     0.0125     0.0000     0.0000     0.0000     0.0000     0.0000 </r>
        <r>    11.2457     0.0000     0.0047     0.0277     0.0219     0.0000     0.0000     0.0000     0.0000     0.0000 </r>
        <r>    11.3262     0.0000     0.0178     0.0385     0.0232     0.0000     0.0000     0.0000     0.0000     0.0000 </r>
        <r>    11.4066     0.0000     0.0323     0.0437     0.0108     0.0000     0.0000     0.0000     0.0000     0.0000 </r>
        <r>    11.4871     0.0000     0.0023     0.0272     0.0240     0.0000     0.0000     0.0000     0.0000     0.0000 </r>
        <r>    11.5675     0.0000     0.0267     0.0437     0.0202     0.0000     0.0000     0.0000     0.0000     0.0000 </r>
        <r>    11.6480     0.0000     0.0239     0.0376     0.0117     0.0000     0.0000     0.0000     0.0000     0.0000 </r>
        <r>    11.7284     0.0000     0.0024     0.0284     0.0264     0.0000     0.0000     0.0000     0.0000     0.0000 </r>
        <r>    11.8089     0.0000     0.0335     0.0459     0.0154     0.0000     0.0000     0.0000     0.0000     0.0000 </r>
        <r>    11.8893     0.0000     0.0162     0.0335     0.0140     0.0000     0.0000     0.0000     0.0000     0.0000 </r>
        <r>    11.9698     0.0000     0.0040     0.0299     0.0282     0.0000     0.0000     0.0000     0.0000     0.0000 </r>
        <r>    12.0502     0.0000     0.0373     0.0459     0.0108     0.0000     0.0000     0.0000     0.0000     0.0000 </r>
        <r>    12.1307     0.0000     0.0105     0.0313     0.0166     0.0000     0.0000     0.0000     0.0000     0.0000 </r>
        <r>    12.2111     0.0000     0.0065     0.0314     0.0289     0.0000     0.0000     0.0000     0.0000     0.0000 </r>
        <r>    12.2916     0.0000     0.0385     0.0445     0.0073     0.0000     0.0000     0.0000     0.0000     0.0000 </r>
        <r>    12.3720     0.0000     0.0067     0.0308     0.0194     0.0000     0.0000     0.0000     0.0000     0.0000 </r>
        <r>    12.4525     0.0000     0.0088     0.0318     0.0282     0.0000     0.0000     0.0000     0.0000     0.0000 </r>
        <r>    12.5329     0.0000     0.0381     0.0429     0.0051     0.0000     0.0000     0.0000     0.0000     0.0000 </r>
        <r>    12.6134     0.0000     0.0049     0.0320     0.0226     0.0000     0.0000     0.0000     0.0000     0.0000 </r>
        <r>    12.6938     0.0000     0.0117     0.0319     0.0260     0.0000     0.0000     0.0000     0.0000     0.0000 </r>
        <r>    12.7743     0.0000     0.0366     0.0412     0.0041     0.0000     0.0000     0.0000     0.0000     0.0000 </r>
        <r>    12.8547     0.0000     0.0034     0.0331     0.0256     0.0000     0.0000     0.0000     0.0000     0.0000 </r>
        <r>    12.9352     0.0000     0.0144     0.0317     0.0232     0.0000     0.0000     0.0000     0.0000     0.0000 </r>
        <r>    13.0157     0.0000     0.0348     0.0395     0.0038     0.0000     0.0000     0.0000     0.0000     0.0000 </r>
        <r>    13.0961     0.0000     0.0025     0.0342     0.0284     0.0000     0.0000     0.0000     0.0000     0.0000 </r>
        <r>    13.1766     0.0000     0.0171     0.0318     0.0202     0.0000     0.0000     0.0000     0.0000     0.0000 </r>
        <r>    13.2570     0.0000     0.0327     0.0379     0.0038     0.0000     0.0000     0.0000     0.0000     0.0000 </r>
        <r>    13.3375     0.0000     0.0019     0.0350     0.0304     0.0000     0.0000     0.0000     0.0000     0.0000 </r>
        <r>    13.4179     0.0000     0.0187     0.0315     0.0181     0.0000     0.0000     0.0000     0.0000     0.0000 </r>
        <r>    13.4984     0.0000     0.0314     0.0368     0.0039     0.0000     0.0000     0.0000     0.0000     0.0000 </r>
        <r>    13.5788     0.0000     0.0017     0.0359     0.0322     0.0000     0.0000     0.0000     0.0000     0.0000 </r>
        <r>    13.6593     0.0000     0.0199     0.0313     0.0160     0.0000     0.0000     0.0000     0.0000     0.0000 </r>
        <r>    13.7397     0.0000     0.0303     0.0360     0.0040     0.0000     0.0000     0.0000     0.0000     0.0000 </r>
        <r>    13.8202     0.0000     0.0015     0.0367     0.0337     0.0000     0.0000     0.0000     0.0000     0.0000 </r>
        <r>    13.9006     0.0000     0.0206     0.0310     0.0145     0.0000     0.0000     0.0000     0.0000     0.0000 </r>
        <r>    13.9811     0.0000     0.0298     0.0355     0.0041     0.0000     0.0000     0.0000     0.0000     0.0000 </r>
        <r>    14.0615     0.0000     0.0014     0.0374     0.0348     0.0000     0.0000     0.0000     0.0000     0.0000 </r>
        <r>    14.1420     0.0000     0.0210     0.0307     0.0134     0.0000     0.0000     0.0000     0.0000     0.0000 </r>
        <r>    14.2224     0.0000     0.0297     0.0354     0.0042     0.0000     0.0000     0.0000     0.0000     0.0000 </r>
        <r>    14.3029     0.0000     0.0014     0.0382     0.0358     0.0000     0.0000     0.0000     0.0000     0.0000 </r>
        <r>    14.3833     0.0000     0.0212     0.0306     0.0126     0.0000     0.0000     0.0000     0.0000     0.0000 </r>
        <r>    14.4638     0.0000     0.0300     0.0358     0.0044     0.0000     0.0000     0.0000     0.0000     0.0000 </r>
        <r>    14.5442     0.0000     0.0014     0.0390     0.0370     0.0000     0.0000     0.0000     0.0000     0.0000 </r>
        <r>    14.6247     0.0000     0.0219     0.0309     0.0118     0.0000     0.0000     0.0000     0.0000     0.0000 </r>
        <r>    14.7051     0.0000     0.0300     0.0359     0.0046     0.0000     0.0000     0.0000     0.0000     0.0000 </r>
        <r>    14.7856     0.0000     0.0015     0.0402     0.0383     0.0000     0.0000     0.0000     0.0000     0.0000 </r>
        <r>    14.8660     0.0000     0.0236     0.0325     0.0112     0.0000     0.0000     0.0000     0.0000     0.0000 </r>
        <r>    14.9465     0.0000     0.0295     0.0367     0.0060     0.0000     0.0000     0.0000     0.0000     0.0000 </r>
        <r>    15.0269     0.0000     0.0016     0.0418     0.0404     0.0000     0.0000     0.0000     0.0000     0.0000 </r>
        <r>    15.1074     0.0000     0.0283     0.0358     0.0092     0.0000     0.0000     0.0000     0.0000     0.0000 </r>
        <r>    15.1878     0.0000     0.0267     0.0382     0.0101     0.0000     0.0000     0.0000     0.0000     0.0000 </r>
        <r>    15.2683     0.0000     0.0024     0.0436     0.0420     0.0000     0.0000     0.0000     0.0000     0.0000 </r>
        <r>    15.3487     0.0000     0.0371     0.0422     0.0059     0.0000     0.0000     0.0000     0.0000     0.0000 </r>
        <r>    15.4292     0.0000     0.0202     0.0455     0.0240     0.0000     0.0000     0.0000     0.0000     0.0000 </r>
        <r>    15.5096     0.0000     0.0109     0.0449     0.0357     0.0000     0.0000     0.0000     0.0000     0.0000 </r>
        <r>    15.5901     0.0000     0.0473     0.0590     0.0116     0.0000     0.0000     0.0000     0.0000     0.0000 </r>
        <r>    15.6705     0.0000     0.0156     0.0656     0.0513     0.0000     0.0000     0.0000     0.0000     0.0000 </r>
        <r>    15.7510     0.0000     0.0689     0.1302     0.0651     0.0000     0.0000     0.0000     0.0000     0.0000 </r>
        <r>    15.8315     0.0000     0.0628     0.1131     0.0515     0.0000     0.0000     0.0000     0.0000     0.0000 </r>
        <r>    15.9119     0.0000     0.0052     0.0066     0.0010     0.0000     0.0000     0.0000     0.0000     0.0000 </r>
        <r>    15.9924     0.0000     0.0000     0.0000     0.0000     0.0000     0.0000     0.0000     0.0000     0.0000 </r>
        <r>    16.0728     0.0000     0.0000     0.0000     0.0000     0.0000     0.0000     0.0000     0.0000     0.0000 </r>
        <r>    16.1533     0.0000     0.0000     0.0000     0.0000     0.0000     0.0000     0.0000     0.0000     0.0000 </r>
        <r>    16.2337     0.0000     0.0000     0.0000     0.0000     0.0000     0.0000     0.0000     0.0000     0.0000 </r>
        <r>    16.3142     0.0000     0.0000     0.0000     0.0000     0.0000     0.0000     0.0000     0.0000     0.0000 </r>
        <r>    16.3946     0.0000     0.0000     0.0000     0.0000     0.0000     0.0000     0.0000     0.0000     0.0000 </r>
        <r>    16.4751     0.0000     0.0000     0.0000     0.0000     0.0000     0.0000     0.0000     0.0000     0.0000 </r>
        <r>    16.5555     0.0000     0.0000     0.0000     0.0000     0.0000     0.0000     0.0000     0.0000     0.0000 </r>
        <r>    16.6360     0.0000     0.0000     0.0000     0.0000     0.0000     0.0000     0.0000     0.0000     0.0000 </r>
        <r>    16.7164     0.0000     0.0000     0.0000     0.0000     0.0000     0.0000     0.0000     0.0000     0.0000 </r>
        <r>    16.7969     0.0000     0.0000     0.0000     0.0000     0.0000     0.0000     0.0000     0.0000     0.0000 </r>
        <r>    16.8773     0.0000     0.0000     0.0000     0.0000     0.0000     0.0000     0.0000     0.0000     0.0000 </r>
       </set>
      </set>
     </set>
    </array>
   </partial>
  </dos>
  <projected>
   <eigenvalues>
    <array>
     <dimension dim="1">band</dimension>
     <dimension dim="2">kpoint</dimension>
     <dimension dim="3">spin</dimension>
     <field>eigene</field>
     <field>occ</field>
     <set>
      <set comment="spin 1">
       <set comment="kpoint 1">
        <r>   -2.0896    1.0000 </r>
        <r>   -2.0896    1.0000 </r>
        <r>    2.9576    1.0000 </r>
        <r>    2.9576    1.0000 </r>
        <r>    6.5163    0.0000 </r>
        <r>    6.5163    0.0000 </r>
        <r>   15.7791    0.0000 </r>
        <r>   15.7803    0.0000 </r>
       </set>
       <set comment="kpoint 2">
        <r>   -2.2834    1.0000 </r>
        <r>   -1.8924    1.0000 </r>
        <r>    2.9601    1.0000 </r>
        <r>    2.9601    1.0000 </r>
        <r>    6.4758    0.0000 </r>
        <r>    6.5644    0.0000 </r>
        <r>   15.7097    0.0000 </r>
        <r>   15.7121    0.0000 </r>
       </set>
       <set comment="kpoint 3">
        <r>   -2.4735    1.0000 </r>
        <r>   -1.6919    1.0000 </r>
        <r>    2.9678    1.0000 </r>
        <r>    2.9678    1.0000 </r>
        <r>    6.4427    0.0000 </r>
        <r>    6.6201    0.0000 </r>
        <r>   15.5437    0.0000 </r>
        <r>   15.5441    0.0000 </r>
       </set>
       <set comment="kpoint 4">
        <r>   -2.6599    1.0000 </r>
        <r>   -1.4883    1.0000 </r>
        <r>    2.9805    1.0000 </r>
        <r>    2.9805    1.0000 </r>
        <r>    6.4169    0.0000 </r>
        <r>    6.6836    0.0000 </r>
        <r>   15.3345    0.0000 </r>
        <r>   15.3345    0.0000 </r>
       </set>
       <set comment="kpoint 5">
        <r>   -2.8424    1.0000 </r>
        <r>   -1.2816    1.0000 </r>
        <r>    2.9983    1.0000 </r>
        <r>    2.9983    1.0000 </r>
        <r>    6.3984    0.0000 </r>
        <r>    6.7547    0.0000 </r>
        <r>   15.1060    0.0000 </r>
        <r>   15.1060    0.0000 </r>
       </set>
       <set comment="kpoint 6">
        <r>   -3.0210    1.0000 </r>
        <r>   -1.0721    1.0000 </r>
        <r>    3.0212    1.0000 </r>
        <r>    3.0212    1.0000 </r>
        <r>    6.3870    0.0000 </r>
        <r>    6.8342    0.0000 </r>
        <r>   14.8713    0.0000 </r>
        <r>   14.8713    0.0000 </r>
       </set>
       <set comment="kpoint 7">
        <r>   -3.1954    1.0000 </r>
        <r>   -0.8600    1.0000 </r>
        <r>    3.0492    1.0000 </r>
        <r>    3.0492    1.0000 </r>
        <r>    6.3823    0.0000 </r>
        <r>    6.9211    0.0000 </r>
        <r>   14.6321    0.0000 </r>
        <r>   14.6321    0.0000 </r>
       </set>
       <set comment="kpoint 8">
        <r>   -3.3656    1.0000 </r>
        <r>   -0.6453    1.0000 </r>
        <r>    3.0821    1.0000 </r>
        <r>    3.0821    1.0000 </r>
        <r>    6.3846    0.0000 </r>
        <r>    7.0164    0.0000 </r>
        <r>   14.3914    0.0000 </r>
        <r>   14.3914    0.0000 </r>
       </set>
       <set comment="kpoint 9">
        <r>   -3.5315    1.0000 </r>
        <r>   -0.4284    1.0000 </r>
        <r>    3.1201    1.0000 </r>
        <r>    3.1201    1.0000 </r>
        <r>    6.3937    0.0000 </r>
        <r>    7.1196    0.0000 </r>
        <r>   14.1501    0.0000 </r>
        <r>   14.1501    0.0000 </r>
       </set>
       <set comment="kpoint 10">
        <r>   -3.6930    1.0000 </r>
        <r>   -0.2094    1.0000 </r>
        <r>    3.1631    1.0000 </r>
        <r>    3.1631    1.0000 </r>
        <r>    6.4093    0.0000 </r>
        <r>    7.2311    0.0000 </r>
        <r>   13.9092    0.0000 </r>
        <r>   13.9092    0.0000 </r>
       </set>
       <set comment="kpoint 11">
        <r>   -3.8499    1.0000 </r>
        <r>    0.0115    1.0000 </r>
        <r>    3.2110    1.0000 </r>
        <r>    3.2110    1.0000 </r>
        <r>    6.4313    0.0000 </r>
        <r>    7.3507    0.0000 </r>
        <r>   13.6691    0.0000 </r>
        <r>   13.6691    0.0000 </r>
       </set>
       <set comment="kpoint 12">
        <r>   -4.0021    1.0000 </r>
        <r>    0.2341    1.0000 </r>
        <r>    3.2638    1.0000 </r>
        <r>    3.2638    1.0000 </r>
        <r>    6.4596    0.0000 </r>
        <r>    7.4784    0.0000 </r>
        <r>   13.4298    0.0000 </r>
        <r>   13.4303    0.0000 </r>
       </set>
       <set comment="kpoint 13">
        <r>   -4.1497    1.0000 </r>
        <r>    0.4583    1.0000 </r>
        <r>    3.3214    1.0000 </r>
        <r>    3.3214    1.0000 </r>
        <r>    6.4940    0.0000 </r>
        <r>    7.6141    0.0000 </r>
        <r>   13.1917    0.0000 </r>
        <r>   13.1917    0.0000 </r>
       </set>
       <set comment="kpoint 14">
        <r>   -4.2925    1.0000 </r>
        <r>    0.6839    1.0000 </r>
        <r>    3.3839    1.0000 </r>
        <r>    3.3839    1.0000 </r>
        <r>    6.5352    0.0000 </r>
        <r>    7.7579    0.0000 </r>
        <r>   12.9557    0.0000 </r>
        <r>   12.9557    0.0000 </r>
       </set>
       <set comment="kpoint 15">
        <r>   -4.4305    1.0000 </r>
        <r>    0.9106    1.0000 </r>
        <r>    3.4511    1.0000 </r>
        <r>    3.4511    1.0000 </r>
        <r>    6.5813    0.0000 </r>
        <r>    7.9093    0.0000 </r>
        <r>   12.7202    0.0000 </r>
        <r>   12.7202    0.0000 </r>
       </set>
       <set comment="kpoint 16">
        <r>   -4.5635    1.0000 </r>
        <r>    1.1382    1.0000 </r>
        <r>    3.5229    1.0000 </r>
        <r>    3.5229    1.0000 </r>
        <r>    6.6330    0.0000 </r>
        <r>    8.0682    0.0000 </r>
        <r>   12.4862    0.0000 </r>
        <r>   12.4862    0.0000 </r>
       </set>
       <set comment="kpoint 17">
        <r>   -4.6917    1.0000 </r>
        <r>    1.3665    1.0000 </r>
        <r>    3.5992    1.0000 </r>
        <r>    3.5992    1.0000 </r>
        <r>    6.6896    0.0000 </r>
        <r>    8.2340    0.0000 </r>
        <r>   12.2518    0.0000 </r>
        <r>   12.2518    0.0000 </r>
       </set>
       <set comment="kpoint 18">
        <r>   -4.8147    1.0000 </r>
        <r>    1.5954    1.0000 </r>
        <r>    3.6801    1.0000 </r>
        <r>    3.6801    1.0000 </r>
        <r>    6.7517    0.0000 </r>
        <r>    8.4067    0.0000 </r>
        <r>   12.0210    0.0000 </r>
        <r>   12.0210    0.0000 </r>
       </set>
       <set comment="kpoint 19">
        <r>   -4.9326    1.0000 </r>
        <r>    1.8248    1.0000 </r>
        <r>    3.7654    1.0000 </r>
        <r>    3.7654    1.0000 </r>
        <r>    6.8187    0.0000 </r>
        <r>    8.5855    0.0000 </r>
        <r>   11.7920    0.0000 </r>
        <r>   11.7920    0.0000 </r>
       </set>
       <set comment="kpoint 20">
        <r>   -5.0453    1.0000 </r>
        <r>    2.0542    1.0000 </r>
        <r>    3.8550    1.0000 </r>
        <r>    3.8550    1.0000 </r>
        <r>    6.8903    0.0000 </r>
        <r>    8.7694    0.0000 </r>
        <r>   11.5650    0.0000 </r>
        <r>   11.5650    0.0000 </r>
       </set>
       <set comment="kpoint 21">
        <r>   -5.1529    1.0000 </r>
        <r>    2.2837    1.0000 </r>
        <r>    3.9487    1.0000 </r>
        <r>    3.9487    1.0000 </r>
        <r>    6.9661    0.0000 </r>
        <r>    8.9572    0.0000 </r>
        <r>   11.3400    0.0000 </r>
        <r>   11.3400    0.0000 </r>
       </set>
       <set comment="kpoint 22">
        <r>   -5.2551    1.0000 </r>
        <r>    2.5128    1.0000 </r>
        <r>    4.0463    1.0000 </r>
        <r>    4.0463    1.0000 </r>
        <r>    7.0458    0.0000 </r>
        <r>    9.1473    0.0000 </r>
        <r>   11.1174    0.0000 </r>
        <r>   11.1174    0.0000 </r>
       </set>
       <set comment="kpoint 23">
        <r>   -5.3521    1.0000 </r>
        <r>    2.7414    1.0000 </r>
        <r>    4.1476    1.0000 </r>
        <r>    4.1476    1.0000 </r>
        <r>    7.1291    0.0000 </r>
        <r>    9.3370    0.0000 </r>
        <r>   10.8972    0.0000 </r>
        <r>   10.8972    0.0000 </r>
       </set>
       <set comment="kpoint 24">
        <r>   -5.4438    1.0000 </r>
        <r>    2.9692    1.0000 </r>
        <r>    4.2524    1.0000 </r>
        <r>    4.2524    1.0000 </r>
        <r>    7.2153    0.0000 </r>
        <r>    9.5229    0.0000 </r>
        <r>   10.6797    0.0000 </r>
        <r>   10.6797    0.0000 </r>
       </set>
       <set comment="kpoint 25">
        <r>   -5.5300    1.0000 </r>
        <r>    3.1959    1.0000 </r>
        <r>    4.3605    1.0000 </r>
        <r>    4.3605    1.0000 </r>
        <r>    7.3043    0.0000 </r>
        <r>    9.6995    0.0000 </r>
        <r>   10.4660    0.0000 </r>
        <r>   10.4660    0.0000 </r>
       </set>
       <set comment="kpoint 26">
        <r>   -5.6109    1.0000 </r>
        <r>    3.4211    1.0000 </r>
        <r>    4.4715    1.0000 </r>
        <r>    4.4715    1.0000 </r>
        <r>    7.3951    0.0000 </r>
        <r>    9.8586    0.0000 </r>
        <r>   10.2554    0.0000 </r>
        <r>   10.2554    0.0000 </r>
       </set>
       <set comment="kpoint 27">
        <r>   -5.6863    1.0000 </r>
        <r>    3.6442    1.0000 </r>
        <r>    4.5849    1.0000 </r>
        <r>    4.5849    1.0000 </r>
        <r>    7.4870    0.0000 </r>
        <r>    9.9884    0.0000 </r>
        <r>   10.0479    0.0000 </r>
        <r>   10.0479    0.0000 </r>
       </set>
       <set comment="kpoint 28">
        <r>   -5.7562    1.0000 </r>
        <r>    3.8649    1.0000 </r>
        <r>    4.7004    1.0000 </r>
        <r>    4.7004    1.0000 </r>
        <r>    7.5796    0.0000 </r>
        <r>    9.8458    0.0000 </r>
        <r>    9.8458    0.0000 </r>
        <r>   10.0748    0.0000 </r>
       </set>
       <set comment="kpoint 29">
        <r>   -5.8207    1.0000 </r>
        <r>    4.0823    1.0000 </r>
        <r>    4.8172    1.0000 </r>
        <r>    4.8172    1.0000 </r>
        <r>    7.6719    0.0000 </r>
        <r>    9.6490    0.0000 </r>
        <r>    9.6490    0.0000 </r>
        <r>   10.1039    0.0000 </r>
       </set>
       <set comment="kpoint 30">
        <r>   -5.8796    1.0000 </r>
        <r>    4.2959    1.0000 </r>
        <r>    4.9346    1.0000 </r>
        <r>    4.9346    1.0000 </r>
        <r>    7.7629    0.0000 </r>
        <r>    9.4583    0.0000 </r>
        <r>    9.4583    0.0000 </r>
        <r>   10.0716    0.0000 </r>
       </set>
       <set comment="kpoint 31">
        <r>   -5.9329    1.0000 </r>
        <r>    4.5038    1.0000 </r>
        <r>    5.0517    1.0000 </r>
        <r>    5.0517    1.0000 </r>
        <r>    7.8515    0.0000 </r>
        <r>    9.2749    0.0000 </r>
        <r>    9.2749    0.0000 </r>
        <r>    9.9855    0.0000 </r>
       </set>
       <set comment="kpoint 32">
        <r>   -5.9807    1.0000 </r>
        <r>    4.7048    1.0000 </r>
        <r>    5.1671    1.0000 </r>
        <r>    5.1671    1.0000 </r>
        <r>    7.9366    0.0000 </r>
        <r>    9.0996    0.0000 </r>
        <r>    9.0996    0.0000 </r>
        <r>    9.8621    0.0000 </r>
       </set>
       <set comment="kpoint 33">
        <r>   -6.0229    1.0000 </r>
        <r>    4.8970    1.0000 </r>
        <r>    5.2794    1.0000 </r>
        <r>    5.2794    1.0000 </r>
        <r>    8.0167    0.0000 </r>
        <r>    8.9344    0.0000 </r>
        <r>    8.9344    0.0000 </r>
        <r>    9.7178    0.0000 </r>
       </set>
       <set comment="kpoint 34">
        <r>   -6.0595    1.0000 </r>
        <r>    5.0776    1.0000 </r>
        <r>    5.3866    1.0000 </r>
        <r>    5.3866    1.0000 </r>
        <r>    8.0904    0.0000 </r>
        <r>    8.7812    0.0000 </r>
        <r>    8.7812    0.0000 </r>
        <r>    9.5659    0.0000 </r>
       </set>
       <set comment="kpoint 35">
        <r>   -6.0905    1.0000 </r>
        <r>    5.2435    1.0000 </r>
        <r>    5.4862    1.0000 </r>
        <r>    5.4862    1.0000 </r>
        <r>    8.1563    0.0000 </r>
        <r>    8.6426    0.0000 </r>
        <r>    8.6426    0.0000 </r>
        <r>    9.4169    0.0000 </r>
       </set>
       <set comment="kpoint 36">
        <r>   -6.1159    1.0000 </r>
        <r>    5.3903    1.0000 </r>
        <r>    5.5753    1.0000 </r>
        <r>    5.5753    1.0000 </r>
        <r>    8.2129    0.0000 </r>
        <r>    8.5215    0.0000 </r>
        <r>    8.5215    0.0000 </r>
        <r>    9.2795    0.0000 </r>
       </set>
       <set comment="kpoint 37">
        <r>   -6.1357    1.0000 </r>
        <r>    5.5132    1.0000 </r>
        <r>    5.6503    1.0000 </r>
        <r>    5.6503    1.0000 </r>
        <r>    8.2586    0.0000 </r>
        <r>    8.4215    0.0000 </r>
        <r>    8.4215    0.0000 </r>
        <r>    9.1617    0.0000 </r>
       </set>
       <set comment="kpoint 38">
        <r>   -6.1498    1.0000 </r>
        <r>    5.6066    1.0000 </r>
        <r>    5.7076    1.0000 </r>
        <r>    5.7076    1.0000 </r>
        <r>    8.2924    0.0000 </r>
        <r>    8.3464    0.0000 </r>
        <r>    8.3464    0.0000 </r>
        <r>    9.0708    0.0000 </r>
       </set>
       <set comment="kpoint 39">
        <r>   -6.1582    1.0000 </r>
        <r>    5.6652    1.0000 </r>
        <r>    5.7437    1.0000 </r>
        <r>    5.7437    1.0000 </r>
        <r>    8.2996    0.0000 </r>
        <r>    8.2996    0.0000 </r>
        <r>    8.3130    0.0000 </r>
        <r>    9.0132    0.0000 </r>
       </set>
       <set comment="kpoint 40">
        <r>   -6.1610    1.0000 </r>
        <r>    5.6853    1.0000 </r>
        <r>    5.7561    1.0000 </r>
        <r>    5.7561    1.0000 </r>
        <r>    8.2837    0.0000 </r>
        <r>    8.2837    0.0000 </r>
        <r>    8.3200    0.0000 </r>
        <r>    8.9935    0.0000 </r>
       </set>
       <set comment="kpoint 41">
        <r>   -6.1610    1.0000 </r>
        <r>    5.6853    1.0000 </r>
        <r>    5.7561    1.0000 </r>
        <r>    5.7561    1.0000 </r>
        <r>    8.2837    0.0000 </r>
        <r>    8.2837    0.0000 </r>
        <r>    8.3200    0.0000 </r>
        <r>    8.9935    0.0000 </r>
       </set>
       <set comment="kpoint 42">
        <r>   -6.1582    1.0000 </r>
        <r>    5.6732    1.0000 </r>
        <r>    5.7358    1.0000 </r>
        <r>    5.7434    1.0000 </r>
        <r>    8.2765    0.0000 </r>
        <r>    8.2992    0.0000 </r>
        <r>    8.3363    0.0000 </r>
        <r>    9.0134    0.0000 </r>
       </set>
       <set comment="kpoint 43">
        <r>   -6.1496    1.0000 </r>
        <r>    5.6377    1.0000 </r>
        <r>    5.6763    1.0000 </r>
        <r>    5.7063    1.0000 </r>
        <r>    8.2550    0.0000 </r>
        <r>    8.3449    0.0000 </r>
        <r>    8.3841    0.0000 </r>
        <r>    9.0714    0.0000 </r>
       </set>
       <set comment="kpoint 44">
        <r>   -6.1352    1.0000 </r>
        <r>    5.5813    1.0000 </r>
        <r>    5.5819    1.0000 </r>
        <r>    5.6474    1.0000 </r>
        <r>    8.2200    0.0000 </r>
        <r>    8.4183    0.0000 </r>
        <r>    8.4609    0.0000 </r>
        <r>    9.1627    0.0000 </r>
       </set>
       <set comment="kpoint 45">
        <r>   -6.1151    1.0000 </r>
        <r>    5.4578    1.0000 </r>
        <r>    5.5073    1.0000 </r>
        <r>    5.5703    1.0000 </r>
        <r>    8.1725    0.0000 </r>
        <r>    8.5162    0.0000 </r>
        <r>    8.5630    0.0000 </r>
        <r>    9.2808    0.0000 </r>
       </set>
       <set comment="kpoint 46">
        <r>   -6.0893    1.0000 </r>
        <r>    5.3098    1.0000 </r>
        <r>    5.4192    1.0000 </r>
        <r>    5.4789    1.0000 </r>
        <r>    8.1139    0.0000 </r>
        <r>    8.6349    0.0000 </r>
        <r>    8.6865    0.0000 </r>
        <r>    9.4179    0.0000 </r>
       </set>
       <set comment="kpoint 47">
        <r>   -6.0578    1.0000 </r>
        <r>    5.1430    1.0000 </r>
        <r>    5.3205    1.0000 </r>
        <r>    5.3767    1.0000 </r>
        <r>    8.0457    0.0000 </r>
        <r>    8.7710    0.0000 </r>
        <r>    8.8279    0.0000 </r>
        <r>    9.5662    0.0000 </r>
       </set>
       <set comment="kpoint 48">
        <r>   -6.0205    1.0000 </r>
        <r>    4.9617    1.0000 </r>
        <r>    5.2139    1.0000 </r>
        <r>    5.2668    1.0000 </r>
        <r>    7.9694    0.0000 </r>
        <r>    8.9215    0.0000 </r>
        <r>    8.9840    0.0000 </r>
        <r>    9.7166    0.0000 </r>
       </set>
       <set comment="kpoint 49">
        <r>   -5.9776    1.0000 </r>
        <r>    4.7690    1.0000 </r>
        <r>    5.1020    1.0000 </r>
        <r>    5.1517    1.0000 </r>
        <r>    7.8866    0.0000 </r>
        <r>    9.0840    0.0000 </r>
        <r>    9.1523    0.0000 </r>
        <r>    9.8591    0.0000 </r>
       </set>
       <set comment="kpoint 50">
        <r>   -5.9289    1.0000 </r>
        <r>    4.5678    1.0000 </r>
        <r>    4.9868    1.0000 </r>
        <r>    5.0333    1.0000 </r>
        <r>    7.7987    0.0000 </r>
        <r>    9.2565    0.0000 </r>
        <r>    9.3307    0.0000 </r>
        <r>    9.9810    0.0000 </r>
       </set>
       <set comment="kpoint 51">
        <r>   -5.8747    1.0000 </r>
        <r>    4.3599    1.0000 </r>
        <r>    4.8698    1.0000 </r>
        <r>    4.9134    1.0000 </r>
        <r>    7.7073    0.0000 </r>
        <r>    9.4372    0.0000 </r>
        <r>    9.5175    0.0000 </r>
        <r>   10.0673    0.0000 </r>
       </set>
       <set comment="kpoint 52">
        <r>   -5.8147    1.0000 </r>
        <r>    4.1468    1.0000 </r>
        <r>    4.7523    1.0000 </r>
        <r>    4.7931    1.0000 </r>
        <r>    7.6136    0.0000 </r>
        <r>    9.6257    0.0000 </r>
        <r>    9.7121    0.0000 </r>
        <r>   10.1034    0.0000 </r>
       </set>
       <set comment="kpoint 53">
        <r>   -5.7492    1.0000 </r>
        <r>    3.9298    1.0000 </r>
        <r>    4.6351    1.0000 </r>
        <r>    4.6734    1.0000 </r>
        <r>    7.5185    0.0000 </r>
        <r>    9.8191    0.0000 </r>
        <r>    9.9118    0.0000 </r>
        <r>   10.0804    0.0000 </r>
       </set>
       <set comment="kpoint 54">
        <r>   -5.6781    1.0000 </r>
        <r>    3.7095    1.0000 </r>
        <r>    4.5193    1.0000 </r>
        <r>    4.5551    1.0000 </r>
        <r>    7.4231    0.0000 </r>
        <r>   10.0006    0.0000 </r>
        <r>   10.0178    0.0000 </r>
        <r>   10.1170    0.0000 </r>
       </set>
       <set comment="kpoint 55">
        <r>   -5.6014    1.0000 </r>
        <r>    3.4868    1.0000 </r>
        <r>    4.4053    1.0000 </r>
        <r>    4.4388    1.0000 </r>
        <r>    7.3284    0.0000 </r>
        <r>    9.8755    0.0000 </r>
        <r>   10.2210    0.0000 </r>
        <r>   10.3266    0.0000 </r>
       </set>
       <set comment="kpoint 56">
        <r>   -5.5192    1.0000 </r>
        <r>    3.2623    1.0000 </r>
        <r>    4.2938    1.0000 </r>
        <r>    4.3251    1.0000 </r>
        <r>    7.2351    0.0000 </r>
        <r>    9.7196    0.0000 </r>
        <r>   10.4280    0.0000 </r>
        <r>   10.5404    0.0000 </r>
       </set>
       <set comment="kpoint 57">
        <r>   -5.4315    1.0000 </r>
        <r>    3.0364    1.0000 </r>
        <r>    4.1851    1.0000 </r>
        <r>    4.2144    1.0000 </r>
        <r>    7.1439    0.0000 </r>
        <r>    9.5439    0.0000 </r>
        <r>   10.6386    0.0000 </r>
        <r>   10.7575    0.0000 </r>
       </set>
       <set comment="kpoint 58">
        <r>   -5.3384    1.0000 </r>
        <r>    2.8093    1.0000 </r>
        <r>    4.0795    1.0000 </r>
        <r>    4.1069    1.0000 </r>
        <r>    7.0550    0.0000 </r>
        <r>    9.3568    0.0000 </r>
        <r>   10.8516    0.0000 </r>
        <r>   10.9771    0.0000 </r>
       </set>
       <set comment="kpoint 59">
        <r>   -5.2398    1.0000 </r>
        <r>    2.5815    1.0000 </r>
        <r>    3.9774    1.0000 </r>
        <r>    4.0030    1.0000 </r>
        <r>    6.9697    0.0000 </r>
        <r>    9.1643    0.0000 </r>
        <r>   11.0676    0.0000 </r>
        <r>   11.1999    0.0000 </r>
       </set>
       <set comment="kpoint 60">
        <r>   -5.1358    1.0000 </r>
        <r>    2.3531    1.0000 </r>
        <r>    3.8791    1.0000 </r>
        <r>    3.9030    1.0000 </r>
        <r>    6.8879    0.0000 </r>
        <r>    8.9705    0.0000 </r>
        <r>   11.2861    0.0000 </r>
        <r>   11.4252    0.0000 </r>
       </set>
       <set comment="kpoint 61">
        <r>   -5.0266    1.0000 </r>
        <r>    2.1244    1.0000 </r>
        <r>    3.7847    1.0000 </r>
        <r>    3.8069    1.0000 </r>
        <r>    6.8102    0.0000 </r>
        <r>    8.7780    0.0000 </r>
        <r>   11.5068    0.0000 </r>
        <r>   11.6527    0.0000 </r>
       </set>
       <set comment="kpoint 62">
        <r>   -4.9120    1.0000 </r>
        <r>    1.8955    1.0000 </r>
        <r>    3.6944    1.0000 </r>
        <r>    3.7151    1.0000 </r>
        <r>    6.7370    0.0000 </r>
        <r>    8.5889    0.0000 </r>
        <r>   11.7295    0.0000 </r>
        <r>   11.8822    0.0000 </r>
       </set>
       <set comment="kpoint 63">
        <r>   -4.7922    1.0000 </r>
        <r>    1.6668    1.0000 </r>
        <r>    3.6086    1.0000 </r>
        <r>    3.6278    1.0000 </r>
        <r>    6.6687    0.0000 </r>
        <r>    8.4046    0.0000 </r>
        <r>   11.9547    0.0000 </r>
        <r>   12.1142    0.0000 </r>
       </set>
       <set comment="kpoint 64">
        <r>   -4.6672    1.0000 </r>
        <r>    1.4382    1.0000 </r>
        <r>    3.5270    1.0000 </r>
        <r>    3.5448    1.0000 </r>
        <r>    6.6052    0.0000 </r>
        <r>    8.2262    0.0000 </r>
        <r>   12.1813    0.0000 </r>
        <r>   12.3482    0.0000 </r>
       </set>
       <set comment="kpoint 65">
        <r>   -4.5372    1.0000 </r>
        <r>    1.2101    1.0000 </r>
        <r>    3.4499    1.0000 </r>
        <r>    3.4663    1.0000 </r>
        <r>    6.5469    0.0000 </r>
        <r>    8.0543    0.0000 </r>
        <r>   12.4093    0.0000 </r>
        <r>   12.5827    0.0000 </r>
       </set>
       <set comment="kpoint 66">
        <r>   -4.4021    1.0000 </r>
        <r>    0.9827    1.0000 </r>
        <r>    3.3774    1.0000 </r>
        <r>    3.3925    1.0000 </r>
        <r>    6.4940    0.0000 </r>
        <r>    7.8898    0.0000 </r>
        <r>   12.6386    0.0000 </r>
        <r>   12.8186    0.0000 </r>
       </set>
       <set comment="kpoint 67">
        <r>   -4.2621    1.0000 </r>
        <r>    0.7559    1.0000 </r>
        <r>    3.3097    1.0000 </r>
        <r>    3.3235    1.0000 </r>
        <r>    6.4470    0.0000 </r>
        <r>    7.7326    0.0000 </r>
        <r>   12.8698    0.0000 </r>
        <r>   13.0561    0.0000 </r>
       </set>
       <set comment="kpoint 68">
        <r>   -4.1172    1.0000 </r>
        <r>    0.5302    1.0000 </r>
        <r>    3.2467    1.0000 </r>
        <r>    3.2593    1.0000 </r>
        <r>    6.4056    0.0000 </r>
        <r>    7.5833    0.0000 </r>
        <r>   13.1022    0.0000 </r>
        <r>   13.2943    0.0000 </r>
       </set>
       <set comment="kpoint 69">
        <r>   -3.9675    1.0000 </r>
        <r>    0.3057    1.0000 </r>
        <r>    3.1887    1.0000 </r>
        <r>    3.2001    1.0000 </r>
        <r>    6.3708    0.0000 </r>
        <r>    7.4421    0.0000 </r>
        <r>   13.3375    0.0000 </r>
        <r>   13.5345    0.0000 </r>
       </set>
       <set comment="kpoint 70">
        <r>   -3.8130    1.0000 </r>
        <r>    0.0825    1.0000 </r>
        <r>    3.1355    1.0000 </r>
        <r>    3.1458    1.0000 </r>
        <r>    6.3422    0.0000 </r>
        <r>    7.3092    0.0000 </r>
        <r>   13.5730    0.0000 </r>
        <r>   13.7754    0.0000 </r>
       </set>
       <set comment="kpoint 71">
        <r>   -3.6540    1.0000 </r>
        <r>   -0.1391    1.0000 </r>
        <r>    3.0874    1.0000 </r>
        <r>    3.0964    1.0000 </r>
        <r>    6.3202    0.0000 </r>
        <r>    7.1847    0.0000 </r>
        <r>   13.8097    0.0000 </r>
        <r>   14.0170    0.0000 </r>
       </set>
       <set comment="kpoint 72">
        <r>   -3.4903    1.0000 </r>
        <r>   -0.3589    1.0000 </r>
        <r>    3.0442    1.0000 </r>
        <r>    3.0522    1.0000 </r>
        <r>    6.3049    0.0000 </r>
        <r>    7.0688    0.0000 </r>
        <r>   14.0476    0.0000 </r>
        <r>   14.2590    0.0000 </r>
       </set>
       <set comment="kpoint 73">
        <r>   -3.3222    1.0000 </r>
        <r>   -0.5768    1.0000 </r>
        <r>    3.0061    1.0000 </r>
        <r>    3.0130    1.0000 </r>
        <r>    6.2963    0.0000 </r>
        <r>    6.9609    0.0000 </r>
        <r>   14.2859    0.0000 </r>
        <r>   14.5009    0.0000 </r>
       </set>
       <set comment="kpoint 74">
        <r>   -3.1498    1.0000 </r>
        <r>   -0.7925    1.0000 </r>
        <r>    2.9730    1.0000 </r>
        <r>    2.9790    1.0000 </r>
        <r>    6.2946    0.0000 </r>
        <r>    6.8616    0.0000 </r>
        <r>   14.5243    0.0000 </r>
        <r>   14.7431    0.0000 </r>
       </set>
       <set comment="kpoint 75">
        <r>   -2.9733    1.0000 </r>
        <r>   -1.0060    1.0000 </r>
        <r>    2.9450    1.0000 </r>
        <r>    2.9500    1.0000 </r>
        <r>    6.3000    0.0000 </r>
        <r>    6.7706    0.0000 </r>
        <r>   14.7629    0.0000 </r>
        <r>   14.9811    0.0000 </r>
       </set>
       <set comment="kpoint 76">
        <r>   -2.7926    1.0000 </r>
        <r>   -1.2169    1.0000 </r>
        <r>    2.9222    1.0000 </r>
        <r>    2.9262    1.0000 </r>
        <r>    6.3126    0.0000 </r>
        <r>    6.6878    0.0000 </r>
        <r>   14.9978    0.0000 </r>
        <r>   15.2130    0.0000 </r>
       </set>
       <set comment="kpoint 77">
        <r>   -2.6080    1.0000 </r>
        <r>   -1.4251    1.0000 </r>
        <r>    2.9046    1.0000 </r>
        <r>    2.9075    1.0000 </r>
        <r>    6.3325    0.0000 </r>
        <r>    6.6131    0.0000 </r>
        <r>   15.2264    0.0000 </r>
        <r>   15.4322    0.0000 </r>
       </set>
       <set comment="kpoint 78">
        <r>   -2.4195    1.0000 </r>
        <r>   -1.6304    1.0000 </r>
        <r>    2.8921    1.0000 </r>
        <r>    2.8941    1.0000 </r>
        <r>    6.3599    0.0000 </r>
        <r>    6.5465    0.0000 </r>
        <r>   15.4427    0.0000 </r>
        <r>   15.6226    0.0000 </r>
       </set>
       <set comment="kpoint 79">
        <r>   -2.2274    1.0000 </r>
        <r>   -1.8327    1.0000 </r>
        <r>    2.8848    1.0000 </r>
        <r>    2.8858    1.0000 </r>
        <r>    6.3949    0.0000 </r>
        <r>    6.4881    0.0000 </r>
        <r>   15.6296    0.0000 </r>
        <r>   15.7460    0.0000 </r>
       </set>
       <set comment="kpoint 80">
        <r>   -2.0317    1.0000 </r>
        <r>   -2.0317    1.0000 </r>
        <r>    2.8827    1.0000 </r>
        <r>    2.8827    1.0000 </r>
        <r>    6.4376    0.0000 </r>
        <r>    6.4376    0.0000 </r>
        <r>   15.7490    0.0000 </r>
        <r>   15.7494    0.0000 </r>
       </set>
      </set>
     </set>
    </array>
   </eigenvalues>
   <array>
    <dimension dim="1">ion</dimension>
    <dimension dim="2">band</dimension>
    <dimension dim="3">kpoint</dimension>
    <dimension dim="4">spin</dimension>
    <field>    s</field>
    <field>   py</field>
    <field>   pz</field>
    <field>   px</field>
    <field>  dxy</field>
    <field>  dyz</field>
    <field>  dz2</field>
    <field>  dxz</field>
    <field>x2-y2</field>
    <set>
     <set comment="spin1">
      <set comment="kpoint 1">
       <set comment="band 1">
        <r>  0.3812  0.0000  0.0000  0.0009  0.0000  0.0000  0.0000  0.0000  0.0000 </r>
        <r>  0.0040  0.0000  0.0000  0.0890  0.0000  0.0000  0.0000  0.0000  0.0000 </r>
       </set>
       <set comment="band 2">
        <r>  0.0040  0.0000  0.0000  0.0890  0.0000  0.0000  0.0000  0.0000  0.0000 </r>
        <r>  0.3812  0.0000  0.0000  0.0009  0.0000  0.0000  0.0000  0.0000  0.0000 </r>
       </set>
       <set comment="band 3">
        <r>  0.0000  0.0917  0.1055  0.0000  0.0000  0.0000  0.0000  0.0000  0.0000 </r>
        <r>  0.0000  0.1055  0.0917  0.0000  0.0000  0.0000  0.0000  0.0000  0.0000 </r>
       </set>
       <set comment="band 4">
        <r>  0.0000  0.1055  0.0917  0.0000  0.0000  0.0000  0.0000  0.0000  0.0000 </r>
        <r>  0.0000  0.0917  0.1055  0.0000  0.0000  0.0000  0.0000  0.0000  0.0000 </r>
       </set>
       <set comment="band 5">
        <r>  0.0360  0.0000  0.0000  0.0456  0.0000  0.0000  0.0000  0.0000  0.0000 </r>
        <r>  0.0678  0.0000  0.0000  0.0242  0.0000  0.0000  0.0000  0.0000  0.0000 </r>
       </set>
       <set comment="band 6">
        <r>  0.0678  0.0000  0.0000  0.0242  0.0000  0.0000  0.0000  0.0000  0.0000 </r>
        <r>  0.0360  0.0000  0.0000  0.0456  0.0000  0.0000  0.0000  0.0000  0.0000 </r>
       </set>
       <set comment="band 7">
        <r>  0.0000  0.0045  0.2382  0.0000  0.0000  0.0000  0.0000  0.0000  0.0000 </r>
        <r>  0.0000  0.2383  0.0045  0.0000  0.0000  0.0000  0.0000  0.0000  0.0000 </r>
       </set>
       <set comment="band 8">
        <r>  0.0000  0.2382  0.0043  0.0000  0.0000  0.0000  0.0000  0.0000  0.0000 </r>
        <r>  0.0000  0.0045  0.2382  0.0000  0.0000  0.0000  0.0000  0.0000  0.0000 </r>
       </set>
      </set>
      <set comment="kpoint 2">
       <set comment="band 1">
        <r>  0.1936  0.0000  0.0000  0.0428  0.0000  0.0000  0.0000  0.0000  0.0000 </r>
        <r>  0.1936  0.0000  0.0000  0.0428  0.0000  0.0000  0.0000  0.0000  0.0000 </r>
       </set>
       <set comment="band 2">
        <r>  0.1916  0.0000  0.0000  0.0472  0.0000  0.0000  0.0000  0.0000  0.0000 </r>
        <r>  0.1916  0.0000  0.0000  0.0472  0.0000  0.0000  0.0000  0.0000  0.0000 </r>
       </set>
       <set comment="band 3">
        <r>  0.0000  0.0917  0.1055  0.0000  0.0000  0.0000  0.0000  0.0000  0.0000 </r>
        <r>  0.0000  0.1055  0.0917  0.0000  0.0000  0.0000  0.0000  0.0000  0.0000 </r>
       </set>
       <set comment="band 4">
        <r>  0.0000  0.1055  0.0917  0.0000  0.0000  0.0000  0.0000  0.0000  0.0000 </r>
        <r>  0.0000  0.0917  0.1055  0.0000  0.0000  0.0000  0.0000  0.0000  0.0000 </r>
       </set>
       <set comment="band 5">
        <r>  0.0523  0.0000  0.0000  0.0360  0.0000  0.0000  0.0000  0.0000  0.0000 </r>
        <r>  0.0523  0.0000  0.0000  0.0360  0.0000  0.0000  0.0000  0.0000  0.0000 </r>
       </set>
       <set comment="band 6">
        <r>  0.0514  0.0000  0.0000  0.0339  0.0000  0.0000  0.0000  0.0000  0.0000 </r>
        <r>  0.0514  0.0000  0.0000  0.0339  0.0000  0.0000  0.0000  0.0000  0.0000 </r>
       </set>
       <set comment="band 7">
        <r>  0.0000  0.0387  0.1898  0.0000  0.0000  0.0000  0.0000  0.0000  0.0000 </r>
        <r>  0.0000  0.2055  0.0233  0.0000  0.0000  0.0000  0.0000  0.0000  0.0000 </r>
       </set>
       <set comment="band 8">
        <r>  0.0000  0.1864  0.0394  0.0000  0.0000  0.0000  0.0000  0.0000  0.0000 </r>
        <r>  0.0000  0.0228  0.2015  0.0000  0.0000  0.0000  0.0000  0.0000  0.0000 </r>
       </set>
      </set>
      <set comment="kpoint 3">
       <set comment="band 1">
        <r>  0.1946  0.0000  0.0000  0.0407  0.0000  0.0000  0.0000  0.0000  0.0000 </r>
        <r>  0.1946  0.0000  0.0000  0.0407  0.0000  0.0000  0.0000  0.0000  0.0000 </r>
       </set>
       <set comment="band 2">
        <r>  0.1905  0.0000  0.0000  0.0495  0.0000  0.0000  0.0000  0.0000  0.0000 </r>
        <r>  0.1905  0.0000  0.0000  0.0495  0.0000  0.0000  0.0000  0.0000  0.0000 </r>
       </set>
       <set comment="band 3">
        <r>  0.0000  0.0917  0.1055  0.0000  0.0000  0.0000  0.0000  0.0000  0.0000 </r>
        <r>  0.0000  0.1055  0.0917  0.0000  0.0000  0.0000  0.0000  0.0000  0.0000 </r>
       </set>
       <set comment="band 4">
        <r>  0.0000  0.1055  0.0917  0.0000  0.0000  0.0000  0.0000  0.0000  0.0000 </r>
        <r>  0.0000  0.0917  0.1055  0.0000  0.0000  0.0000  0.0000  0.0000  0.0000 </r>
       </set>
       <set comment="band 5">
        <r>  0.0526  0.0000  0.0000  0.0372  0.0000  0.0000  0.0000  0.0000  0.0000 </r>
        <r>  0.0526  0.0000  0.0000  0.0372  0.0000  0.0000  0.0000  0.0000  0.0000 </r>
       </set>
       <set comment="band 6">
        <r>  0.0509  0.0000  0.0000  0.0330  0.0000  0.0000  0.0000  0.0000  0.0000 </r>
        <r>  0.0509  0.0000  0.0000  0.0330  0.0000  0.0000  0.0000  0.0000  0.0000 </r>
       </set>
       <set comment="band 7">
        <r>  0.0000  0.0525  0.1535  0.0000  0.0000  0.0000  0.0000  0.0000  0.0000 </r>
        <r>  0.0000  0.1509  0.0552  0.0000  0.0000  0.0000  0.0000  0.0000  0.0000 </r>
       </set>
       <set comment="band 8">
        <r>  0.0000  0.1542  0.0531  0.0000  0.0000  0.0000  0.0000  0.0000  0.0000 </r>
        <r>  0.0000  0.0555  0.1505  0.0000  0.0000  0.0000  0.0000  0.0000  0.0000 </r>
       </set>
      </set>
      <set comment="kpoint 4">
       <set comment="band 1">
        <r>  0.1955  0.0000  0.0000  0.0386  0.0000  0.0000  0.0000  0.0000  0.0000 </r>
        <r>  0.1955  0.0000  0.0000  0.0386  0.0000  0.0000  0.0000  0.0000  0.0000 </r>
       </set>
       <set comment="band 2">
        <r>  0.1894  0.0000  0.0000  0.0518  0.0000  0.0000  0.0000  0.0000  0.0000 </r>
        <r>  0.1894  0.0000  0.0000  0.0518  0.0000  0.0000  0.0000  0.0000  0.0000 </r>
       </set>
       <set comment="band 3">
        <r>  0.0000  0.0917  0.1055  0.0000  0.0000  0.0000  0.0000  0.0000  0.0000 </r>
        <r>  0.0000  0.1055  0.0917  0.0000  0.0000  0.0000  0.0000  0.0000  0.0000 </r>
       </set>
       <set comment="band 4">
        <r>  0.0000  0.1055  0.0917  0.0000  0.0000  0.0000  0.0000  0.0000  0.0000 </r>
        <r>  0.0000  0.0917  0.1055  0.0000  0.0000  0.0000  0.0000  0.0000  0.0000 </r>
       </set>
       <set comment="band 5">
        <r>  0.0529  0.0000  0.0000  0.0386  0.0000  0.0000  0.0000  0.0000  0.0000 </r>
        <r>  0.0529  0.0000  0.0000  0.0386  0.0000  0.0000  0.0000  0.0000  0.0000 </r>
       </set>
       <set comment="band 6">
        <r>  0.0504  0.0000  0.0000  0.0322  0.0000  0.0000  0.0000  0.0000  0.0000 </r>
        <r>  0.0504  0.0000  0.0000  0.0322  0.0000  0.0000  0.0000  0.0000  0.0000 </r>
       </set>
       <set comment="band 7">
        <r>  0.0000  0.0473  0.1434  0.0000  0.0000  0.0000  0.0000  0.0000  0.0000 </r>
        <r>  0.0000  0.1627  0.0280  0.0000  0.0000  0.0000  0.0000  0.0000  0.0000 </r>
       </set>
       <set comment="band 8">
        <r>  0.0000  0.1434  0.0473  0.0000  0.0000  0.0000  0.0000  0.0000  0.0000 </r>
        <r>  0.0000  0.0280  0.1627  0.0000  0.0000  0.0000  0.0000  0.0000  0.0000 </r>
       </set>
      </set>
      <set comment="kpoint 5">
       <set comment="band 1">
        <r>  0.1964  0.0000  0.0000  0.0366  0.0000  0.0000  0.0000  0.0000  0.0000 </r>
        <r>  0.1964  0.0000  0.0000  0.0366  0.0000  0.0000  0.0000  0.0000  0.0000 </r>
       </set>
       <set comment="band 2">
        <r>  0.1882  0.0000  0.0000  0.0542  0.0000  0.0000  0.0000  0.0000  0.0000 </r>
        <r>  0.1882  0.0000  0.0000  0.0542  0.0000  0.0000  0.0000  0.0000  0.0000 </r>
       </set>
       <set comment="band 3">
        <r>  0.0000  0.0917  0.1055  0.0000  0.0000  0.0000  0.0000  0.0000  0.0000 </r>
        <r>  0.0000  0.1055  0.0917  0.0000  0.0000  0.0000  0.0000  0.0000  0.0000 </r>
       </set>
       <set comment="band 4">
        <r>  0.0000  0.1055  0.0917  0.0000  0.0000  0.0000  0.0000  0.0000  0.0000 </r>
        <r>  0.0000  0.0917  0.1055  0.0000  0.0000  0.0000  0.0000  0.0000  0.0000 </r>
       </set>
       <set comment="band 5">
        <r>  0.0530  0.0000  0.0000  0.0400  0.0000  0.0000  0.0000  0.0000  0.0000 </r>
        <r>  0.0530  0.0000  0.0000  0.0400  0.0000  0.0000  0.0000  0.0000  0.0000 </r>
       </set>
       <set comment="band 6">
        <r>  0.0498  0.0000  0.0000  0.0315  0.0000  0.0000  0.0000  0.0000  0.0000 </r>
        <r>  0.0498  0.0000  0.0000  0.0315  0.0000  0.0000  0.0000  0.0000  0.0000 </r>
       </set>
       <set comment="band 7">
        <r>  0.0000  0.0785  0.1025  0.0000  0.0000  0.0000  0.0000  0.0000  0.0000 </r>
        <r>  0.0000  0.0669  0.1142  0.0000  0.0000  0.0000  0.0000  0.0000  0.0000 </r>
       </set>
       <set comment="band 8">
        <r>  0.0000  0.1025  0.0785  0.0000  0.0000  0.0000  0.0000  0.0000  0.0000 </r>
        <r>  0.0000  0.1141  0.0670  0.0000  0.0000  0.0000  0.0000  0.0000  0.0000 </r>
       </set>
      </set>
      <set comment="kpoint 6">
       <set comment="band 1">
        <r>  0.1973  0.0000  0.0000  0.0346  0.0000  0.0000  0.0000  0.0000  0.0000 </r>
        <r>  0.1973  0.0000  0.0000  0.0346  0.0000  0.0000  0.0000  0.0000  0.0000 </r>
       </set>
       <set comment="band 2">
        <r>  0.1869  0.0000  0.0000  0.0567  0.0000  0.0000  0.0000  0.0000  0.0000 </r>
        <r>  0.1869  0.0000  0.0000  0.0567  0.0000  0.0000  0.0000  0.0000  0.0000 </r>
       </set>
       <set comment="band 3">
        <r>  0.0000  0.0917  0.1055  0.0000  0.0000  0.0000  0.0000  0.0000  0.0000 </r>
        <r>  0.0000  0.1055  0.0918  0.0000  0.0000  0.0000  0.0000  0.0000  0.0000 </r>
       </set>
       <set comment="band 4">
        <r>  0.0000  0.1055  0.0917  0.0000  0.0000  0.0000  0.0000  0.0000  0.0000 </r>
        <r>  0.0000  0.0918  0.1055  0.0000  0.0000  0.0000  0.0000  0.0000  0.0000 </r>
       </set>
       <set comment="band 5">
        <r>  0.0531  0.0000  0.0000  0.0415  0.0000  0.0000  0.0000  0.0000  0.0000 </r>
        <r>  0.0531  0.0000  0.0000  0.0415  0.0000  0.0000  0.0000  0.0000  0.0000 </r>
       </set>
       <set comment="band 6">
        <r>  0.0491  0.0000  0.0000  0.0310  0.0000  0.0000  0.0000  0.0000  0.0000 </r>
        <r>  0.0491  0.0000  0.0000  0.0310  0.0000  0.0000  0.0000  0.0000  0.0000 </r>
       </set>
       <set comment="band 7">
        <r>  0.0000  0.0328  0.1423  0.0000  0.0000  0.0000  0.0000  0.0000  0.0000 </r>
        <r>  0.0000  0.1466  0.0286  0.0000  0.0000  0.0000  0.0000  0.0000  0.0000 </r>
       </set>
       <set comment="band 8">
        <r>  0.0000  0.1423  0.0328  0.0000  0.0000  0.0000  0.0000  0.0000  0.0000 </r>
        <r>  0.0000  0.0286  0.1465  0.0000  0.0000  0.0000  0.0000  0.0000  0.0000 </r>
       </set>
      </set>
      <set comment="kpoint 7">
       <set comment="band 1">
        <r>  0.1981  0.0000  0.0000  0.0326  0.0000  0.0000  0.0000  0.0000  0.0000 </r>
        <r>  0.1981  0.0000  0.0000  0.0326  0.0000  0.0000  0.0000  0.0000  0.0000 </r>
       </set>
       <set comment="band 2">
        <r>  0.1856  0.0000  0.0000  0.0592  0.0000  0.0000  0.0000  0.0000  0.0000 </r>
        <r>  0.1856  0.0000  0.0000  0.0592  0.0000  0.0000  0.0000  0.0000  0.0000 </r>
       </set>
       <set comment="band 3">
        <r>  0.0000  0.0918  0.1055  0.0000  0.0000  0.0000  0.0000  0.0000  0.0000 </r>
        <r>  0.0000  0.1055  0.0918  0.0000  0.0000  0.0000  0.0000  0.0000  0.0000 </r>
       </set>
       <set comment="band 4">
        <r>  0.0000  0.1055  0.0918  0.0000  0.0000  0.0000  0.0000  0.0000  0.0000 </r>
        <r>  0.0000  0.0918  0.1055  0.0000  0.0000  0.0000  0.0000  0.0000  0.0000 </r>
       </set>
       <set comment="band 5">
        <r>  0.0531  0.0000  0.0000  0.0430  0.0000  0.0000  0.0000  0.0000  0.0000 </r>
        <r>  0.0531  0.0000  0.0000  0.0430  0.0000  0.0000  0.0000  0.0000  0.0000 </r>
       </set>
       <set comment="band 6">
        <r>  0.0485  0.0000  0.0000  0.0306  0.0000  0.0000  0.0000  0.0000  0.0000 </r>
        <r>  0.0485  0.0000  0.0000  0.0306  0.0000  0.0000  0.0000  0.0000  0.0000 </r>
       </set>
       <set comment="band 7">
        <r>  0.0000  0.0994  0.0721  0.0000  0.0000  0.0000  0.0000  0.0000  0.0000 </r>
        <r>  0.0000  0.1166  0.0549  0.0000  0.0000  0.0000  0.0000  0.0000  0.0000 </r>
       </set>
       <set comment="band 8">
        <r>  0.0000  0.0721  0.0994  0.0000  0.0000  0.0000  0.0000  0.0000  0.0000 </r>
        <r>  0.0000  0.0549  0.1166  0.0000  0.0000  0.0000  0.0000  0.0000  0.0000 </r>
       </set>
      </set>
      <set comment="kpoint 8">
       <set comment="band 1">
        <r>  0.1989  0.0000  0.0000  0.0308  0.0000  0.0000  0.0000  0.0000  0.0000 </r>
        <r>  0.1989  0.0000  0.0000  0.0308  0.0000  0.0000  0.0000  0.0000  0.0000 </r>
       </set>
       <set comment="band 2">
        <r>  0.1842  0.0000  0.0000  0.0617  0.0000  0.0000  0.0000  0.0000  0.0000 </r>
        <r>  0.1842  0.0000  0.0000  0.0617  0.0000  0.0000  0.0000  0.0000  0.0000 </r>
       </set>
       <set comment="band 3">
        <r>  0.0000  0.0918  0.1054  0.0000  0.0000  0.0000  0.0000  0.0000  0.0000 </r>
        <r>  0.0000  0.1054  0.0918  0.0000  0.0000  0.0000  0.0000  0.0000  0.0000 </r>
       </set>
       <set comment="band 4">
        <r>  0.0000  0.1054  0.0918  0.0000  0.0000  0.0000  0.0000  0.0000  0.0000 </r>
        <r>  0.0000  0.0918  0.1054  0.0000  0.0000  0.0000  0.0000  0.0000  0.0000 </r>
       </set>
       <set comment="band 5">
        <r>  0.0530  0.0000  0.0000  0.0448  0.0000  0.0000  0.0000  0.0000  0.0000 </r>
        <r>  0.0530  0.0000  0.0000  0.0448  0.0000  0.0000  0.0000  0.0000  0.0000 </r>
       </set>
       <set comment="band 6">
        <r>  0.0478  0.0000  0.0000  0.0302  0.0000  0.0000  0.0000  0.0000  0.0000 </r>
        <r>  0.0478  0.0000  0.0000  0.0302  0.0000  0.0000  0.0000  0.0000  0.0000 </r>
       </set>
       <set comment="band 7">
        <r>  0.0000  0.0784  0.0908  0.0000  0.0000  0.0000  0.0000  0.0000  0.0000 </r>
        <r>  0.0000  0.0794  0.0898  0.0000  0.0000  0.0000  0.0000  0.0000  0.0000 </r>
       </set>
       <set comment="band 8">
        <r>  0.0000  0.0907  0.0785  0.0000  0.0000  0.0000  0.0000  0.0000  0.0000 </r>
        <r>  0.0000  0.0898  0.0795  0.0000  0.0000  0.0000  0.0000  0.0000  0.0000 </r>
       </set>
      </set>
      <set comment="kpoint 9">
       <set comment="band 1">
        <r>  0.1997  0.0000  0.0000  0.0289  0.0000  0.0000  0.0000  0.0000  0.0000 </r>
        <r>  0.1997  0.0000  0.0000  0.0289  0.0000  0.0000  0.0000  0.0000  0.0000 </r>
       </set>
       <set comment="band 2">
        <r>  0.1827  0.0000  0.0000  0.0643  0.0000  0.0000  0.0000  0.0000  0.0000 </r>
        <r>  0.1827  0.0000  0.0000  0.0643  0.0000  0.0000  0.0000  0.0000  0.0000 </r>
       </set>
       <set comment="band 3">
        <r>  0.0000  0.0918  0.1055  0.0000  0.0000  0.0000  0.0000  0.0000  0.0000 </r>
        <r>  0.0000  0.1054  0.0918  0.0000  0.0000  0.0000  0.0000  0.0000  0.0000 </r>
       </set>
       <set comment="band 4">
        <r>  0.0000  0.1055  0.0918  0.0000  0.0000  0.0000  0.0000  0.0000  0.0000 </r>
        <r>  0.0000  0.0918  0.1054  0.0000  0.0000  0.0000  0.0000  0.0000  0.0000 </r>
       </set>
       <set comment="band 5">
        <r>  0.0528  0.0000  0.0000  0.0466  0.0000  0.0000  0.0000  0.0000  0.0000 </r>
        <r>  0.0528  0.0000  0.0000  0.0466  0.0000  0.0000  0.0000  0.0000  0.0000 </r>
       </set>
       <set comment="band 6">
        <r>  0.0471  0.0000  0.0000  0.0299  0.0000  0.0000  0.0000  0.0000  0.0000 </r>
        <r>  0.0471  0.0000  0.0000  0.0299  0.0000  0.0000  0.0000  0.0000  0.0000 </r>
       </set>
       <set comment="band 7">
        <r>  0.0000  0.1089  0.0585  0.0000  0.0000  0.0000  0.0000  0.0000  0.0000 </r>
        <r>  0.0000  0.0607  0.1068  0.0000  0.0000  0.0000  0.0000  0.0000  0.0000 </r>
       </set>
       <set comment="band 8">
        <r>  0.0000  0.0585  0.1089  0.0000  0.0000  0.0000  0.0000  0.0000  0.0000 </r>
        <r>  0.0000  0.1068  0.0606  0.0000  0.0000  0.0000  0.0000  0.0000  0.0000 </r>
       </set>
      </set>
      <set comment="kpoint 10">
       <set comment="band 1">
        <r>  0.2005  0.0000  0.0000  0.0271  0.0000  0.0000  0.0000  0.0000  0.0000 </r>
        <r>  0.2005  0.0000  0.0000  0.0271  0.0000  0.0000  0.0000  0.0000  0.0000 </r>
       </set>
       <set comment="band 2">
        <r>  0.1811  0.0000  0.0000  0.0670  0.0000  0.0000  0.0000  0.0000  0.0000 </r>
        <r>  0.1811  0.0000  0.0000  0.0670  0.0000  0.0000  0.0000  0.0000  0.0000 </r>
       </set>
       <set comment="band 3">
        <r>  0.0000  0.0919  0.1055  0.0000  0.0000  0.0000  0.0000  0.0000  0.0000 </r>
        <r>  0.0000  0.1054  0.0919  0.0000  0.0000  0.0000  0.0000  0.0000  0.0000 </r>
       </set>
       <set comment="band 4">
        <r>  0.0000  0.1055  0.0919  0.0000  0.0000  0.0000  0.0000  0.0000  0.0000 </r>
        <r>  0.0000  0.0919  0.1054  0.0000  0.0000  0.0000  0.0000  0.0000  0.0000 </r>
       </set>
       <set comment="band 5">
        <r>  0.0525  0.0000  0.0000  0.0486  0.0000  0.0000  0.0000  0.0000  0.0000 </r>
        <r>  0.0525  0.0000  0.0000  0.0486  0.0000  0.0000  0.0000  0.0000  0.0000 </r>
       </set>
       <set comment="band 6">
        <r>  0.0465  0.0000  0.0000  0.0297  0.0000  0.0000  0.0000  0.0000  0.0000 </r>
        <r>  0.0465  0.0000  0.0000  0.0297  0.0000  0.0000  0.0000  0.0000  0.0000 </r>
       </set>
       <set comment="band 7">
        <r>  0.0000  0.1093  0.0573  0.0000  0.0000  0.0000  0.0000  0.0000  0.0000 </r>
        <r>  0.0000  0.0282  0.1384  0.0000  0.0000  0.0000  0.0000  0.0000  0.0000 </r>
       </set>
       <set comment="band 8">
        <r>  0.0000  0.0573  0.1093  0.0000  0.0000  0.0000  0.0000  0.0000  0.0000 </r>
        <r>  0.0000  0.1384  0.0283  0.0000  0.0000  0.0000  0.0000  0.0000  0.0000 </r>
       </set>
      </set>
      <set comment="kpoint 11">
       <set comment="band 1">
        <r>  0.2012  0.0000  0.0000  0.0254  0.0000  0.0000  0.0000  0.0000  0.0000 </r>
        <r>  0.2012  0.0000  0.0000  0.0254  0.0000  0.0000  0.0000  0.0000  0.0000 </r>
       </set>
       <set comment="band 2">
        <r>  0.1794  0.0000  0.0000  0.0697  0.0000  0.0000  0.0000  0.0000  0.0000 </r>
        <r>  0.1794  0.0000  0.0000  0.0697  0.0000  0.0000  0.0000  0.0000  0.0000 </r>
       </set>
       <set comment="band 3">
        <r>  0.0000  0.0919  0.1055  0.0000  0.0000  0.0000  0.0000  0.0000  0.0000 </r>
        <r>  0.0000  0.1054  0.0919  0.0000  0.0000  0.0000  0.0000  0.0000  0.0000 </r>
       </set>
       <set comment="band 4">
        <r>  0.0000  0.1055  0.0919  0.0000  0.0000  0.0000  0.0000  0.0000  0.0000 </r>
        <r>  0.0000  0.0919  0.1054  0.0000  0.0000  0.0000  0.0000  0.0000  0.0000 </r>
       </set>
       <set comment="band 5">
        <r>  0.0521  0.0000  0.0000  0.0507  0.0000  0.0000  0.0000  0.0000  0.0000 </r>
        <r>  0.0521  0.0000  0.0000  0.0507  0.0000  0.0000  0.0000  0.0000  0.0000 </r>
       </set>
       <set comment="band 6">
        <r>  0.0460  0.0000  0.0000  0.0297  0.0000  0.0000  0.0000  0.0000  0.0000 </r>
        <r>  0.0460  0.0000  0.0000  0.0297  0.0000  0.0000  0.0000  0.0000  0.0000 </r>
       </set>
       <set comment="band 7">
        <r>  0.0000  0.0606  0.1056  0.0000  0.0000  0.0000  0.0000  0.0000  0.0000 </r>
        <r>  0.0000  0.0627  0.1035  0.0000  0.0000  0.0000  0.0000  0.0000  0.0000 </r>
       </set>
       <set comment="band 8">
        <r>  0.0000  0.1056  0.0606  0.0000  0.0000  0.0000  0.0000  0.0000  0.0000 </r>
        <r>  0.0000  0.1035  0.0627  0.0000  0.0000  0.0000  0.0000  0.0000  0.0000 </r>
       </set>
      </set>
      <set comment="kpoint 12">
       <set comment="band 1">
        <r>  0.2020  0.0000  0.0000  0.0238  0.0000  0.0000  0.0000  0.0000  0.0000 </r>
        <r>  0.2020  0.0000  0.0000  0.0238  0.0000  0.0000  0.0000  0.0000  0.0000 </r>
       </set>
       <set comment="band 2">
        <r>  0.1775  0.0000  0.0000  0.0725  0.0000  0.0000  0.0000  0.0000  0.0000 </r>
        <r>  0.1775  0.0000  0.0000  0.0725  0.0000  0.0000  0.0000  0.0000  0.0000 </r>
       </set>
       <set comment="band 3">
        <r>  0.0000  0.0919  0.1054  0.0000  0.0000  0.0000  0.0000  0.0000  0.0000 </r>
        <r>  0.0000  0.1054  0.0920  0.0000  0.0000  0.0000  0.0000  0.0000  0.0000 </r>
       </set>
       <set comment="band 4">
        <r>  0.0000  0.1054  0.0919  0.0000  0.0000  0.0000  0.0000  0.0000  0.0000 </r>
        <r>  0.0000  0.0920  0.1054  0.0000  0.0000  0.0000  0.0000  0.0000  0.0000 </r>
       </set>
       <set comment="band 5">
        <r>  0.0515  0.0000  0.0000  0.0529  0.0000  0.0000  0.0000  0.0000  0.0000 </r>
        <r>  0.0515  0.0000  0.0000  0.0529  0.0000  0.0000  0.0000  0.0000  0.0000 </r>
       </set>
       <set comment="band 6">
        <r>  0.0455  0.0000  0.0000  0.0297  0.0000  0.0000  0.0000  0.0000  0.0000 </r>
        <r>  0.0455  0.0000  0.0000  0.0297  0.0000  0.0000  0.0000  0.0000  0.0000 </r>
       </set>
       <set comment="band 7">
        <r>  0.0000  0.0476  0.1185  0.0000  0.0000  0.0000  0.0000  0.0000  0.0000 </r>
        <r>  0.0000  0.0820  0.0841  0.0000  0.0000  0.0000  0.0000  0.0000  0.0000 </r>
       </set>
       <set comment="band 8">
        <r>  0.0000  0.1183  0.0475  0.0000  0.0000  0.0000  0.0000  0.0000  0.0000 </r>
        <r>  0.0000  0.0842  0.0819  0.0000  0.0000  0.0000  0.0000  0.0000  0.0000 </r>
       </set>
      </set>
      <set comment="kpoint 13">
       <set comment="band 1">
        <r>  0.2027  0.0000  0.0000  0.0221  0.0000  0.0000  0.0000  0.0000  0.0000 </r>
        <r>  0.2027  0.0000  0.0000  0.0221  0.0000  0.0000  0.0000  0.0000  0.0000 </r>
       </set>
       <set comment="band 2">
        <r>  0.1756  0.0000  0.0000  0.0753  0.0000  0.0000  0.0000  0.0000  0.0000 </r>
        <r>  0.1756  0.0000  0.0000  0.0753  0.0000  0.0000  0.0000  0.0000  0.0000 </r>
       </set>
       <set comment="band 3">
        <r>  0.0000  0.0920  0.1054  0.0000  0.0000  0.0000  0.0000  0.0000  0.0000 </r>
        <r>  0.0000  0.1054  0.0920  0.0000  0.0000  0.0000  0.0000  0.0000  0.0000 </r>
       </set>
       <set comment="band 4">
        <r>  0.0000  0.1054  0.0920  0.0000  0.0000  0.0000  0.0000  0.0000  0.0000 </r>
        <r>  0.0000  0.0920  0.1054  0.0000  0.0000  0.0000  0.0000  0.0000  0.0000 </r>
       </set>
       <set comment="band 5">
        <r>  0.0509  0.0000  0.0000  0.0552  0.0000  0.0000  0.0000  0.0000  0.0000 </r>
        <r>  0.0509  0.0000  0.0000  0.0552  0.0000  0.0000  0.0000  0.0000  0.0000 </r>
       </set>
       <set comment="band 6">
        <r>  0.0450  0.0000  0.0000  0.0299  0.0000  0.0000  0.0000  0.0000  0.0000 </r>
        <r>  0.0450  0.0000  0.0000  0.0299  0.0000  0.0000  0.0000  0.0000  0.0000 </r>
       </set>
       <set comment="band 7">
        <r>  0.0000  0.0099  0.1562  0.0000  0.0000  0.0000  0.0000  0.0000  0.0000 </r>
        <r>  0.0000  0.1424  0.0236  0.0000  0.0000  0.0000  0.0000  0.0000  0.0000 </r>
       </set>
       <set comment="band 8">
        <r>  0.0000  0.1562  0.0099  0.0000  0.0000  0.0000  0.0000  0.0000  0.0000 </r>
        <r>  0.0000  0.0236  0.1424  0.0000  0.0000  0.0000  0.0000  0.0000  0.0000 </r>
       </set>
      </set>
      <set comment="kpoint 14">
       <set comment="band 1">
        <r>  0.2034  0.0000  0.0000  0.0206  0.0000  0.0000  0.0000  0.0000  0.0000 </r>
        <r>  0.2034  0.0000  0.0000  0.0206  0.0000  0.0000  0.0000  0.0000  0.0000 </r>
       </set>
       <set comment="band 2">
        <r>  0.1735  0.0000  0.0000  0.0783  0.0000  0.0000  0.0000  0.0000  0.0000 </r>
        <r>  0.1735  0.0000  0.0000  0.0783  0.0000  0.0000  0.0000  0.0000  0.0000 </r>
       </set>
       <set comment="band 3">
        <r>  0.0000  0.0921  0.1055  0.0000  0.0000  0.0000  0.0000  0.0000  0.0000 </r>
        <r>  0.0000  0.1054  0.0921  0.0000  0.0000  0.0000  0.0000  0.0000  0.0000 </r>
       </set>
       <set comment="band 4">
        <r>  0.0000  0.1055  0.0921  0.0000  0.0000  0.0000  0.0000  0.0000  0.0000 </r>
        <r>  0.0000  0.0921  0.1054  0.0000  0.0000  0.0000  0.0000  0.0000  0.0000 </r>
       </set>
       <set comment="band 5">
        <r>  0.0502  0.0000  0.0000  0.0577  0.0000  0.0000  0.0000  0.0000  0.0000 </r>
        <r>  0.0502  0.0000  0.0000  0.0577  0.0000  0.0000  0.0000  0.0000  0.0000 </r>
       </set>
       <set comment="band 6">
        <r>  0.0448  0.0000  0.0000  0.0302  0.0000  0.0000  0.0000  0.0000  0.0000 </r>
        <r>  0.0448  0.0000  0.0000  0.0302  0.0000  0.0000  0.0000  0.0000  0.0000 </r>
       </set>
       <set comment="band 7">
        <r>  0.0000  0.0771  0.0888  0.0000  0.0000  0.0000  0.0000  0.0000  0.0000 </r>
        <r>  0.0000  0.1147  0.0513  0.0000  0.0000  0.0000  0.0000  0.0000  0.0000 </r>
       </set>
       <set comment="band 8">
        <r>  0.0000  0.0888  0.0771  0.0000  0.0000  0.0000  0.0000  0.0000  0.0000 </r>
        <r>  0.0000  0.0513  0.1146  0.0000  0.0000  0.0000  0.0000  0.0000  0.0000 </r>
       </set>
      </set>
      <set comment="kpoint 15">
       <set comment="band 1">
        <r>  0.2040  0.0000  0.0000  0.0191  0.0000  0.0000  0.0000  0.0000  0.0000 </r>
        <r>  0.2040  0.0000  0.0000  0.0191  0.0000  0.0000  0.0000  0.0000  0.0000 </r>
       </set>
       <set comment="band 2">
        <r>  0.1712  0.0000  0.0000  0.0813  0.0000  0.0000  0.0000  0.0000  0.0000 </r>
        <r>  0.1712  0.0000  0.0000  0.0813  0.0000  0.0000  0.0000  0.0000  0.0000 </r>
       </set>
       <set comment="band 3">
        <r>  0.0000  0.0921  0.1055  0.0000  0.0000  0.0000  0.0000  0.0000  0.0000 </r>
        <r>  0.0000  0.1054  0.0922  0.0000  0.0000  0.0000  0.0000  0.0000  0.0000 </r>
       </set>
       <set comment="band 4">
        <r>  0.0000  0.1055  0.0921  0.0000  0.0000  0.0000  0.0000  0.0000  0.0000 </r>
        <r>  0.0000  0.0922  0.1054  0.0000  0.0000  0.0000  0.0000  0.0000  0.0000 </r>
       </set>
       <set comment="band 5">
        <r>  0.0493  0.0000  0.0000  0.0602  0.0000  0.0000  0.0000  0.0000  0.0000 </r>
        <r>  0.0493  0.0000  0.0000  0.0602  0.0000  0.0000  0.0000  0.0000  0.0000 </r>
       </set>
       <set comment="band 6">
        <r>  0.0447  0.0000  0.0000  0.0307  0.0000  0.0000  0.0000  0.0000  0.0000 </r>
        <r>  0.0447  0.0000  0.0000  0.0307  0.0000  0.0000  0.0000  0.0000  0.0000 </r>
       </set>
       <set comment="band 7">
        <r>  0.0000  0.0200  0.1462  0.0000  0.0000  0.0000  0.0000  0.0000  0.0000 </r>
        <r>  0.0000  0.1617  0.0046  0.0000  0.0000  0.0000  0.0000  0.0000  0.0000 </r>
       </set>
       <set comment="band 8">
        <r>  0.0000  0.1462  0.0200  0.0000  0.0000  0.0000  0.0000  0.0000  0.0000 </r>
        <r>  0.0000  0.0046  0.1616  0.0000  0.0000  0.0000  0.0000  0.0000  0.0000 </r>
       </set>
      </set>
      <set comment="kpoint 16">
       <set comment="band 1">
        <r>  0.2047  0.0000  0.0000  0.0176  0.0000  0.0000  0.0000  0.0000  0.0000 </r>
        <r>  0.2047  0.0000  0.0000  0.0176  0.0000  0.0000  0.0000  0.0000  0.0000 </r>
       </set>
       <set comment="band 2">
        <r>  0.1687  0.0000  0.0000  0.0844  0.0000  0.0000  0.0000  0.0000  0.0000 </r>
        <r>  0.1687  0.0000  0.0000  0.0844  0.0000  0.0000  0.0000  0.0000  0.0000 </r>
       </set>
       <set comment="band 3">
        <r>  0.0000  0.0922  0.1055  0.0000  0.0000  0.0000  0.0000  0.0000  0.0000 </r>
        <r>  0.0000  0.1054  0.0923  0.0000  0.0000  0.0000  0.0000  0.0000  0.0000 </r>
       </set>
       <set comment="band 4">
        <r>  0.0000  0.1055  0.0922  0.0000  0.0000  0.0000  0.0000  0.0000  0.0000 </r>
        <r>  0.0000  0.0923  0.1054  0.0000  0.0000  0.0000  0.0000  0.0000  0.0000 </r>
       </set>
       <set comment="band 5">
        <r>  0.0483  0.0000  0.0000  0.0630  0.0000  0.0000  0.0000  0.0000  0.0000 </r>
        <r>  0.0483  0.0000  0.0000  0.0630  0.0000  0.0000  0.0000  0.0000  0.0000 </r>
       </set>
       <set comment="band 6">
        <r>  0.0448  0.0000  0.0000  0.0313  0.0000  0.0000  0.0000  0.0000  0.0000 </r>
        <r>  0.0448  0.0000  0.0000  0.0313  0.0000  0.0000  0.0000  0.0000  0.0000 </r>
       </set>
       <set comment="band 7">
        <r>  0.0000  0.0423  0.1242  0.0000  0.0000  0.0000  0.0000  0.0000  0.0000 </r>
        <r>  0.0000  0.1460  0.0205  0.0000  0.0000  0.0000  0.0000  0.0000  0.0000 </r>
       </set>
       <set comment="band 8">
        <r>  0.0000  0.1242  0.0423  0.0000  0.0000  0.0000  0.0000  0.0000  0.0000 </r>
        <r>  0.0000  0.0205  0.1460  0.0000  0.0000  0.0000  0.0000  0.0000  0.0000 </r>
       </set>
      </set>
      <set comment="kpoint 17">
       <set comment="band 1">
        <r>  0.2052  0.0000  0.0000  0.0161  0.0000  0.0000  0.0000  0.0000  0.0000 </r>
        <r>  0.2052  0.0000  0.0000  0.0161  0.0000  0.0000  0.0000  0.0000  0.0000 </r>
       </set>
       <set comment="band 2">
        <r>  0.1660  0.0000  0.0000  0.0876  0.0000  0.0000  0.0000  0.0000  0.0000 </r>
        <r>  0.1660  0.0000  0.0000  0.0876  0.0000  0.0000  0.0000  0.0000  0.0000 </r>
       </set>
       <set comment="band 3">
        <r>  0.0000  0.0923  0.1055  0.0000  0.0000  0.0000  0.0000  0.0000  0.0000 </r>
        <r>  0.0000  0.1054  0.0924  0.0000  0.0000  0.0000  0.0000  0.0000  0.0000 </r>
       </set>
       <set comment="band 4">
        <r>  0.0000  0.1055  0.0923  0.0000  0.0000  0.0000  0.0000  0.0000  0.0000 </r>
        <r>  0.0000  0.0924  0.1054  0.0000  0.0000  0.0000  0.0000  0.0000  0.0000 </r>
       </set>
       <set comment="band 5">
        <r>  0.0472  0.0000  0.0000  0.0657  0.0000  0.0000  0.0000  0.0000  0.0000 </r>
        <r>  0.0472  0.0000  0.0000  0.0657  0.0000  0.0000  0.0000  0.0000  0.0000 </r>
       </set>
       <set comment="band 6">
        <r>  0.0452  0.0000  0.0000  0.0321  0.0000  0.0000  0.0000  0.0000  0.0000 </r>
        <r>  0.0452  0.0000  0.0000  0.0321  0.0000  0.0000  0.0000  0.0000  0.0000 </r>
       </set>
       <set comment="band 7">
        <r>  0.0000  0.1581  0.0080  0.0000  0.0000  0.0000  0.0000  0.0000  0.0000 </r>
        <r>  0.0000  0.0230  0.1432  0.0000  0.0000  0.0000  0.0000  0.0000  0.0000 </r>
       </set>
       <set comment="band 8">
        <r>  0.0000  0.0080  0.1581  0.0000  0.0000  0.0000  0.0000  0.0000  0.0000 </r>
        <r>  0.0000  0.1432  0.0230  0.0000  0.0000  0.0000  0.0000  0.0000  0.0000 </r>
       </set>
      </set>
      <set comment="kpoint 18">
       <set comment="band 1">
        <r>  0.2059  0.0000  0.0000  0.0148  0.0000  0.0000  0.0000  0.0000  0.0000 </r>
        <r>  0.2059  0.0000  0.0000  0.0148  0.0000  0.0000  0.0000  0.0000  0.0000 </r>
       </set>
       <set comment="band 2">
        <r>  0.1631  0.0000  0.0000  0.0908  0.0000  0.0000  0.0000  0.0000  0.0000 </r>
        <r>  0.1631  0.0000  0.0000  0.0908  0.0000  0.0000  0.0000  0.0000  0.0000 </r>
       </set>
       <set comment="band 3">
        <r>  0.0000  0.0924  0.1055  0.0000  0.0000  0.0000  0.0000  0.0000  0.0000 </r>
        <r>  0.0000  0.1053  0.0926  0.0000  0.0000  0.0000  0.0000  0.0000  0.0000 </r>
       </set>
       <set comment="band 4">
        <r>  0.0000  0.1055  0.0924  0.0000  0.0000  0.0000  0.0000  0.0000  0.0000 </r>
        <r>  0.0000  0.0926  0.1053  0.0000  0.0000  0.0000  0.0000  0.0000  0.0000 </r>
       </set>
       <set comment="band 5">
        <r>  0.0460  0.0000  0.0000  0.0686  0.0000  0.0000  0.0000  0.0000  0.0000 </r>
        <r>  0.0460  0.0000  0.0000  0.0686  0.0000  0.0000  0.0000  0.0000  0.0000 </r>
       </set>
       <set comment="band 6">
        <r>  0.0460  0.0000  0.0000  0.0331  0.0000  0.0000  0.0000  0.0000  0.0000 </r>
        <r>  0.0460  0.0000  0.0000  0.0331  0.0000  0.0000  0.0000  0.0000  0.0000 </r>
       </set>
       <set comment="band 7">
        <r>  0.0000  0.0989  0.0675  0.0000  0.0000  0.0000  0.0000  0.0000  0.0000 </r>
        <r>  0.0000  0.0564  0.1100  0.0000  0.0000  0.0000  0.0000  0.0000  0.0000 </r>
       </set>
       <set comment="band 8">
        <r>  0.0000  0.0675  0.0989  0.0000  0.0000  0.0000  0.0000  0.0000  0.0000 </r>
        <r>  0.0000  0.1100  0.0564  0.0000  0.0000  0.0000  0.0000  0.0000  0.0000 </r>
       </set>
      </set>
      <set comment="kpoint 19">
       <set comment="band 1">
        <r>  0.2064  0.0000  0.0000  0.0135  0.0000  0.0000  0.0000  0.0000  0.0000 </r>
        <r>  0.2064  0.0000  0.0000  0.0135  0.0000  0.0000  0.0000  0.0000  0.0000 </r>
       </set>
       <set comment="band 2">
        <r>  0.1599  0.0000  0.0000  0.0942  0.0000  0.0000  0.0000  0.0000  0.0000 </r>
        <r>  0.1599  0.0000  0.0000  0.0942  0.0000  0.0000  0.0000  0.0000  0.0000 </r>
       </set>
       <set comment="band 3">
        <r>  0.0000  0.0925  0.1055  0.0000  0.0000  0.0000  0.0000  0.0000  0.0000 </r>
        <r>  0.0000  0.1053  0.0927  0.0000  0.0000  0.0000  0.0000  0.0000  0.0000 </r>
       </set>
       <set comment="band 4">
        <r>  0.0000  0.1055  0.0925  0.0000  0.0000  0.0000  0.0000  0.0000  0.0000 </r>
        <r>  0.0000  0.0927  0.1053  0.0000  0.0000  0.0000  0.0000  0.0000  0.0000 </r>
       </set>
       <set comment="band 5">
        <r>  0.0446  0.0000  0.0000  0.0718  0.0000  0.0000  0.0000  0.0000  0.0000 </r>
        <r>  0.0446  0.0000  0.0000  0.0718  0.0000  0.0000  0.0000  0.0000  0.0000 </r>
       </set>
       <set comment="band 6">
        <r>  0.0473  0.0000  0.0000  0.0344  0.0000  0.0000  0.0000  0.0000  0.0000 </r>
        <r>  0.0473  0.0000  0.0000  0.0344  0.0000  0.0000  0.0000  0.0000  0.0000 </r>
       </set>
       <set comment="band 7">
        <r>  0.0000  0.1229  0.0437  0.0000  0.0000  0.0000  0.0000  0.0000  0.0000 </r>
        <r>  0.0000  0.0606  0.1061  0.0000  0.0000  0.0000  0.0000  0.0000  0.0000 </r>
       </set>
       <set comment="band 8">
        <r>  0.0000  0.0437  0.1229  0.0000  0.0000  0.0000  0.0000  0.0000  0.0000 </r>
        <r>  0.0000  0.1061  0.0605  0.0000  0.0000  0.0000  0.0000  0.0000  0.0000 </r>
       </set>
      </set>
      <set comment="kpoint 20">
       <set comment="band 1">
        <r>  0.2070  0.0000  0.0000  0.0123  0.0000  0.0000  0.0000  0.0000  0.0000 </r>
        <r>  0.2070  0.0000  0.0000  0.0123  0.0000  0.0000  0.0000  0.0000  0.0000 </r>
       </set>
       <set comment="band 2">
        <r>  0.1565  0.0000  0.0000  0.0978  0.0000  0.0000  0.0000  0.0000  0.0000 </r>
        <r>  0.1565  0.0000  0.0000  0.0978  0.0000  0.0000  0.0000  0.0000  0.0000 </r>
       </set>
       <set comment="band 3">
        <r>  0.0000  0.0927  0.1055  0.0000  0.0000  0.0000  0.0000  0.0000  0.0000 </r>
        <r>  0.0000  0.1053  0.0929  0.0000  0.0000  0.0000  0.0000  0.0000  0.0000 </r>
       </set>
       <set comment="band 4">
        <r>  0.0000  0.1055  0.0927  0.0000  0.0000  0.0000  0.0000  0.0000  0.0000 </r>
        <r>  0.0000  0.0929  0.1053  0.0000  0.0000  0.0000  0.0000  0.0000  0.0000 </r>
       </set>
       <set comment="band 5">
        <r>  0.0431  0.0000  0.0000  0.0750  0.0000  0.0000  0.0000  0.0000  0.0000 </r>
        <r>  0.0431  0.0000  0.0000  0.0750  0.0000  0.0000  0.0000  0.0000  0.0000 </r>
       </set>
       <set comment="band 6">
        <r>  0.0492  0.0000  0.0000  0.0360  0.0000  0.0000  0.0000  0.0000  0.0000 </r>
        <r>  0.0492  0.0000  0.0000  0.0360  0.0000  0.0000  0.0000  0.0000  0.0000 </r>
       </set>
       <set comment="band 7">
        <r>  0.0000  0.0635  0.1033  0.0000  0.0000  0.0000  0.0000  0.0000  0.0000 </r>
        <r>  0.0000  0.1088  0.0580  0.0000  0.0000  0.0000  0.0000  0.0000  0.0000 </r>
       </set>
       <set comment="band 8">
        <r>  0.0000  0.1033  0.0635  0.0000  0.0000  0.0000  0.0000  0.0000  0.0000 </r>
        <r>  0.0000  0.0580  0.1088  0.0000  0.0000  0.0000  0.0000  0.0000  0.0000 </r>
       </set>
      </set>
      <set comment="kpoint 21">
       <set comment="band 1">
        <r>  0.2075  0.0000  0.0000  0.0111  0.0000  0.0000  0.0000  0.0000  0.0000 </r>
        <r>  0.2075  0.0000  0.0000  0.0111  0.0000  0.0000  0.0000  0.0000  0.0000 </r>
       </set>
       <set comment="band 2">
        <r>  0.1527  0.0000  0.0000  0.1014  0.0000  0.0000  0.0000  0.0000  0.0000 </r>
        <r>  0.1527  0.0000  0.0000  0.1014  0.0000  0.0000  0.0000  0.0000  0.0000 </r>
       </set>
       <set comment="band 3">
        <r>  0.0000  0.0928  0.1056  0.0000  0.0000  0.0000  0.0000  0.0000  0.0000 </r>
        <r>  0.0000  0.1053  0.0931  0.0000  0.0000  0.0000  0.0000  0.0000  0.0000 </r>
       </set>
       <set comment="band 4">
        <r>  0.0000  0.1056  0.0928  0.0000  0.0000  0.0000  0.0000  0.0000  0.0000 </r>
        <r>  0.0000  0.0931  0.1053  0.0000  0.0000  0.0000  0.0000  0.0000  0.0000 </r>
       </set>
       <set comment="band 5">
        <r>  0.0415  0.0000  0.0000  0.0784  0.0000  0.0000  0.0000  0.0000  0.0000 </r>
        <r>  0.0415  0.0000  0.0000  0.0784  0.0000  0.0000  0.0000  0.0000  0.0000 </r>
       </set>
       <set comment="band 6">
        <r>  0.0520  0.0000  0.0000  0.0380  0.0000  0.0000  0.0000  0.0000  0.0000 </r>
        <r>  0.0520  0.0000  0.0000  0.0380  0.0000  0.0000  0.0000  0.0000  0.0000 </r>
       </set>
       <set comment="band 7">
        <r>  0.0000  0.0401  0.1268  0.0000  0.0000  0.0000  0.0000  0.0000  0.0000 </r>
        <r>  0.0000  0.1202  0.0467  0.0000  0.0000  0.0000  0.0000  0.0000  0.0000 </r>
       </set>
       <set comment="band 8">
        <r>  0.0000  0.1268  0.0401  0.0000  0.0000  0.0000  0.0000  0.0000  0.0000 </r>
        <r>  0.0000  0.0467  0.1202  0.0000  0.0000  0.0000  0.0000  0.0000  0.0000 </r>
       </set>
      </set>
      <set comment="kpoint 22">
       <set comment="band 1">
        <r>  0.2081  0.0000  0.0000  0.0100  0.0000  0.0000  0.0000  0.0000  0.0000 </r>
        <r>  0.2081  0.0000  0.0000  0.0100  0.0000  0.0000  0.0000  0.0000  0.0000 </r>
       </set>
       <set comment="band 2">
        <r>  0.1487  0.0000  0.0000  0.1053  0.0000  0.0000  0.0000  0.0000  0.0000 </r>
        <r>  0.1487  0.0000  0.0000  0.1053  0.0000  0.0000  0.0000  0.0000  0.0000 </r>
       </set>
       <set comment="band 3">
        <r>  0.0000  0.0930  0.1056  0.0000  0.0000  0.0000  0.0000  0.0000  0.0000 </r>
        <r>  0.0000  0.1053  0.0933  0.0000  0.0000  0.0000  0.0000  0.0000  0.0000 </r>
       </set>
       <set comment="band 4">
        <r>  0.0000  0.1056  0.0930  0.0000  0.0000  0.0000  0.0000  0.0000  0.0000 </r>
        <r>  0.0000  0.0933  0.1053  0.0000  0.0000  0.0000  0.0000  0.0000  0.0000 </r>
       </set>
       <set comment="band 5">
        <r>  0.0397  0.0000  0.0000  0.0820  0.0000  0.0000  0.0000  0.0000  0.0000 </r>
        <r>  0.0397  0.0000  0.0000  0.0820  0.0000  0.0000  0.0000  0.0000  0.0000 </r>
       </set>
       <set comment="band 6">
        <r>  0.0560  0.0000  0.0000  0.0404  0.0000  0.0000  0.0000  0.0000  0.0000 </r>
        <r>  0.0560  0.0000  0.0000  0.0404  0.0000  0.0000  0.0000  0.0000  0.0000 </r>
       </set>
       <set comment="band 7">
        <r>  0.0000  0.0894  0.0776  0.0000  0.0000  0.0000  0.0000  0.0000  0.0000 </r>
        <r>  0.0000  0.0820  0.0850  0.0000  0.0000  0.0000  0.0000  0.0000  0.0000 </r>
       </set>
       <set comment="band 8">
        <r>  0.0000  0.0776  0.0894  0.0000  0.0000  0.0000  0.0000  0.0000  0.0000 </r>
        <r>  0.0000  0.0850  0.0820  0.0000  0.0000  0.0000  0.0000  0.0000  0.0000 </r>
       </set>
      </set>
      <set comment="kpoint 23">
       <set comment="band 1">
        <r>  0.2086  0.0000  0.0000  0.0089  0.0000  0.0000  0.0000  0.0000  0.0000 </r>
        <r>  0.2086  0.0000  0.0000  0.0089  0.0000  0.0000  0.0000  0.0000  0.0000 </r>
       </set>
       <set comment="band 2">
        <r>  0.1443  0.0000  0.0000  0.1093  0.0000  0.0000  0.0000  0.0000  0.0000 </r>
        <r>  0.1443  0.0000  0.0000  0.1093  0.0000  0.0000  0.0000  0.0000  0.0000 </r>
       </set>
       <set comment="band 3">
        <r>  0.0000  0.0933  0.1057  0.0000  0.0000  0.0000  0.0000  0.0000  0.0000 </r>
        <r>  0.0000  0.1054  0.0936  0.0000  0.0000  0.0000  0.0000  0.0000  0.0000 </r>
       </set>
       <set comment="band 4">
        <r>  0.0000  0.1057  0.0933  0.0000  0.0000  0.0000  0.0000  0.0000  0.0000 </r>
        <r>  0.0000  0.0936  0.1054  0.0000  0.0000  0.0000  0.0000  0.0000  0.0000 </r>
       </set>
       <set comment="band 5">
        <r>  0.0378  0.0000  0.0000  0.0858  0.0000  0.0000  0.0000  0.0000  0.0000 </r>
        <r>  0.0378  0.0000  0.0000  0.0858  0.0000  0.0000  0.0000  0.0000  0.0000 </r>
       </set>
       <set comment="band 6">
        <r>  0.0616  0.0000  0.0000  0.0434  0.0000  0.0000  0.0000  0.0000  0.0000 </r>
        <r>  0.0616  0.0000  0.0000  0.0434  0.0000  0.0000  0.0000  0.0000  0.0000 </r>
       </set>
       <set comment="band 7">
        <r>  0.0000  0.1609  0.0061  0.0000  0.0000  0.0000  0.0000  0.0000  0.0000 </r>
        <r>  0.0000  0.0058  0.1611  0.0000  0.0000  0.0000  0.0000  0.0000  0.0000 </r>
       </set>
       <set comment="band 8">
        <r>  0.0000  0.0061  0.1609  0.0000  0.0000  0.0000  0.0000  0.0000  0.0000 </r>
        <r>  0.0000  0.1611  0.0058  0.0000  0.0000  0.0000  0.0000  0.0000  0.0000 </r>
       </set>
      </set>
      <set comment="kpoint 24">
       <set comment="band 1">
        <r>  0.2090  0.0000  0.0000  0.0079  0.0000  0.0000  0.0000  0.0000  0.0000 </r>
        <r>  0.2090  0.0000  0.0000  0.0079  0.0000  0.0000  0.0000  0.0000  0.0000 </r>
       </set>
       <set comment="band 2">
        <r>  0.1394  0.0000  0.0000  0.1136  0.0000  0.0000  0.0000  0.0000  0.0000 </r>
        <r>  0.1394  0.0000  0.0000  0.1136  0.0000  0.0000  0.0000  0.0000  0.0000 </r>
       </set>
       <set comment="band 3">
        <r>  0.0000  0.0936  0.1058  0.0000  0.0000  0.0000  0.0000  0.0000  0.0000 </r>
        <r>  0.0000  0.1054  0.0939  0.0000  0.0000  0.0000  0.0000  0.0000  0.0000 </r>
       </set>
       <set comment="band 4">
        <r>  0.0000  0.1058  0.0936  0.0000  0.0000  0.0000  0.0000  0.0000  0.0000 </r>
        <r>  0.0000  0.0939  0.1054  0.0000  0.0000  0.0000  0.0000  0.0000  0.0000 </r>
       </set>
       <set comment="band 5">
        <r>  0.0357  0.0000  0.0000  0.0897  0.0000  0.0000  0.0000  0.0000  0.0000 </r>
        <r>  0.0357  0.0000  0.0000  0.0897  0.0000  0.0000  0.0000  0.0000  0.0000 </r>
       </set>
       <set comment="band 6">
        <r>  0.0697  0.0000  0.0000  0.0472  0.0000  0.0000  0.0000  0.0000  0.0000 </r>
        <r>  0.0697  0.0000  0.0000  0.0472  0.0000  0.0000  0.0000  0.0000  0.0000 </r>
       </set>
       <set comment="band 7">
        <r>  0.0000  0.1185  0.0483  0.0000  0.0000  0.0000  0.0000  0.0000  0.0000 </r>
        <r>  0.0000  0.0525  0.1143  0.0000  0.0000  0.0000  0.0000  0.0000  0.0000 </r>
       </set>
       <set comment="band 8">
        <r>  0.0000  0.0483  0.1185  0.0000  0.0000  0.0000  0.0000  0.0000  0.0000 </r>
        <r>  0.0000  0.1143  0.0525  0.0000  0.0000  0.0000  0.0000  0.0000  0.0000 </r>
       </set>
      </set>
      <set comment="kpoint 25">
       <set comment="band 1">
        <r>  0.2094  0.0000  0.0000  0.0070  0.0000  0.0000  0.0000  0.0000  0.0000 </r>
        <r>  0.2094  0.0000  0.0000  0.0070  0.0000  0.0000  0.0000  0.0000  0.0000 </r>
       </set>
       <set comment="band 2">
        <r>  0.1342  0.0000  0.0000  0.1181  0.0000  0.0000  0.0000  0.0000  0.0000 </r>
        <r>  0.1342  0.0000  0.0000  0.1181  0.0000  0.0000  0.0000  0.0000  0.0000 </r>
       </set>
       <set comment="band 3">
        <r>  0.0000  0.0939  0.1059  0.0000  0.0000  0.0000  0.0000  0.0000  0.0000 </r>
        <r>  0.0000  0.1055  0.0943  0.0000  0.0000  0.0000  0.0000  0.0000  0.0000 </r>
       </set>
       <set comment="band 4">
        <r>  0.0000  0.1059  0.0939  0.0000  0.0000  0.0000  0.0000  0.0000  0.0000 </r>
        <r>  0.0000  0.0943  0.1055  0.0000  0.0000  0.0000  0.0000  0.0000  0.0000 </r>
       </set>
       <set comment="band 5">
        <r>  0.0335  0.0000  0.0000  0.0938  0.0000  0.0000  0.0000  0.0000  0.0000 </r>
        <r>  0.0335  0.0000  0.0000  0.0938  0.0000  0.0000  0.0000  0.0000  0.0000 </r>
       </set>
       <set comment="band 6">
        <r>  0.0812  0.0000  0.0000  0.0520  0.0000  0.0000  0.0000  0.0000  0.0000 </r>
        <r>  0.0812  0.0000  0.0000  0.0520  0.0000  0.0000  0.0000  0.0000  0.0000 </r>
       </set>
       <set comment="band 7">
        <r>  0.0000  0.0729  0.0936  0.0000  0.0000  0.0000  0.0000  0.0000  0.0000 </r>
        <r>  0.0000  0.0860  0.0805  0.0000  0.0000  0.0000  0.0000  0.0000  0.0000 </r>
       </set>
       <set comment="band 8">
        <r>  0.0000  0.0936  0.0729  0.0000  0.0000  0.0000  0.0000  0.0000  0.0000 </r>
        <r>  0.0000  0.0805  0.0860  0.0000  0.0000  0.0000  0.0000  0.0000  0.0000 </r>
       </set>
      </set>
      <set comment="kpoint 26">
       <set comment="band 1">
        <r>  0.2099  0.0000  0.0000  0.0061  0.0000  0.0000  0.0000  0.0000  0.0000 </r>
        <r>  0.2099  0.0000  0.0000  0.0061  0.0000  0.0000  0.0000  0.0000  0.0000 </r>
       </set>
       <set comment="band 2">
        <r>  0.1284  0.0000  0.0000  0.1229  0.0000  0.0000  0.0000  0.0000  0.0000 </r>
        <r>  0.1284  0.0000  0.0000  0.1229  0.0000  0.0000  0.0000  0.0000  0.0000 </r>
       </set>
       <set comment="band 3">
        <r>  0.0000  0.0942  0.1060  0.0000  0.0000  0.0000  0.0000  0.0000  0.0000 </r>
        <r>  0.0000  0.1055  0.0948  0.0000  0.0000  0.0000  0.0000  0.0000  0.0000 </r>
       </set>
       <set comment="band 4">
        <r>  0.0000  0.1060  0.0942  0.0000  0.0000  0.0000  0.0000  0.0000  0.0000 </r>
        <r>  0.0000  0.0948  0.1055  0.0000  0.0000  0.0000  0.0000  0.0000  0.0000 </r>
       </set>
       <set comment="band 5">
        <r>  0.0312  0.0000  0.0000  0.0981  0.0000  0.0000  0.0000  0.0000  0.0000 </r>
        <r>  0.0312  0.0000  0.0000  0.0981  0.0000  0.0000  0.0000  0.0000  0.0000 </r>
       </set>
       <set comment="band 6">
        <r>  0.0977  0.0000  0.0000  0.0578  0.0000  0.0000  0.0000  0.0000  0.0000 </r>
        <r>  0.0977  0.0000  0.0000  0.0578  0.0000  0.0000  0.0000  0.0000  0.0000 </r>
       </set>
       <set comment="band 7">
        <r>  0.0000  0.1351  0.0311  0.0000  0.0000  0.0000  0.0000  0.0000  0.0000 </r>
        <r>  0.0000  0.0190  0.1472  0.0000  0.0000  0.0000  0.0000  0.0000  0.0000 </r>
       </set>
       <set comment="band 8">
        <r>  0.0000  0.0311  0.1352  0.0000  0.0000  0.0000  0.0000  0.0000  0.0000 </r>
        <r>  0.0000  0.1472  0.0190  0.0000  0.0000  0.0000  0.0000  0.0000  0.0000 </r>
       </set>
      </set>
      <set comment="kpoint 27">
       <set comment="band 1">
        <r>  0.2102  0.0000  0.0000  0.0052  0.0000  0.0000  0.0000  0.0000  0.0000 </r>
        <r>  0.2102  0.0000  0.0000  0.0052  0.0000  0.0000  0.0000  0.0000  0.0000 </r>
       </set>
       <set comment="band 2">
        <r>  0.1221  0.0000  0.0000  0.1279  0.0000  0.0000  0.0000  0.0000  0.0000 </r>
        <r>  0.1221  0.0000  0.0000  0.1279  0.0000  0.0000  0.0000  0.0000  0.0000 </r>
       </set>
       <set comment="band 3">
        <r>  0.0000  0.0947  0.1062  0.0000  0.0000  0.0000  0.0000  0.0000  0.0000 </r>
        <r>  0.0000  0.1056  0.0953  0.0000  0.0000  0.0000  0.0000  0.0000  0.0000 </r>
       </set>
       <set comment="band 4">
        <r>  0.0000  0.1062  0.0947  0.0000  0.0000  0.0000  0.0000  0.0000  0.0000 </r>
        <r>  0.0000  0.0953  0.1056  0.0000  0.0000  0.0000  0.0000  0.0000  0.0000 </r>
       </set>
       <set comment="band 5">
        <r>  0.0288  0.0000  0.0000  0.1023  0.0000  0.0000  0.0000  0.0000  0.0000 </r>
        <r>  0.0288  0.0000  0.0000  0.1023  0.0000  0.0000  0.0000  0.0000  0.0000 </r>
       </set>
       <set comment="band 6">
        <r>  0.1204  0.0000  0.0000  0.0645  0.0000  0.0000  0.0000  0.0000  0.0000 </r>
        <r>  0.1205  0.0000  0.0000  0.0645  0.0000  0.0000  0.0000  0.0000  0.0000 </r>
       </set>
       <set comment="band 7">
        <r>  0.0000  0.0825  0.0832  0.0000  0.0000  0.0000  0.0000  0.0000  0.0000 </r>
        <r>  0.0000  0.0771  0.0886  0.0000  0.0000  0.0000  0.0000  0.0000  0.0000 </r>
       </set>
       <set comment="band 8">
        <r>  0.0000  0.0831  0.0825  0.0000  0.0000  0.0000  0.0000  0.0000  0.0000 </r>
        <r>  0.0000  0.0886  0.0771  0.0000  0.0000  0.0000  0.0000  0.0000  0.0000 </r>
       </set>
      </set>
      <set comment="kpoint 28">
       <set comment="band 1">
        <r>  0.2106  0.0000  0.0000  0.0045  0.0000  0.0000  0.0000  0.0000  0.0000 </r>
        <r>  0.2106  0.0000  0.0000  0.0045  0.0000  0.0000  0.0000  0.0000  0.0000 </r>
       </set>
       <set comment="band 2">
        <r>  0.1152  0.0000  0.0000  0.1333  0.0000  0.0000  0.0000  0.0000  0.0000 </r>
        <r>  0.1152  0.0000  0.0000  0.1333  0.0000  0.0000  0.0000  0.0000  0.0000 </r>
       </set>
       <set comment="band 3">
        <r>  0.0000  0.0951  0.1064  0.0000  0.0000  0.0000  0.0000  0.0000  0.0000 </r>
        <r>  0.0000  0.1056  0.0958  0.0000  0.0000  0.0000  0.0000  0.0000  0.0000 </r>
       </set>
       <set comment="band 4">
        <r>  0.0000  0.1064  0.0951  0.0000  0.0000  0.0000  0.0000  0.0000  0.0000 </r>
        <r>  0.0000  0.0958  0.1056  0.0000  0.0000  0.0000  0.0000  0.0000  0.0000 </r>
       </set>
       <set comment="band 5">
        <r>  0.0262  0.0000  0.0000  0.1068  0.0000  0.0000  0.0000  0.0000  0.0000 </r>
        <r>  0.0262  0.0000  0.0000  0.1068  0.0000  0.0000  0.0000  0.0000  0.0000 </r>
       </set>
       <set comment="band 6">
        <r>  0.0000  0.0967  0.0684  0.0000  0.0000  0.0000  0.0000  0.0000  0.0000 </r>
        <r>  0.0000  0.0728  0.0923  0.0000  0.0000  0.0000  0.0000  0.0000  0.0000 </r>
       </set>
       <set comment="band 7">
        <r>  0.0000  0.0684  0.0967  0.0000  0.0000  0.0000  0.0000  0.0000  0.0000 </r>
        <r>  0.0000  0.0923  0.0728  0.0000  0.0000  0.0000  0.0000  0.0000  0.0000 </r>
       </set>
       <set comment="band 8">
        <r>  0.1499  0.0000  0.0000  0.0708  0.0000  0.0000  0.0000  0.0000  0.0000 </r>
        <r>  0.1499  0.0000  0.0000  0.0709  0.0000  0.0000  0.0000  0.0000  0.0000 </r>
       </set>
      </set>
      <set comment="kpoint 29">
       <set comment="band 1">
        <r>  0.2109  0.0000  0.0000  0.0038  0.0000  0.0000  0.0000  0.0000  0.0000 </r>
        <r>  0.2109  0.0000  0.0000  0.0038  0.0000  0.0000  0.0000  0.0000  0.0000 </r>
       </set>
       <set comment="band 2">
        <r>  0.1076  0.0000  0.0000  0.1392  0.0000  0.0000  0.0000  0.0000  0.0000 </r>
        <r>  0.1076  0.0000  0.0000  0.1392  0.0000  0.0000  0.0000  0.0000  0.0000 </r>
       </set>
       <set comment="band 3">
        <r>  0.0000  0.0957  0.1066  0.0000  0.0000  0.0000  0.0000  0.0000  0.0000 </r>
        <r>  0.0000  0.1057  0.0965  0.0000  0.0000  0.0000  0.0000  0.0000  0.0000 </r>
       </set>
       <set comment="band 4">
        <r>  0.0000  0.1066  0.0957  0.0000  0.0000  0.0000  0.0000  0.0000  0.0000 </r>
        <r>  0.0000  0.0965  0.1057  0.0000  0.0000  0.0000  0.0000  0.0000  0.0000 </r>
       </set>
       <set comment="band 5">
        <r>  0.0235  0.0000  0.0000  0.1115  0.0000  0.0000  0.0000  0.0000  0.0000 </r>
        <r>  0.0235  0.0000  0.0000  0.1115  0.0000  0.0000  0.0000  0.0000  0.0000 </r>
       </set>
       <set comment="band 6">
        <r>  0.0000  0.1218  0.0426  0.0000  0.0000  0.0000  0.0000  0.0000  0.0000 </r>
        <r>  0.0000  0.0222  0.1422  0.0000  0.0000  0.0000  0.0000  0.0000  0.0000 </r>
       </set>
       <set comment="band 7">
        <r>  0.0000  0.0426  0.1218  0.0000  0.0000  0.0000  0.0000  0.0000  0.0000 </r>
        <r>  0.0000  0.1422  0.0222  0.0000  0.0000  0.0000  0.0000  0.0000  0.0000 </r>
       </set>
       <set comment="band 8">
        <r>  0.1832  0.0000  0.0000  0.0750  0.0000  0.0000  0.0000  0.0000  0.0000 </r>
        <r>  0.1832  0.0000  0.0000  0.0750  0.0000  0.0000  0.0000  0.0000  0.0000 </r>
       </set>
      </set>
      <set comment="kpoint 30">
       <set comment="band 1">
        <r>  0.2112  0.0000  0.0000  0.0031  0.0000  0.0000  0.0000  0.0000  0.0000 </r>
        <r>  0.2112  0.0000  0.0000  0.0031  0.0000  0.0000  0.0000  0.0000  0.0000 </r>
       </set>
       <set comment="band 2">
        <r>  0.0993  0.0000  0.0000  0.1457  0.0000  0.0000  0.0000  0.0000  0.0000 </r>
        <r>  0.0993  0.0000  0.0000  0.1457  0.0000  0.0000  0.0000  0.0000  0.0000 </r>
       </set>
       <set comment="band 3">
        <r>  0.0000  0.0963  0.1068  0.0000  0.0000  0.0000  0.0000  0.0000  0.0000 </r>
        <r>  0.0000  0.1058  0.0973  0.0000  0.0000  0.0000  0.0000  0.0000  0.0000 </r>
       </set>
       <set comment="band 4">
        <r>  0.0000  0.1068  0.0963  0.0000  0.0000  0.0000  0.0000  0.0000  0.0000 </r>
        <r>  0.0000  0.0973  0.1058  0.0000  0.0000  0.0000  0.0000  0.0000  0.0000 </r>
       </set>
       <set comment="band 5">
        <r>  0.0207  0.0000  0.0000  0.1162  0.0000  0.0000  0.0000  0.0000  0.0000 </r>
        <r>  0.0207  0.0000  0.0000  0.1162  0.0000  0.0000  0.0000  0.0000  0.0000 </r>
       </set>
       <set comment="band 6">
        <r>  0.0000  0.1575  0.0062  0.0000  0.0000  0.0000  0.0000  0.0000  0.0000 </r>
        <r>  0.0000  0.0103  0.1534  0.0000  0.0000  0.0000  0.0000  0.0000  0.0000 </r>
       </set>
       <set comment="band 7">
        <r>  0.0000  0.0062  0.1574  0.0000  0.0000  0.0000  0.0000  0.0000  0.0000 </r>
        <r>  0.0000  0.1534  0.0102  0.0000  0.0000  0.0000  0.0000  0.0000  0.0000 </r>
       </set>
       <set comment="band 8">
        <r>  0.2154  0.0000  0.0000  0.0753  0.0000  0.0000  0.0000  0.0000  0.0000 </r>
        <r>  0.2154  0.0000  0.0000  0.0753  0.0000  0.0000  0.0000  0.0000  0.0000 </r>
       </set>
      </set>
      <set comment="kpoint 31">
       <set comment="band 1">
        <r>  0.2115  0.0000  0.0000  0.0025  0.0000  0.0000  0.0000  0.0000  0.0000 </r>
        <r>  0.2115  0.0000  0.0000  0.0025  0.0000  0.0000  0.0000  0.0000  0.0000 </r>
       </set>
       <set comment="band 2">
        <r>  0.0901  0.0000  0.0000  0.1526  0.0000  0.0000  0.0000  0.0000  0.0000 </r>
        <r>  0.0901  0.0000  0.0000  0.1526  0.0000  0.0000  0.0000  0.0000  0.0000 </r>
       </set>
       <set comment="band 3">
        <r>  0.0000  0.0970  0.1071  0.0000  0.0000  0.0000  0.0000  0.0000  0.0000 </r>
        <r>  0.0000  0.1058  0.0982  0.0000  0.0000  0.0000  0.0000  0.0000  0.0000 </r>
       </set>
       <set comment="band 4">
        <r>  0.0000  0.1071  0.0970  0.0000  0.0000  0.0000  0.0000  0.0000  0.0000 </r>
        <r>  0.0000  0.0982  0.1058  0.0000  0.0000  0.0000  0.0000  0.0000  0.0000 </r>
       </set>
       <set comment="band 5">
        <r>  0.0178  0.0000  0.0000  0.1210  0.0000  0.0000  0.0000  0.0000  0.0000 </r>
        <r>  0.0178  0.0000  0.0000  0.1210  0.0000  0.0000  0.0000  0.0000  0.0000 </r>
       </set>
       <set comment="band 6">
        <r>  0.0000  0.0639  0.0988  0.0000  0.0000  0.0000  0.0000  0.0000  0.0000 </r>
        <r>  0.0000  0.1211  0.0415  0.0000  0.0000  0.0000  0.0000  0.0000  0.0000 </r>
       </set>
       <set comment="band 7">
        <r>  0.0000  0.0988  0.0639  0.0000  0.0000  0.0000  0.0000  0.0000  0.0000 </r>
        <r>  0.0000  0.0415  0.1211  0.0000  0.0000  0.0000  0.0000  0.0000  0.0000 </r>
       </set>
       <set comment="band 8">
        <r>  0.2422  0.0000  0.0000  0.0711  0.0000  0.0000  0.0000  0.0000  0.0000 </r>
        <r>  0.2422  0.0000  0.0000  0.0711  0.0000  0.0000  0.0000  0.0000  0.0000 </r>
       </set>
      </set>
      <set comment="kpoint 32">
       <set comment="band 1">
        <r>  0.2118  0.0000  0.0000  0.0020  0.0000  0.0000  0.0000  0.0000  0.0000 </r>
        <r>  0.2118  0.0000  0.0000  0.0020  0.0000  0.0000  0.0000  0.0000  0.0000 </r>
       </set>
       <set comment="band 2">
        <r>  0.0800  0.0000  0.0000  0.1599  0.0000  0.0000  0.0000  0.0000  0.0000 </r>
        <r>  0.0800  0.0000  0.0000  0.1599  0.0000  0.0000  0.0000  0.0000  0.0000 </r>
       </set>
       <set comment="band 3">
        <r>  0.0000  0.0979  0.1073  0.0000  0.0000  0.0000  0.0000  0.0000  0.0000 </r>
        <r>  0.0000  0.1058  0.0995  0.0000  0.0000  0.0000  0.0000  0.0000  0.0000 </r>
       </set>
       <set comment="band 4">
        <r>  0.0000  0.1073  0.0979  0.0000  0.0000  0.0000  0.0000  0.0000  0.0000 </r>
        <r>  0.0000  0.0995  0.1058  0.0000  0.0000  0.0000  0.0000  0.0000  0.0000 </r>
       </set>
       <set comment="band 5">
        <r>  0.0150  0.0000  0.0000  0.1257  0.0000  0.0000  0.0000  0.0000  0.0000 </r>
        <r>  0.0150  0.0000  0.0000  0.1257  0.0000  0.0000  0.0000  0.0000  0.0000 </r>
       </set>
       <set comment="band 6">
        <r>  0.0000  0.0894  0.0721  0.0000  0.0000  0.0000  0.0000  0.0000  0.0000 </r>
        <r>  0.0000  0.0955  0.0661  0.0000  0.0000  0.0000  0.0000  0.0000  0.0000 </r>
       </set>
       <set comment="band 7">
        <r>  0.0000  0.0721  0.0894  0.0000  0.0000  0.0000  0.0000  0.0000  0.0000 </r>
        <r>  0.0000  0.0661  0.0955  0.0000  0.0000  0.0000  0.0000  0.0000  0.0000 </r>
       </set>
       <set comment="band 8">
        <r>  0.2636  0.0000  0.0000  0.0638  0.0000  0.0000  0.0000  0.0000  0.0000 </r>
        <r>  0.2636  0.0000  0.0000  0.0637  0.0000  0.0000  0.0000  0.0000  0.0000 </r>
       </set>
      </set>
      <set comment="kpoint 33">
       <set comment="band 1">
        <r>  0.2120  0.0000  0.0000  0.0015  0.0000  0.0000  0.0000  0.0000  0.0000 </r>
        <r>  0.2120  0.0000  0.0000  0.0015  0.0000  0.0000  0.0000  0.0000  0.0000 </r>
       </set>
       <set comment="band 2">
        <r>  0.0689  0.0000  0.0000  0.1679  0.0000  0.0000  0.0000  0.0000  0.0000 </r>
        <r>  0.0689  0.0000  0.0000  0.1679  0.0000  0.0000  0.0000  0.0000  0.0000 </r>
       </set>
       <set comment="band 3">
        <r>  0.0000  0.0989  0.1076  0.0000  0.0000  0.0000  0.0000  0.0000  0.0000 </r>
        <r>  0.0000  0.1059  0.1006  0.0000  0.0000  0.0000  0.0000  0.0000  0.0000 </r>
       </set>
       <set comment="band 4">
        <r>  0.0000  0.1076  0.0989  0.0000  0.0000  0.0000  0.0000  0.0000  0.0000 </r>
        <r>  0.0000  0.1006  0.1059  0.0000  0.0000  0.0000  0.0000  0.0000  0.0000 </r>
       </set>
       <set comment="band 5">
        <r>  0.0121  0.0000  0.0000  0.1304  0.0000  0.0000  0.0000  0.0000  0.0000 </r>
        <r>  0.0121  0.0000  0.0000  0.1304  0.0000  0.0000  0.0000  0.0000  0.0000 </r>
       </set>
       <set comment="band 6">
        <r>  0.0000  0.0746  0.0857  0.0000  0.0000  0.0000  0.0000  0.0000  0.0000 </r>
        <r>  0.0000  0.0929  0.0674  0.0000  0.0000  0.0000  0.0000  0.0000  0.0000 </r>
       </set>
       <set comment="band 7">
        <r>  0.0000  0.0857  0.0746  0.0000  0.0000  0.0000  0.0000  0.0000  0.0000 </r>
        <r>  0.0000  0.0674  0.0929  0.0000  0.0000  0.0000  0.0000  0.0000  0.0000 </r>
       </set>
       <set comment="band 8">
        <r>  0.2813  0.0000  0.0000  0.0547  0.0000  0.0000  0.0000  0.0000  0.0000 </r>
        <r>  0.2813  0.0000  0.0000  0.0547  0.0000  0.0000  0.0000  0.0000  0.0000 </r>
       </set>
      </set>
      <set comment="kpoint 34">
       <set comment="band 1">
        <r>  0.2122  0.0000  0.0000  0.0011  0.0000  0.0000  0.0000  0.0000  0.0000 </r>
        <r>  0.2122  0.0000  0.0000  0.0011  0.0000  0.0000  0.0000  0.0000  0.0000 </r>
       </set>
       <set comment="band 2">
        <r>  0.0570  0.0000  0.0000  0.1764  0.0000  0.0000  0.0000  0.0000  0.0000 </r>
        <r>  0.0570  0.0000  0.0000  0.1764  0.0000  0.0000  0.0000  0.0000  0.0000 </r>
       </set>
       <set comment="band 3">
        <r>  0.0000  0.1004  0.1075  0.0000  0.0000  0.0000  0.0000  0.0000  0.0000 </r>
        <r>  0.0000  0.0949  0.1130  0.0000  0.0000  0.0000  0.0000  0.0000  0.0000 </r>
       </set>
       <set comment="band 4">
        <r>  0.0000  0.1075  0.1004  0.0000  0.0000  0.0000  0.0000  0.0000  0.0000 </r>
        <r>  0.0000  0.1130  0.0949  0.0000  0.0000  0.0000  0.0000  0.0000  0.0000 </r>
       </set>
       <set comment="band 5">
        <r>  0.0094  0.0000  0.0000  0.1348  0.0000  0.0000  0.0000  0.0000  0.0000 </r>
        <r>  0.0094  0.0000  0.0000  0.1348  0.0000  0.0000  0.0000  0.0000  0.0000 </r>
       </set>
       <set comment="band 6">
        <r>  0.0000  0.0116  0.1472  0.0000  0.0000  0.0000  0.0000  0.0000  0.0000 </r>
        <r>  0.0000  0.0623  0.0965  0.0000  0.0000  0.0000  0.0000  0.0000  0.0000 </r>
       </set>
       <set comment="band 7">
        <r>  0.0000  0.1472  0.0116  0.0000  0.0000  0.0000  0.0000  0.0000  0.0000 </r>
        <r>  0.0000  0.0965  0.0624  0.0000  0.0000  0.0000  0.0000  0.0000  0.0000 </r>
       </set>
       <set comment="band 8">
        <r>  0.2971  0.0000  0.0000  0.0447  0.0000  0.0000  0.0000  0.0000  0.0000 </r>
        <r>  0.2971  0.0000  0.0000  0.0447  0.0000  0.0000  0.0000  0.0000  0.0000 </r>
       </set>
      </set>
      <set comment="kpoint 35">
       <set comment="band 1">
        <r>  0.2124  0.0000  0.0000  0.0008  0.0000  0.0000  0.0000  0.0000  0.0000 </r>
        <r>  0.2124  0.0000  0.0000  0.0008  0.0000  0.0000  0.0000  0.0000  0.0000 </r>
       </set>
       <set comment="band 2">
        <r>  0.0445  0.0000  0.0000  0.1852  0.0000  0.0000  0.0000  0.0000  0.0000 </r>
        <r>  0.0445  0.0000  0.0000  0.1852  0.0000  0.0000  0.0000  0.0000  0.0000 </r>
       </set>
       <set comment="band 3">
        <r>  0.0000  0.1045  0.1050  0.0000  0.0000  0.0000  0.0000  0.0000  0.0000 </r>
        <r>  0.0000  0.1104  0.0991  0.0000  0.0000  0.0000  0.0000  0.0000  0.0000 </r>
       </set>
       <set comment="band 4">
        <r>  0.0000  0.1050  0.1045  0.0000  0.0000  0.0000  0.0000  0.0000  0.0000 </r>
        <r>  0.0000  0.0991  0.1104  0.0000  0.0000  0.0000  0.0000  0.0000  0.0000 </r>
       </set>
       <set comment="band 5">
        <r>  0.0069  0.0000  0.0000  0.1390  0.0000  0.0000  0.0000  0.0000  0.0000 </r>
        <r>  0.0069  0.0000  0.0000  0.1390  0.0000  0.0000  0.0000  0.0000  0.0000 </r>
       </set>
       <set comment="band 6">
        <r>  0.0000  0.0628  0.0945  0.0000  0.0000  0.0000  0.0000  0.0000  0.0000 </r>
        <r>  0.0000  0.1116  0.0457  0.0000  0.0000  0.0000  0.0000  0.0000  0.0000 </r>
       </set>
       <set comment="band 7">
        <r>  0.0000  0.0945  0.0628  0.0000  0.0000  0.0000  0.0000  0.0000  0.0000 </r>
        <r>  0.0000  0.0457  0.1116  0.0000  0.0000  0.0000  0.0000  0.0000  0.0000 </r>
       </set>
       <set comment="band 8">
        <r>  0.3117  0.0000  0.0000  0.0344  0.0000  0.0000  0.0000  0.0000  0.0000 </r>
        <r>  0.3117  0.0000  0.0000  0.0344  0.0000  0.0000  0.0000  0.0000  0.0000 </r>
       </set>
      </set>
      <set comment="kpoint 36">
       <set comment="band 1">
        <r>  0.2125  0.0000  0.0000  0.0005  0.0000  0.0000  0.0000  0.0000  0.0000 </r>
        <r>  0.2125  0.0000  0.0000  0.0005  0.0000  0.0000  0.0000  0.0000  0.0000 </r>
       </set>
       <set comment="band 2">
        <r>  0.0318  0.0000  0.0000  0.1942  0.0000  0.0000  0.0000  0.0000  0.0000 </r>
        <r>  0.0318  0.0000  0.0000  0.1942  0.0000  0.0000  0.0000  0.0000  0.0000 </r>
       </set>
       <set comment="band 3">
        <r>  0.0000  0.0932  0.1179  0.0000  0.0000  0.0000  0.0000  0.0000  0.0000 </r>
        <r>  0.0000  0.1000  0.1111  0.0000  0.0000  0.0000  0.0000  0.0000  0.0000 </r>
       </set>
       <set comment="band 4">
        <r>  0.0000  0.1179  0.0932  0.0000  0.0000  0.0000  0.0000  0.0000  0.0000 </r>
        <r>  0.0000  0.1111  0.1000  0.0000  0.0000  0.0000  0.0000  0.0000  0.0000 </r>
       </set>
       <set comment="band 5">
        <r>  0.0046  0.0000  0.0000  0.1426  0.0000  0.0000  0.0000  0.0000  0.0000 </r>
        <r>  0.0046  0.0000  0.0000  0.1426  0.0000  0.0000  0.0000  0.0000  0.0000 </r>
       </set>
       <set comment="band 6">
        <r>  0.0000  0.0705  0.0852  0.0000  0.0000  0.0000  0.0000  0.0000  0.0000 </r>
        <r>  0.0000  0.1103  0.0454  0.0000  0.0000  0.0000  0.0000  0.0000  0.0000 </r>
       </set>
       <set comment="band 7">
        <r>  0.0000  0.0852  0.0705  0.0000  0.0000  0.0000  0.0000  0.0000  0.0000 </r>
        <r>  0.0000  0.0454  0.1103  0.0000  0.0000  0.0000  0.0000  0.0000  0.0000 </r>
       </set>
       <set comment="band 8">
        <r>  0.3257  0.0000  0.0000  0.0243  0.0000  0.0000  0.0000  0.0000  0.0000 </r>
        <r>  0.3257  0.0000  0.0000  0.0243  0.0000  0.0000  0.0000  0.0000  0.0000 </r>
       </set>
      </set>
      <set comment="kpoint 37">
       <set comment="band 1">
        <r>  0.2126  0.0000  0.0000  0.0003  0.0000  0.0000  0.0000  0.0000  0.0000 </r>
        <r>  0.2126  0.0000  0.0000  0.0003  0.0000  0.0000  0.0000  0.0000  0.0000 </r>
       </set>
       <set comment="band 2">
        <r>  0.0197  0.0000  0.0000  0.2026  0.0000  0.0000  0.0000  0.0000  0.0000 </r>
        <r>  0.0197  0.0000  0.0000  0.2026  0.0000  0.0000  0.0000  0.0000  0.0000 </r>
       </set>
       <set comment="band 3">
        <r>  0.0000  0.1038  0.1088  0.0000  0.0000  0.0000  0.0000  0.0000  0.0000 </r>
        <r>  0.0000  0.1057  0.1069  0.0000  0.0000  0.0000  0.0000  0.0000  0.0000 </r>
       </set>
       <set comment="band 4">
        <r>  0.0000  0.1088  0.1038  0.0000  0.0000  0.0000  0.0000  0.0000  0.0000 </r>
        <r>  0.0000  0.1069  0.1057  0.0000  0.0000  0.0000  0.0000  0.0000  0.0000 </r>
       </set>
       <set comment="band 5">
        <r>  0.0027  0.0000  0.0000  0.1457  0.0000  0.0000  0.0000  0.0000  0.0000 </r>
        <r>  0.0027  0.0000  0.0000  0.1457  0.0000  0.0000  0.0000  0.0000  0.0000 </r>
       </set>
       <set comment="band 6">
        <r>  0.0000  0.0621  0.0922  0.0000  0.0000  0.0000  0.0000  0.0000  0.0000 </r>
        <r>  0.0000  0.0493  0.1049  0.0000  0.0000  0.0000  0.0000  0.0000  0.0000 </r>
       </set>
       <set comment="band 7">
        <r>  0.0000  0.0922  0.0621  0.0000  0.0000  0.0000  0.0000  0.0000  0.0000 </r>
        <r>  0.0000  0.1049  0.0493  0.0000  0.0000  0.0000  0.0000  0.0000  0.0000 </r>
       </set>
       <set comment="band 8">
        <r>  0.3385  0.0000  0.0000  0.0149  0.0000  0.0000  0.0000  0.0000  0.0000 </r>
        <r>  0.3385  0.0000  0.0000  0.0149  0.0000  0.0000  0.0000  0.0000  0.0000 </r>
       </set>
      </set>
      <set comment="kpoint 38">
       <set comment="band 1">
        <r>  0.2127  0.0000  0.0000  0.0001  0.0000  0.0000  0.0000  0.0000  0.0000 </r>
        <r>  0.2127  0.0000  0.0000  0.0001  0.0000  0.0000  0.0000  0.0000  0.0000 </r>
       </set>
       <set comment="band 2">
        <r>  0.0095  0.0000  0.0000  0.2097  0.0000  0.0000  0.0000  0.0000  0.0000 </r>
        <r>  0.0095  0.0000  0.0000  0.2097  0.0000  0.0000  0.0000  0.0000  0.0000 </r>
       </set>
       <set comment="band 3">
        <r>  0.0000  0.1046  0.1094  0.0000  0.0000  0.0000  0.0000  0.0000  0.0000 </r>
        <r>  0.0000  0.1060  0.1079  0.0000  0.0000  0.0000  0.0000  0.0000  0.0000 </r>
       </set>
       <set comment="band 4">
        <r>  0.0000  0.1094  0.1046  0.0000  0.0000  0.0000  0.0000  0.0000  0.0000 </r>
        <r>  0.0000  0.1079  0.1060  0.0000  0.0000  0.0000  0.0000  0.0000  0.0000 </r>
       </set>
       <set comment="band 5">
        <r>  0.0012  0.0000  0.0000  0.1480  0.0000  0.0000  0.0000  0.0000  0.0000 </r>
        <r>  0.0012  0.0000  0.0000  0.1480  0.0000  0.0000  0.0000  0.0000  0.0000 </r>
       </set>
       <set comment="band 6">
        <r>  0.0000  0.0272  0.1258  0.0000  0.0000  0.0000  0.0000  0.0000  0.0000 </r>
        <r>  0.0000  0.0417  0.1113  0.0000  0.0000  0.0000  0.0000  0.0000  0.0000 </r>
       </set>
       <set comment="band 7">
        <r>  0.0000  0.1258  0.0272  0.0000  0.0000  0.0000  0.0000  0.0000  0.0000 </r>
        <r>  0.0000  0.1113  0.0417  0.0000  0.0000  0.0000  0.0000  0.0000  0.0000 </r>
       </set>
       <set comment="band 8">
        <r>  0.3491  0.0000  0.0000  0.0071  0.0000  0.0000  0.0000  0.0000  0.0000 </r>
        <r>  0.3491  0.0000  0.0000  0.0071  0.0000  0.0000  0.0000  0.0000  0.0000 </r>
       </set>
      </set>
      <set comment="kpoint 39">
       <set comment="band 1">
        <r>  0.2127  0.0000  0.0000  0.0000  0.0000  0.0000  0.0000  0.0000  0.0000 </r>
        <r>  0.2127  0.0000  0.0000  0.0000  0.0000  0.0000  0.0000  0.0000  0.0000 </r>
       </set>
       <set comment="band 2">
        <r>  0.0025  0.0000  0.0000  0.2145  0.0000  0.0000  0.0000  0.0000  0.0000 </r>
        <r>  0.0025  0.0000  0.0000  0.2145  0.0000  0.0000  0.0000  0.0000  0.0000 </r>
       </set>
       <set comment="band 3">
        <r>  0.0000  0.1071  0.1077  0.0000  0.0000  0.0000  0.0000  0.0000  0.0000 </r>
        <r>  0.0000  0.1076  0.1072  0.0000  0.0000  0.0000  0.0000  0.0000  0.0000 </r>
       </set>
       <set comment="band 4">
        <r>  0.0000  0.1077  0.1071  0.0000  0.0000  0.0000  0.0000  0.0000  0.0000 </r>
        <r>  0.0000  0.1072  0.1076  0.0000  0.0000  0.0000  0.0000  0.0000  0.0000 </r>
       </set>
       <set comment="band 5">
        <r>  0.0000  0.0623  0.0897  0.0000  0.0000  0.0000  0.0000  0.0000  0.0000 </r>
        <r>  0.0000  0.0501  0.1019  0.0000  0.0000  0.0000  0.0000  0.0000  0.0000 </r>
       </set>
       <set comment="band 6">
        <r>  0.0000  0.0897  0.0623  0.0000  0.0000  0.0000  0.0000  0.0000  0.0000 </r>
        <r>  0.0000  0.1019  0.0501  0.0000  0.0000  0.0000  0.0000  0.0000  0.0000 </r>
       </set>
       <set comment="band 7">
        <r>  0.0003  0.0000  0.0000  0.1495  0.0000  0.0000  0.0000  0.0000  0.0000 </r>
        <r>  0.0003  0.0000  0.0000  0.1495  0.0000  0.0000  0.0000  0.0000  0.0000 </r>
       </set>
       <set comment="band 8">
        <r>  0.3563  0.0000  0.0000  0.0019  0.0000  0.0000  0.0000  0.0000  0.0000 </r>
        <r>  0.3563  0.0000  0.0000  0.0019  0.0000  0.0000  0.0000  0.0000  0.0000 </r>
       </set>
      </set>
      <set comment="kpoint 40">
       <set comment="band 1">
        <r>  0.2127  0.0000  0.0000  0.0000  0.0000  0.0000  0.0000  0.0000  0.0000 </r>
        <r>  0.2127  0.0000  0.0000  0.0000  0.0000  0.0000  0.0000  0.0000  0.0000 </r>
       </set>
       <set comment="band 2">
        <r>  0.0000  0.0000  0.0000  0.2162  0.0000  0.0000  0.0000  0.0000  0.0000 </r>
        <r>  0.0000  0.0000  0.0000  0.2162  0.0000  0.0000  0.0000  0.0000  0.0000 </r>
       </set>
       <set comment="band 3">
        <r>  0.0000  0.1052  0.1099  0.0000  0.0000  0.0000  0.0000  0.0000  0.0000 </r>
        <r>  0.0000  0.1052  0.1099  0.0000  0.0000  0.0000  0.0000  0.0000  0.0000 </r>
       </set>
       <set comment="band 4">
        <r>  0.0000  0.1099  0.1052  0.0000  0.0000  0.0000  0.0000  0.0000  0.0000 </r>
        <r>  0.0000  0.1099  0.1052  0.0000  0.0000  0.0000  0.0000  0.0000  0.0000 </r>
       </set>
       <set comment="band 5">
        <r>  0.0000  0.0467  0.1050  0.0000  0.0000  0.0000  0.0000  0.0000  0.0000 </r>
        <r>  0.0000  0.0467  0.1050  0.0000  0.0000  0.0000  0.0000  0.0000  0.0000 </r>
       </set>
       <set comment="band 6">
        <r>  0.0000  0.1050  0.0467  0.0000  0.0000  0.0000  0.0000  0.0000  0.0000 </r>
        <r>  0.0000  0.1050  0.0467  0.0000  0.0000  0.0000  0.0000  0.0000  0.0000 </r>
       </set>
       <set comment="band 7">
        <r>  0.0000  0.0000  0.0000  0.1500  0.0000  0.0000  0.0000  0.0000  0.0000 </r>
        <r>  0.0000  0.0000  0.0000  0.1500  0.0000  0.0000  0.0000  0.0000  0.0000 </r>
       </set>
       <set comment="band 8">
        <r>  0.3589  0.0000  0.0000  0.0000  0.0000  0.0000  0.0000  0.0000  0.0000 </r>
        <r>  0.3589  0.0000  0.0000  0.0000  0.0000  0.0000  0.0000  0.0000  0.0000 </r>
       </set>
      </set>
      <set comment="kpoint 41">
       <set comment="band 1">
        <r>  0.2127  0.0000  0.0000  0.0000  0.0000  0.0000  0.0000  0.0000  0.0000 </r>
        <r>  0.2127  0.0000  0.0000  0.0000  0.0000  0.0000  0.0000  0.0000  0.0000 </r>
       </set>
       <set comment="band 2">
        <r>  0.0000  0.0000  0.0000  0.2162  0.0000  0.0000  0.0000  0.0000  0.0000 </r>
        <r>  0.0000  0.0000  0.0000  0.2162  0.0000  0.0000  0.0000  0.0000  0.0000 </r>
       </set>
       <set comment="band 3">
        <r>  0.0000  0.1057  0.1094  0.0000  0.0000  0.0000  0.0000  0.0000  0.0000 </r>
        <r>  0.0000  0.1057  0.1094  0.0000  0.0000  0.0000  0.0000  0.0000  0.0000 </r>
       </set>
       <set comment="band 4">
        <r>  0.0000  0.1094  0.1057  0.0000  0.0000  0.0000  0.0000  0.0000  0.0000 </r>
        <r>  0.0000  0.1094  0.1057  0.0000  0.0000  0.0000  0.0000  0.0000  0.0000 </r>
       </set>
       <set comment="band 5">
        <r>  0.0000  0.1140  0.0377  0.0000  0.0000  0.0000  0.0000  0.0000  0.0000 </r>
        <r>  0.0000  0.1140  0.0377  0.0000  0.0000  0.0000  0.0000  0.0000  0.0000 </r>
       </set>
       <set comment="band 6">
        <r>  0.0000  0.0377  0.1140  0.0000  0.0000  0.0000  0.0000  0.0000  0.0000 </r>
        <r>  0.0000  0.0377  0.1140  0.0000  0.0000  0.0000  0.0000  0.0000  0.0000 </r>
       </set>
       <set comment="band 7">
        <r>  0.0000  0.0000  0.0000  0.1500  0.0000  0.0000  0.0000  0.0000  0.0000 </r>
        <r>  0.0000  0.0000  0.0000  0.1500  0.0000  0.0000  0.0000  0.0000  0.0000 </r>
       </set>
       <set comment="band 8">
        <r>  0.3589  0.0000  0.0000  0.0000  0.0000  0.0000  0.0000  0.0000  0.0000 </r>
        <r>  0.3589  0.0000  0.0000  0.0000  0.0000  0.0000  0.0000  0.0000  0.0000 </r>
       </set>
      </set>
      <set comment="kpoint 42">
       <set comment="band 1">
        <r>  0.2127  0.0000  0.0000  0.0000  0.0000  0.0000  0.0000  0.0000  0.0000 </r>
        <r>  0.2127  0.0000  0.0000  0.0000  0.0000  0.0000  0.0000  0.0000  0.0000 </r>
       </set>
       <set comment="band 2">
        <r>  0.0000  0.0000  0.0010  0.2149  0.0000  0.0000  0.0000  0.0000  0.0000 </r>
        <r>  0.0000  0.0000  0.0010  0.2149  0.0000  0.0000  0.0000  0.0000  0.0000 </r>
       </set>
       <set comment="band 3">
        <r>  0.0026  0.2133  0.0000  0.0000  0.0000  0.0000  0.0000  0.0000  0.0000 </r>
        <r>  0.0026  0.2133  0.0000  0.0000  0.0000  0.0000  0.0000  0.0000  0.0000 </r>
       </set>
       <set comment="band 4">
        <r>  0.0000  0.0000  0.2138  0.0010  0.0000  0.0000  0.0000  0.0000  0.0000 </r>
        <r>  0.0000  0.0000  0.2138  0.0010  0.0000  0.0000  0.0000  0.0000  0.0000 </r>
       </set>
       <set comment="band 5">
        <r>  0.0003  0.1512  0.0000  0.0000  0.0000  0.0000  0.0000  0.0000  0.0000 </r>
        <r>  0.0003  0.1512  0.0000  0.0000  0.0000  0.0000  0.0000  0.0000  0.0000 </r>
       </set>
       <set comment="band 6">
        <r>  0.0000  0.0000  0.1507  0.0013  0.0000  0.0000  0.0000  0.0000  0.0000 </r>
        <r>  0.0000  0.0000  0.1507  0.0013  0.0000  0.0000  0.0000  0.0000  0.0000 </r>
       </set>
       <set comment="band 7">
        <r>  0.0000  0.0000  0.0014  0.1489  0.0000  0.0000  0.0000  0.0000  0.0000 </r>
        <r>  0.0000  0.0000  0.0014  0.1489  0.0000  0.0000  0.0000  0.0000  0.0000 </r>
       </set>
       <set comment="band 8">
        <r>  0.3562  0.0019  0.0000  0.0000  0.0000  0.0000  0.0000  0.0000  0.0000 </r>
        <r>  0.3562  0.0019  0.0000  0.0000  0.0000  0.0000  0.0000  0.0000  0.0000 </r>
       </set>
      </set>
      <set comment="kpoint 43">
       <set comment="band 1">
        <r>  0.2127  0.0001  0.0000  0.0000  0.0000  0.0000  0.0000  0.0000  0.0000 </r>
        <r>  0.2127  0.0001  0.0000  0.0000  0.0000  0.0000  0.0000  0.0000  0.0000 </r>
       </set>
       <set comment="band 2">
        <r>  0.0000  0.0000  0.0037  0.2113  0.0000  0.0000  0.0000  0.0000  0.0000 </r>
        <r>  0.0000  0.0000  0.0037  0.2113  0.0000  0.0000  0.0000  0.0000  0.0000 </r>
       </set>
       <set comment="band 3">
        <r>  0.0098  0.2084  0.0000  0.0000  0.0000  0.0000  0.0000  0.0000  0.0000 </r>
        <r>  0.0098  0.2084  0.0000  0.0000  0.0000  0.0000  0.0000  0.0000  0.0000 </r>
       </set>
       <set comment="band 4">
        <r>  0.0000  0.0000  0.2100  0.0038  0.0000  0.0000  0.0000  0.0000  0.0000 </r>
        <r>  0.0000  0.0000  0.2100  0.0038  0.0000  0.0000  0.0000  0.0000  0.0000 </r>
       </set>
       <set comment="band 5">
        <r>  0.0012  0.1497  0.0000  0.0000  0.0000  0.0000  0.0000  0.0000  0.0000 </r>
        <r>  0.0012  0.1497  0.0000  0.0000  0.0000  0.0000  0.0000  0.0000  0.0000 </r>
       </set>
       <set comment="band 6">
        <r>  0.0000  0.0000  0.1479  0.0050  0.0000  0.0000  0.0000  0.0000  0.0000 </r>
        <r>  0.0000  0.0000  0.1479  0.0050  0.0000  0.0000  0.0000  0.0000  0.0000 </r>
       </set>
       <set comment="band 7">
        <r>  0.0000  0.0000  0.0052  0.1460  0.0000  0.0000  0.0000  0.0000  0.0000 </r>
        <r>  0.0000  0.0000  0.0052  0.1461  0.0000  0.0000  0.0000  0.0000  0.0000 </r>
       </set>
       <set comment="band 8">
        <r>  0.3487  0.0073  0.0000  0.0000  0.0000  0.0000  0.0000  0.0000  0.0000 </r>
        <r>  0.3487  0.0073  0.0000  0.0000  0.0000  0.0000  0.0000  0.0000  0.0000 </r>
       </set>
      </set>
      <set comment="kpoint 44">
       <set comment="band 1">
        <r>  0.2126  0.0003  0.0000  0.0000  0.0000  0.0000  0.0000  0.0000  0.0000 </r>
        <r>  0.2126  0.0003  0.0000  0.0000  0.0000  0.0000  0.0000  0.0000  0.0000 </r>
       </set>
       <set comment="band 2">
        <r>  0.0000  0.0000  0.0078  0.2059  0.0000  0.0000  0.0000  0.0000  0.0000 </r>
        <r>  0.0000  0.0000  0.0078  0.2059  0.0000  0.0000  0.0000  0.0000  0.0000 </r>
       </set>
       <set comment="band 3">
        <r>  0.0203  0.2011  0.0000  0.0000  0.0000  0.0000  0.0000  0.0000  0.0000 </r>
        <r>  0.0203  0.2011  0.0000  0.0000  0.0000  0.0000  0.0000  0.0000  0.0000 </r>
       </set>
       <set comment="band 4">
        <r>  0.0000  0.0000  0.2045  0.0080  0.0000  0.0000  0.0000  0.0000  0.0000 </r>
        <r>  0.0000  0.0000  0.2045  0.0080  0.0000  0.0000  0.0000  0.0000  0.0000 </r>
       </set>
       <set comment="band 5">
        <r>  0.0027  0.1474  0.0000  0.0000  0.0000  0.0000  0.0000  0.0000  0.0000 </r>
        <r>  0.0027  0.1473  0.0000  0.0000  0.0000  0.0000  0.0000  0.0000  0.0000 </r>
       </set>
       <set comment="band 6">
        <r>  0.0000  0.0000  0.1438  0.0105  0.0000  0.0000  0.0000  0.0000  0.0000 </r>
        <r>  0.0000  0.0000  0.1438  0.0105  0.0000  0.0000  0.0000  0.0000  0.0000 </r>
       </set>
       <set comment="band 7">
        <r>  0.0000  0.0000  0.0108  0.1418  0.0000  0.0000  0.0000  0.0000  0.0000 </r>
        <r>  0.0000  0.0000  0.0108  0.1418  0.0000  0.0000  0.0000  0.0000  0.0000 </r>
       </set>
       <set comment="band 8">
        <r>  0.3377  0.0153  0.0000  0.0000  0.0000  0.0000  0.0000  0.0000  0.0000 </r>
        <r>  0.3377  0.0153  0.0000  0.0000  0.0000  0.0000  0.0000  0.0000  0.0000 </r>
       </set>
      </set>
      <set comment="kpoint 45">
       <set comment="band 1">
        <r>  0.2125  0.0005  0.0000  0.0000  0.0000  0.0000  0.0000  0.0000  0.0000 </r>
        <r>  0.2125  0.0005  0.0000  0.0000  0.0000  0.0000  0.0000  0.0000  0.0000 </r>
       </set>
       <set comment="band 2">
        <r>  0.0327  0.1925  0.0000  0.0000  0.0000  0.0000  0.0000  0.0000  0.0000 </r>
        <r>  0.0327  0.1925  0.0000  0.0000  0.0000  0.0000  0.0000  0.0000  0.0000 </r>
       </set>
       <set comment="band 3">
        <r>  0.0000  0.0000  0.0127  0.1995  0.0000  0.0000  0.0000  0.0000  0.0000 </r>
        <r>  0.0000  0.0000  0.0127  0.1995  0.0000  0.0000  0.0000  0.0000  0.0000 </r>
       </set>
       <set comment="band 4">
        <r>  0.0000  0.0000  0.1979  0.0130  0.0000  0.0000  0.0000  0.0000  0.0000 </r>
        <r>  0.0000  0.0000  0.1979  0.0130  0.0000  0.0000  0.0000  0.0000  0.0000 </r>
       </set>
       <set comment="band 5">
        <r>  0.0047  0.1442  0.0000  0.0000  0.0000  0.0000  0.0000  0.0000  0.0000 </r>
        <r>  0.0047  0.1442  0.0000  0.0000  0.0000  0.0000  0.0000  0.0000  0.0000 </r>
       </set>
       <set comment="band 6">
        <r>  0.0000  0.0000  0.1387  0.0170  0.0000  0.0000  0.0000  0.0000  0.0000 </r>
        <r>  0.0000  0.0000  0.1387  0.0170  0.0000  0.0000  0.0000  0.0000  0.0000 </r>
       </set>
       <set comment="band 7">
        <r>  0.0000  0.0000  0.0175  0.1366  0.0000  0.0000  0.0000  0.0000  0.0000 </r>
        <r>  0.0000  0.0000  0.0175  0.1366  0.0000  0.0000  0.0000  0.0000  0.0000 </r>
       </set>
       <set comment="band 8">
        <r>  0.3244  0.0250  0.0000  0.0000  0.0000  0.0000  0.0000  0.0000  0.0000 </r>
        <r>  0.3244  0.0250  0.0000  0.0000  0.0000  0.0000  0.0000  0.0000  0.0000 </r>
       </set>
      </set>
      <set comment="kpoint 46">
       <set comment="band 1">
        <r>  0.2124  0.0008  0.0000  0.0000  0.0000  0.0000  0.0000  0.0000  0.0000 </r>
        <r>  0.2124  0.0008  0.0000  0.0000  0.0000  0.0000  0.0000  0.0000  0.0000 </r>
       </set>
       <set comment="band 2">
        <r>  0.0457  0.1835  0.0000  0.0000  0.0000  0.0000  0.0000  0.0000  0.0000 </r>
        <r>  0.0457  0.1835  0.0000  0.0000  0.0000  0.0000  0.0000  0.0000  0.0000 </r>
       </set>
       <set comment="band 3">
        <r>  0.0000  0.0000  0.0179  0.1926  0.0000  0.0000  0.0000  0.0000  0.0000 </r>
        <r>  0.0000  0.0000  0.0179  0.1926  0.0000  0.0000  0.0000  0.0000  0.0000 </r>
       </set>
       <set comment="band 4">
        <r>  0.0000  0.0000  0.1909  0.0184  0.0000  0.0000  0.0000  0.0000  0.0000 </r>
        <r>  0.0000  0.0000  0.1909  0.0184  0.0000  0.0000  0.0000  0.0000  0.0000 </r>
       </set>
       <set comment="band 5">
        <r>  0.0070  0.1405  0.0000  0.0000  0.0000  0.0000  0.0000  0.0000  0.0000 </r>
        <r>  0.0070  0.1405  0.0000  0.0000  0.0000  0.0000  0.0000  0.0000  0.0000 </r>
       </set>
       <set comment="band 6">
        <r>  0.0000  0.0000  0.1333  0.0241  0.0000  0.0000  0.0000  0.0000  0.0000 </r>
        <r>  0.0000  0.0000  0.1333  0.0241  0.0000  0.0000  0.0000  0.0000  0.0000 </r>
       </set>
       <set comment="band 7">
        <r>  0.0000  0.0000  0.0247  0.1312  0.0000  0.0000  0.0000  0.0000  0.0000 </r>
        <r>  0.0000  0.0000  0.0247  0.1312  0.0000  0.0000  0.0000  0.0000  0.0000 </r>
       </set>
       <set comment="band 8">
        <r>  0.3100  0.0353  0.0000  0.0000  0.0000  0.0000  0.0000  0.0000  0.0000 </r>
        <r>  0.3100  0.0353  0.0000  0.0000  0.0000  0.0000  0.0000  0.0000  0.0000 </r>
       </set>
      </set>
      <set comment="kpoint 47">
       <set comment="band 1">
        <r>  0.2122  0.0011  0.0000  0.0000  0.0000  0.0000  0.0000  0.0000  0.0000 </r>
        <r>  0.2122  0.0011  0.0000  0.0000  0.0000  0.0000  0.0000  0.0000  0.0000 </r>
       </set>
       <set comment="band 2">
        <r>  0.0584  0.1746  0.0000  0.0000  0.0000  0.0000  0.0000  0.0000  0.0000 </r>
        <r>  0.0584  0.1746  0.0000  0.0000  0.0000  0.0000  0.0000  0.0000  0.0000 </r>
       </set>
       <set comment="band 3">
        <r>  0.0000  0.0000  0.0232  0.1857  0.0000  0.0000  0.0000  0.0000  0.0000 </r>
        <r>  0.0000  0.0000  0.0232  0.1857  0.0000  0.0000  0.0000  0.0000  0.0000 </r>
       </set>
       <set comment="band 4">
        <r>  0.0000  0.0000  0.1839  0.0237  0.0000  0.0000  0.0000  0.0000  0.0000 </r>
        <r>  0.0000  0.0000  0.1839  0.0237  0.0000  0.0000  0.0000  0.0000  0.0000 </r>
       </set>
       <set comment="band 5">
        <r>  0.0096  0.1362  0.0000  0.0000  0.0000  0.0000  0.0000  0.0000  0.0000 </r>
        <r>  0.0096  0.1362  0.0000  0.0000  0.0000  0.0000  0.0000  0.0000  0.0000 </r>
       </set>
       <set comment="band 6">
        <r>  0.0000  0.0000  0.1277  0.0312  0.0000  0.0000  0.0000  0.0000  0.0000 </r>
        <r>  0.0000  0.0000  0.1277  0.0312  0.0000  0.0000  0.0000  0.0000  0.0000 </r>
       </set>
       <set comment="band 7">
        <r>  0.0000  0.0000  0.0318  0.1256  0.0000  0.0000  0.0000  0.0000  0.0000 </r>
        <r>  0.0000  0.0000  0.0318  0.1256  0.0000  0.0000  0.0000  0.0000  0.0000 </r>
       </set>
       <set comment="band 8">
        <r>  0.2948  0.0457  0.0000  0.0000  0.0000  0.0000  0.0000  0.0000  0.0000 </r>
        <r>  0.2948  0.0457  0.0000  0.0000  0.0000  0.0000  0.0000  0.0000  0.0000 </r>
       </set>
      </set>
      <set comment="kpoint 48">
       <set comment="band 1">
        <r>  0.2120  0.0015  0.0000  0.0000  0.0000  0.0000  0.0000  0.0000  0.0000 </r>
        <r>  0.2120  0.0015  0.0000  0.0000  0.0000  0.0000  0.0000  0.0000  0.0000 </r>
       </set>
       <set comment="band 2">
        <r>  0.0704  0.1660  0.0000  0.0000  0.0000  0.0000  0.0000  0.0000  0.0000 </r>
        <r>  0.0704  0.1660  0.0000  0.0000  0.0000  0.0000  0.0000  0.0000  0.0000 </r>
       </set>
       <set comment="band 3">
        <r>  0.0000  0.0000  0.0283  0.1791  0.0000  0.0000  0.0000  0.0000  0.0000 </r>
        <r>  0.0000  0.0000  0.0283  0.1791  0.0000  0.0000  0.0000  0.0000  0.0000 </r>
       </set>
       <set comment="band 4">
        <r>  0.0000  0.0000  0.1773  0.0288  0.0000  0.0000  0.0000  0.0000  0.0000 </r>
        <r>  0.0000  0.0000  0.1773  0.0288  0.0000  0.0000  0.0000  0.0000  0.0000 </r>
       </set>
       <set comment="band 5">
        <r>  0.0124  0.1317  0.0000  0.0000  0.0000  0.0000  0.0000  0.0000  0.0000 </r>
        <r>  0.0124  0.1317  0.0000  0.0000  0.0000  0.0000  0.0000  0.0000  0.0000 </r>
       </set>
       <set comment="band 6">
        <r>  0.0000  0.0000  0.1224  0.0381  0.0000  0.0000  0.0000  0.0000  0.0000 </r>
        <r>  0.0000  0.0000  0.1224  0.0381  0.0000  0.0000  0.0000  0.0000  0.0000 </r>
       </set>
       <set comment="band 7">
        <r>  0.0000  0.0000  0.0387  0.1203  0.0000  0.0000  0.0000  0.0000  0.0000 </r>
        <r>  0.0000  0.0000  0.0387  0.1203  0.0000  0.0000  0.0000  0.0000  0.0000 </r>
       </set>
       <set comment="band 8">
        <r>  0.2787  0.0558  0.0000  0.0000  0.0000  0.0000  0.0000  0.0000  0.0000 </r>
        <r>  0.2787  0.0558  0.0000  0.0000  0.0000  0.0000  0.0000  0.0000  0.0000 </r>
       </set>
      </set>
      <set comment="kpoint 49">
       <set comment="band 1">
        <r>  0.2118  0.0020  0.0000  0.0000  0.0000  0.0000  0.0000  0.0000  0.0000 </r>
        <r>  0.2118  0.0020  0.0000  0.0000  0.0000  0.0000  0.0000  0.0000  0.0000 </r>
       </set>
       <set comment="band 2">
        <r>  0.0815  0.1581  0.0000  0.0000  0.0000  0.0000  0.0000  0.0000  0.0000 </r>
        <r>  0.0815  0.1581  0.0000  0.0000  0.0000  0.0000  0.0000  0.0000  0.0000 </r>
       </set>
       <set comment="band 3">
        <r>  0.0000  0.0000  0.0332  0.1729  0.0000  0.0000  0.0000  0.0000  0.0000 </r>
        <r>  0.0000  0.0000  0.0332  0.1729  0.0000  0.0000  0.0000  0.0000  0.0000 </r>
       </set>
       <set comment="band 4">
        <r>  0.0000  0.0000  0.1712  0.0336  0.0000  0.0000  0.0000  0.0000  0.0000 </r>
        <r>  0.0000  0.0000  0.1712  0.0336  0.0000  0.0000  0.0000  0.0000  0.0000 </r>
       </set>
       <set comment="band 5">
        <r>  0.0153  0.1269  0.0000  0.0000  0.0000  0.0000  0.0000  0.0000  0.0000 </r>
        <r>  0.0153  0.1269  0.0000  0.0000  0.0000  0.0000  0.0000  0.0000  0.0000 </r>
       </set>
       <set comment="band 6">
        <r>  0.0000  0.0000  0.1172  0.0445  0.0000  0.0000  0.0000  0.0000  0.0000 </r>
        <r>  0.0000  0.0000  0.1172  0.0445  0.0000  0.0000  0.0000  0.0000  0.0000 </r>
       </set>
       <set comment="band 7">
        <r>  0.0000  0.0000  0.0451  0.1152  0.0000  0.0000  0.0000  0.0000  0.0000 </r>
        <r>  0.0000  0.0000  0.0451  0.1152  0.0000  0.0000  0.0000  0.0000  0.0000 </r>
       </set>
       <set comment="band 8">
        <r>  0.2606  0.0650  0.0000  0.0000  0.0000  0.0000  0.0000  0.0000  0.0000 </r>
        <r>  0.2606  0.0650  0.0000  0.0000  0.0000  0.0000  0.0000  0.0000  0.0000 </r>
       </set>
      </set>
      <set comment="kpoint 50">
       <set comment="band 1">
        <r>  0.2116  0.0025  0.0000  0.0000  0.0000  0.0000  0.0000  0.0000  0.0000 </r>
        <r>  0.2116  0.0025  0.0000  0.0000  0.0000  0.0000  0.0000  0.0000  0.0000 </r>
       </set>
       <set comment="band 2">
        <r>  0.0917  0.1507  0.0000  0.0000  0.0000  0.0000  0.0000  0.0000  0.0000 </r>
        <r>  0.0917  0.1507  0.0000  0.0000  0.0000  0.0000  0.0000  0.0000  0.0000 </r>
       </set>
       <set comment="band 3">
        <r>  0.0000  0.0000  0.0377  0.1671  0.0000  0.0000  0.0000  0.0000  0.0000 </r>
        <r>  0.0000  0.0000  0.0377  0.1671  0.0000  0.0000  0.0000  0.0000  0.0000 </r>
       </set>
       <set comment="band 4">
        <r>  0.0000  0.0000  0.1655  0.0381  0.0000  0.0000  0.0000  0.0000  0.0000 </r>
        <r>  0.0000  0.0000  0.1655  0.0381  0.0000  0.0000  0.0000  0.0000  0.0000 </r>
       </set>
       <set comment="band 5">
        <r>  0.0182  0.1221  0.0000  0.0000  0.0000  0.0000  0.0000  0.0000  0.0000 </r>
        <r>  0.0182  0.1221  0.0000  0.0000  0.0000  0.0000  0.0000  0.0000  0.0000 </r>
       </set>
       <set comment="band 6">
        <r>  0.0000  0.0000  0.1124  0.0505  0.0000  0.0000  0.0000  0.0000  0.0000 </r>
        <r>  0.0000  0.0000  0.1124  0.0505  0.0000  0.0000  0.0000  0.0000  0.0000 </r>
       </set>
       <set comment="band 7">
        <r>  0.0000  0.0000  0.0510  0.1105  0.0000  0.0000  0.0000  0.0000  0.0000 </r>
        <r>  0.0000  0.0000  0.0510  0.1105  0.0000  0.0000  0.0000  0.0000  0.0000 </r>
       </set>
       <set comment="band 8">
        <r>  0.2396  0.0726  0.0000  0.0000  0.0000  0.0000  0.0000  0.0000  0.0000 </r>
        <r>  0.2396  0.0726  0.0000  0.0000  0.0000  0.0000  0.0000  0.0000  0.0000 </r>
       </set>
      </set>
      <set comment="kpoint 51">
       <set comment="band 1">
        <r>  0.2113  0.0031  0.0000  0.0000  0.0000  0.0000  0.0000  0.0000  0.0000 </r>
        <r>  0.2113  0.0031  0.0000  0.0000  0.0000  0.0000  0.0000  0.0000  0.0000 </r>
       </set>
       <set comment="band 2">
        <r>  0.1010  0.1439  0.0000  0.0000  0.0000  0.0000  0.0000  0.0000  0.0000 </r>
        <r>  0.1010  0.1439  0.0000  0.0000  0.0000  0.0000  0.0000  0.0000  0.0000 </r>
       </set>
       <set comment="band 3">
        <r>  0.0000  0.0000  0.0419  0.1619  0.0000  0.0000  0.0000  0.0000  0.0000 </r>
        <r>  0.0000  0.0000  0.0419  0.1619  0.0000  0.0000  0.0000  0.0000  0.0000 </r>
       </set>
       <set comment="band 4">
        <r>  0.0000  0.0000  0.1604  0.0422  0.0000  0.0000  0.0000  0.0000  0.0000 </r>
        <r>  0.0000  0.0000  0.1604  0.0422  0.0000  0.0000  0.0000  0.0000  0.0000 </r>
       </set>
       <set comment="band 5">
        <r>  0.0210  0.1173  0.0000  0.0000  0.0000  0.0000  0.0000  0.0000  0.0000 </r>
        <r>  0.0210  0.1173  0.0000  0.0000  0.0000  0.0000  0.0000  0.0000  0.0000 </r>
       </set>
       <set comment="band 6">
        <r>  0.0000  0.0000  0.1079  0.0560  0.0000  0.0000  0.0000  0.0000  0.0000 </r>
        <r>  0.0000  0.0000  0.1079  0.0560  0.0000  0.0000  0.0000  0.0000  0.0000 </r>
       </set>
       <set comment="band 7">
        <r>  0.0000  0.0000  0.0564  0.1061  0.0000  0.0000  0.0000  0.0000  0.0000 </r>
        <r>  0.0000  0.0000  0.0564  0.1061  0.0000  0.0000  0.0000  0.0000  0.0000 </r>
       </set>
       <set comment="band 8">
        <r>  0.2137  0.0773  0.0000  0.0000  0.0000  0.0000  0.0000  0.0000  0.0000 </r>
        <r>  0.2137  0.0773  0.0000  0.0000  0.0000  0.0000  0.0000  0.0000  0.0000 </r>
       </set>
      </set>
      <set comment="kpoint 52">
       <set comment="band 1">
        <r>  0.2110  0.0038  0.0000  0.0000  0.0000  0.0000  0.0000  0.0000  0.0000 </r>
        <r>  0.2110  0.0038  0.0000  0.0000  0.0000  0.0000  0.0000  0.0000  0.0000 </r>
       </set>
       <set comment="band 2">
        <r>  0.1094  0.1377  0.0000  0.0000  0.0000  0.0000  0.0000  0.0000  0.0000 </r>
        <r>  0.1094  0.1377  0.0000  0.0000  0.0000  0.0000  0.0000  0.0000  0.0000 </r>
       </set>
       <set comment="band 3">
        <r>  0.0000  0.0000  0.0457  0.1571  0.0000  0.0000  0.0000  0.0000  0.0000 </r>
        <r>  0.0000  0.0000  0.0457  0.1571  0.0000  0.0000  0.0000  0.0000  0.0000 </r>
       </set>
       <set comment="band 4">
        <r>  0.0000  0.0000  0.1557  0.0459  0.0000  0.0000  0.0000  0.0000  0.0000 </r>
        <r>  0.0000  0.0000  0.1557  0.0459  0.0000  0.0000  0.0000  0.0000  0.0000 </r>
       </set>
       <set comment="band 5">
        <r>  0.0238  0.1126  0.0000  0.0000  0.0000  0.0000  0.0000  0.0000  0.0000 </r>
        <r>  0.0238  0.1126  0.0000  0.0000  0.0000  0.0000  0.0000  0.0000  0.0000 </r>
       </set>
       <set comment="band 6">
        <r>  0.0000  0.0000  0.1037  0.0612  0.0000  0.0000  0.0000  0.0000  0.0000 </r>
        <r>  0.0000  0.0000  0.1037  0.0612  0.0000  0.0000  0.0000  0.0000  0.0000 </r>
       </set>
       <set comment="band 7">
        <r>  0.0000  0.0000  0.0614  0.1021  0.0000  0.0000  0.0000  0.0000  0.0000 </r>
        <r>  0.0000  0.0000  0.0614  0.1021  0.0000  0.0000  0.0000  0.0000  0.0000 </r>
       </set>
       <set comment="band 8">
        <r>  0.1832  0.0782  0.0000  0.0000  0.0000  0.0000  0.0000  0.0000  0.0000 </r>
        <r>  0.1832  0.0782  0.0000  0.0000  0.0000  0.0000  0.0000  0.0000  0.0000 </r>
       </set>
      </set>
      <set comment="kpoint 53">
       <set comment="band 1">
        <r>  0.2107  0.0045  0.0000  0.0000  0.0000  0.0000  0.0000  0.0000  0.0000 </r>
        <r>  0.2107  0.0045  0.0000  0.0000  0.0000  0.0000  0.0000  0.0000  0.0000 </r>
       </set>
       <set comment="band 2">
        <r>  0.1170  0.1319  0.0000  0.0000  0.0000  0.0000  0.0000  0.0000  0.0000 </r>
        <r>  0.1170  0.1319  0.0000  0.0000  0.0000  0.0000  0.0000  0.0000  0.0000 </r>
       </set>
       <set comment="band 3">
        <r>  0.0000  0.0000  0.0492  0.1528  0.0000  0.0000  0.0000  0.0000  0.0000 </r>
        <r>  0.0000  0.0000  0.0492  0.1528  0.0000  0.0000  0.0000  0.0000  0.0000 </r>
       </set>
       <set comment="band 4">
        <r>  0.0000  0.0000  0.1514  0.0494  0.0000  0.0000  0.0000  0.0000  0.0000 </r>
        <r>  0.0000  0.0000  0.1514  0.0494  0.0000  0.0000  0.0000  0.0000  0.0000 </r>
       </set>
       <set comment="band 5">
        <r>  0.0265  0.1079  0.0000  0.0000  0.0000  0.0000  0.0000  0.0000  0.0000 </r>
        <r>  0.0265  0.1079  0.0000  0.0000  0.0000  0.0000  0.0000  0.0000  0.0000 </r>
       </set>
       <set comment="band 6">
        <r>  0.0000  0.0000  0.0998  0.0659  0.0000  0.0000  0.0000  0.0000  0.0000 </r>
        <r>  0.0000  0.0000  0.0998  0.0659  0.0000  0.0000  0.0000  0.0000  0.0000 </r>
       </set>
       <set comment="band 7">
        <r>  0.0000  0.0000  0.0660  0.0983  0.0000  0.0000  0.0000  0.0000  0.0000 </r>
        <r>  0.0000  0.0000  0.0660  0.0983  0.0000  0.0000  0.0000  0.0000  0.0000 </r>
       </set>
       <set comment="band 8">
        <r>  0.1516  0.0750  0.0000  0.0000  0.0000  0.0000  0.0000  0.0000  0.0000 </r>
        <r>  0.1516  0.0750  0.0000  0.0000  0.0000  0.0000  0.0000  0.0000  0.0000 </r>
       </set>
      </set>
      <set comment="kpoint 54">
       <set comment="band 1">
        <r>  0.2103  0.0053  0.0000  0.0000  0.0000  0.0000  0.0000  0.0000  0.0000 </r>
        <r>  0.2103  0.0053  0.0000  0.0000  0.0000  0.0000  0.0000  0.0000  0.0000 </r>
       </set>
       <set comment="band 2">
        <r>  0.1239  0.1264  0.0000  0.0000  0.0000  0.0000  0.0000  0.0000  0.0000 </r>
        <r>  0.1239  0.1264  0.0000  0.0000  0.0000  0.0000  0.0000  0.0000  0.0000 </r>
       </set>
       <set comment="band 3">
        <r>  0.0000  0.0000  0.0525  0.1488  0.0000  0.0000  0.0000  0.0000  0.0000 </r>
        <r>  0.0000  0.0000  0.0525  0.1488  0.0000  0.0000  0.0000  0.0000  0.0000 </r>
       </set>
       <set comment="band 4">
        <r>  0.0000  0.0000  0.1476  0.0526  0.0000  0.0000  0.0000  0.0000  0.0000 </r>
        <r>  0.0000  0.0000  0.1476  0.0526  0.0000  0.0000  0.0000  0.0000  0.0000 </r>
       </set>
       <set comment="band 5">
        <r>  0.0291  0.1034  0.0000  0.0000  0.0000  0.0000  0.0000  0.0000  0.0000 </r>
        <r>  0.0291  0.1034  0.0000  0.0000  0.0000  0.0000  0.0000  0.0000  0.0000 </r>
       </set>
       <set comment="band 6">
        <r>  0.1228  0.0691  0.0000  0.0000  0.0000  0.0000  0.0000  0.0000  0.0000 </r>
        <r>  0.1228  0.0691  0.0000  0.0000  0.0000  0.0000  0.0000  0.0000  0.0000 </r>
       </set>
       <set comment="band 7">
        <r>  0.0000  0.0000  0.0961  0.0701  0.0000  0.0000  0.0000  0.0000  0.0000 </r>
        <r>  0.0000  0.0000  0.0961  0.0701  0.0000  0.0000  0.0000  0.0000  0.0000 </r>
       </set>
       <set comment="band 8">
        <r>  0.0000  0.0000  0.0701  0.0947  0.0000  0.0000  0.0000  0.0000  0.0000 </r>
        <r>  0.0000  0.0000  0.0701  0.0947  0.0000  0.0000  0.0000  0.0000  0.0000 </r>
       </set>
      </set>
      <set comment="kpoint 55">
       <set comment="band 1">
        <r>  0.2100  0.0061  0.0000  0.0000  0.0000  0.0000  0.0000  0.0000  0.0000 </r>
        <r>  0.2100  0.0061  0.0000  0.0000  0.0000  0.0000  0.0000  0.0000  0.0000 </r>
       </set>
       <set comment="band 2">
        <r>  0.1302  0.1213  0.0000  0.0000  0.0000  0.0000  0.0000  0.0000  0.0000 </r>
        <r>  0.1302  0.1213  0.0000  0.0000  0.0000  0.0000  0.0000  0.0000  0.0000 </r>
       </set>
       <set comment="band 3">
        <r>  0.0000  0.0000  0.0555  0.1451  0.0000  0.0000  0.0000  0.0000  0.0000 </r>
        <r>  0.0000  0.0000  0.0555  0.1451  0.0000  0.0000  0.0000  0.0000  0.0000 </r>
       </set>
       <set comment="band 4">
        <r>  0.0000  0.0000  0.1440  0.0556  0.0000  0.0000  0.0000  0.0000  0.0000 </r>
        <r>  0.0000  0.0000  0.1440  0.0556  0.0000  0.0000  0.0000  0.0000  0.0000 </r>
       </set>
       <set comment="band 5">
        <r>  0.0316  0.0989  0.0000  0.0000  0.0000  0.0000  0.0000  0.0000  0.0000 </r>
        <r>  0.0316  0.0989  0.0000  0.0000  0.0000  0.0000  0.0000  0.0000  0.0000 </r>
       </set>
       <set comment="band 6">
        <r>  0.1000  0.0626  0.0000  0.0000  0.0000  0.0000  0.0000  0.0000  0.0000 </r>
        <r>  0.1000  0.0626  0.0000  0.0000  0.0000  0.0000  0.0000  0.0000  0.0000 </r>
       </set>
       <set comment="band 7">
        <r>  0.0000  0.0000  0.0926  0.0741  0.0000  0.0000  0.0000  0.0000  0.0000 </r>
        <r>  0.0000  0.0000  0.0926  0.0741  0.0000  0.0000  0.0000  0.0000  0.0000 </r>
       </set>
       <set comment="band 8">
        <r>  0.0000  0.0000  0.0740  0.0913  0.0000  0.0000  0.0000  0.0000  0.0000 </r>
        <r>  0.0000  0.0000  0.0740  0.0913  0.0000  0.0000  0.0000  0.0000  0.0000 </r>
       </set>
      </set>
      <set comment="kpoint 56">
       <set comment="band 1">
        <r>  0.2096  0.0070  0.0000  0.0000  0.0000  0.0000  0.0000  0.0000  0.0000 </r>
        <r>  0.2096  0.0070  0.0000  0.0000  0.0000  0.0000  0.0000  0.0000  0.0000 </r>
       </set>
       <set comment="band 2">
        <r>  0.1360  0.1166  0.0000  0.0000  0.0000  0.0000  0.0000  0.0000  0.0000 </r>
        <r>  0.1360  0.1166  0.0000  0.0000  0.0000  0.0000  0.0000  0.0000  0.0000 </r>
       </set>
       <set comment="band 3">
        <r>  0.0000  0.0000  0.0583  0.1417  0.0000  0.0000  0.0000  0.0000  0.0000 </r>
        <r>  0.0000  0.0000  0.0583  0.1417  0.0000  0.0000  0.0000  0.0000  0.0000 </r>
       </set>
       <set comment="band 4">
        <r>  0.0000  0.0000  0.1407  0.0584  0.0000  0.0000  0.0000  0.0000  0.0000 </r>
        <r>  0.0000  0.0000  0.1407  0.0584  0.0000  0.0000  0.0000  0.0000  0.0000 </r>
       </set>
       <set comment="band 5">
        <r>  0.0339  0.0946  0.0000  0.0000  0.0000  0.0000  0.0000  0.0000  0.0000 </r>
        <r>  0.0339  0.0946  0.0000  0.0000  0.0000  0.0000  0.0000  0.0000  0.0000 </r>
       </set>
       <set comment="band 6">
        <r>  0.0830  0.0568  0.0000  0.0000  0.0000  0.0000  0.0000  0.0000  0.0000 </r>
        <r>  0.0830  0.0568  0.0000  0.0000  0.0000  0.0000  0.0000  0.0000  0.0000 </r>
       </set>
       <set comment="band 7">
        <r>  0.0000  0.0000  0.0893  0.0776  0.0000  0.0000  0.0000  0.0000  0.0000 </r>
        <r>  0.0000  0.0000  0.0893  0.0776  0.0000  0.0000  0.0000  0.0000  0.0000 </r>
       </set>
       <set comment="band 8">
        <r>  0.0000  0.0000  0.0775  0.0882  0.0000  0.0000  0.0000  0.0000  0.0000 </r>
        <r>  0.0000  0.0000  0.0775  0.0882  0.0000  0.0000  0.0000  0.0000  0.0000 </r>
       </set>
      </set>
      <set comment="kpoint 57">
       <set comment="band 1">
        <r>  0.2092  0.0079  0.0000  0.0000  0.0000  0.0000  0.0000  0.0000  0.0000 </r>
        <r>  0.2092  0.0079  0.0000  0.0000  0.0000  0.0000  0.0000  0.0000  0.0000 </r>
       </set>
       <set comment="band 2">
        <r>  0.1413  0.1122  0.0000  0.0000  0.0000  0.0000  0.0000  0.0000  0.0000 </r>
        <r>  0.1413  0.1122  0.0000  0.0000  0.0000  0.0000  0.0000  0.0000  0.0000 </r>
       </set>
       <set comment="band 3">
        <r>  0.0000  0.0000  0.0610  0.1386  0.0000  0.0000  0.0000  0.0000  0.0000 </r>
        <r>  0.0000  0.0000  0.0610  0.1386  0.0000  0.0000  0.0000  0.0000  0.0000 </r>
       </set>
       <set comment="band 4">
        <r>  0.0000  0.0000  0.1377  0.0609  0.0000  0.0000  0.0000  0.0000  0.0000 </r>
        <r>  0.0000  0.0000  0.1377  0.0609  0.0000  0.0000  0.0000  0.0000  0.0000 </r>
       </set>
       <set comment="band 5">
        <r>  0.0361  0.0905  0.0000  0.0000  0.0000  0.0000  0.0000  0.0000  0.0000 </r>
        <r>  0.0361  0.0905  0.0000  0.0000  0.0000  0.0000  0.0000  0.0000  0.0000 </r>
       </set>
       <set comment="band 6">
        <r>  0.0709  0.0518  0.0000  0.0000  0.0000  0.0000  0.0000  0.0000  0.0000 </r>
        <r>  0.0709  0.0518  0.0000  0.0000  0.0000  0.0000  0.0000  0.0000  0.0000 </r>
       </set>
       <set comment="band 7">
        <r>  0.0000  0.0000  0.0862  0.0810  0.0000  0.0000  0.0000  0.0000  0.0000 </r>
        <r>  0.0000  0.0000  0.0861  0.0810  0.0000  0.0000  0.0000  0.0000  0.0000 </r>
       </set>
       <set comment="band 8">
        <r>  0.0000  0.0000  0.0807  0.0852  0.0000  0.0000  0.0000  0.0000  0.0000 </r>
        <r>  0.0000  0.0000  0.0807  0.0852  0.0000  0.0000  0.0000  0.0000  0.0000 </r>
       </set>
      </set>
      <set comment="kpoint 58">
       <set comment="band 1">
        <r>  0.2087  0.0089  0.0000  0.0000  0.0000  0.0000  0.0000  0.0000  0.0000 </r>
        <r>  0.2087  0.0089  0.0000  0.0000  0.0000  0.0000  0.0000  0.0000  0.0000 </r>
       </set>
       <set comment="band 2">
        <r>  0.1461  0.1080  0.0000  0.0000  0.0000  0.0000  0.0000  0.0000  0.0000 </r>
        <r>  0.1461  0.1080  0.0000  0.0000  0.0000  0.0000  0.0000  0.0000  0.0000 </r>
       </set>
       <set comment="band 3">
        <r>  0.0000  0.0000  0.0635  0.1356  0.0000  0.0000  0.0000  0.0000  0.0000 </r>
        <r>  0.0000  0.0000  0.0635  0.1356  0.0000  0.0000  0.0000  0.0000  0.0000 </r>
       </set>
       <set comment="band 4">
        <r>  0.0000  0.0000  0.1349  0.0634  0.0000  0.0000  0.0000  0.0000  0.0000 </r>
        <r>  0.0000  0.0000  0.1349  0.0634  0.0000  0.0000  0.0000  0.0000  0.0000 </r>
       </set>
       <set comment="band 5">
        <r>  0.0382  0.0866  0.0000  0.0000  0.0000  0.0000  0.0000  0.0000  0.0000 </r>
        <r>  0.0382  0.0866  0.0000  0.0000  0.0000  0.0000  0.0000  0.0000  0.0000 </r>
       </set>
       <set comment="band 6">
        <r>  0.0623  0.0477  0.0000  0.0000  0.0000  0.0000  0.0000  0.0000  0.0000 </r>
        <r>  0.0623  0.0477  0.0000  0.0000  0.0000  0.0000  0.0000  0.0000  0.0000 </r>
       </set>
       <set comment="band 7">
        <r>  0.0000  0.0000  0.0832  0.0841  0.0000  0.0000  0.0000  0.0000  0.0000 </r>
        <r>  0.0000  0.0000  0.0832  0.0841  0.0000  0.0000  0.0000  0.0000  0.0000 </r>
       </set>
       <set comment="band 8">
        <r>  0.0000  0.0000  0.0837  0.0824  0.0000  0.0000  0.0000  0.0000  0.0000 </r>
        <r>  0.0000  0.0000  0.0837  0.0824  0.0000  0.0000  0.0000  0.0000  0.0000 </r>
       </set>
      </set>
      <set comment="kpoint 59">
       <set comment="band 1">
        <r>  0.2082  0.0100  0.0000  0.0000  0.0000  0.0000  0.0000  0.0000  0.0000 </r>
        <r>  0.2082  0.0100  0.0000  0.0000  0.0000  0.0000  0.0000  0.0000  0.0000 </r>
       </set>
       <set comment="band 2">
        <r>  0.1505  0.1040  0.0000  0.0000  0.0000  0.0000  0.0000  0.0000  0.0000 </r>
        <r>  0.1505  0.1040  0.0000  0.0000  0.0000  0.0000  0.0000  0.0000  0.0000 </r>
       </set>
       <set comment="band 3">
        <r>  0.0000  0.0000  0.0658  0.1330  0.0000  0.0000  0.0000  0.0000  0.0000 </r>
        <r>  0.0000  0.0000  0.0658  0.1330  0.0000  0.0000  0.0000  0.0000  0.0000 </r>
       </set>
       <set comment="band 4">
        <r>  0.0000  0.0000  0.1323  0.0656  0.0000  0.0000  0.0000  0.0000  0.0000 </r>
        <r>  0.0000  0.0000  0.1323  0.0656  0.0000  0.0000  0.0000  0.0000  0.0000 </r>
       </set>
       <set comment="band 5">
        <r>  0.0401  0.0828  0.0000  0.0000  0.0000  0.0000  0.0000  0.0000  0.0000 </r>
        <r>  0.0401  0.0828  0.0000  0.0000  0.0000  0.0000  0.0000  0.0000  0.0000 </r>
       </set>
       <set comment="band 6">
        <r>  0.0562  0.0444  0.0000  0.0000  0.0000  0.0000  0.0000  0.0000  0.0000 </r>
        <r>  0.0562  0.0444  0.0000  0.0000  0.0000  0.0000  0.0000  0.0000  0.0000 </r>
       </set>
       <set comment="band 7">
        <r>  0.0000  0.0000  0.0805  0.0869  0.0000  0.0000  0.0000  0.0000  0.0000 </r>
        <r>  0.0000  0.0000  0.0805  0.0869  0.0000  0.0000  0.0000  0.0000  0.0000 </r>
       </set>
       <set comment="band 8">
        <r>  0.0000  0.0000  0.0865  0.0798  0.0000  0.0000  0.0000  0.0000  0.0000 </r>
        <r>  0.0000  0.0000  0.0865  0.0798  0.0000  0.0000  0.0000  0.0000  0.0000 </r>
       </set>
      </set>
      <set comment="kpoint 60">
       <set comment="band 1">
        <r>  0.2077  0.0111  0.0000  0.0000  0.0000  0.0000  0.0000  0.0000  0.0000 </r>
        <r>  0.2077  0.0111  0.0000  0.0000  0.0000  0.0000  0.0000  0.0000  0.0000 </r>
       </set>
       <set comment="band 2">
        <r>  0.1546  0.1003  0.0000  0.0000  0.0000  0.0000  0.0000  0.0000  0.0000 </r>
        <r>  0.1546  0.1003  0.0000  0.0000  0.0000  0.0000  0.0000  0.0000  0.0000 </r>
       </set>
       <set comment="band 3">
        <r>  0.0000  0.0000  0.0680  0.1305  0.0000  0.0000  0.0000  0.0000  0.0000 </r>
        <r>  0.0000  0.0000  0.0680  0.1305  0.0000  0.0000  0.0000  0.0000  0.0000 </r>
       </set>
       <set comment="band 4">
        <r>  0.0000  0.0000  0.1299  0.0678  0.0000  0.0000  0.0000  0.0000  0.0000 </r>
        <r>  0.0000  0.0000  0.1299  0.0678  0.0000  0.0000  0.0000  0.0000  0.0000 </r>
       </set>
       <set comment="band 5">
        <r>  0.0418  0.0792  0.0000  0.0000  0.0000  0.0000  0.0000  0.0000  0.0000 </r>
        <r>  0.0418  0.0792  0.0000  0.0000  0.0000  0.0000  0.0000  0.0000  0.0000 </r>
       </set>
       <set comment="band 6">
        <r>  0.0518  0.0417  0.0000  0.0000  0.0000  0.0000  0.0000  0.0000  0.0000 </r>
        <r>  0.0518  0.0417  0.0000  0.0000  0.0000  0.0000  0.0000  0.0000  0.0000 </r>
       </set>
       <set comment="band 7">
        <r>  0.0000  0.0000  0.0779  0.0894  0.0000  0.0000  0.0000  0.0000  0.0000 </r>
        <r>  0.0000  0.0000  0.0778  0.0894  0.0000  0.0000  0.0000  0.0000  0.0000 </r>
       </set>
       <set comment="band 8">
        <r>  0.0000  0.0000  0.0889  0.0773  0.0000  0.0000  0.0000  0.0000  0.0000 </r>
        <r>  0.0000  0.0000  0.0889  0.0773  0.0000  0.0000  0.0000  0.0000  0.0000 </r>
       </set>
      </set>
      <set comment="kpoint 61">
       <set comment="band 1">
        <r>  0.2072  0.0123  0.0000  0.0000  0.0000  0.0000  0.0000  0.0000  0.0000 </r>
        <r>  0.2072  0.0123  0.0000  0.0000  0.0000  0.0000  0.0000  0.0000  0.0000 </r>
       </set>
       <set comment="band 2">
        <r>  0.1584  0.0967  0.0000  0.0000  0.0000  0.0000  0.0000  0.0000  0.0000 </r>
        <r>  0.1584  0.0967  0.0000  0.0000  0.0000  0.0000  0.0000  0.0000  0.0000 </r>
       </set>
       <set comment="band 3">
        <r>  0.0000  0.0000  0.0701  0.1281  0.0000  0.0000  0.0000  0.0000  0.0000 </r>
        <r>  0.0000  0.0000  0.0701  0.1281  0.0000  0.0000  0.0000  0.0000  0.0000 </r>
       </set>
       <set comment="band 4">
        <r>  0.0000  0.0000  0.1276  0.0698  0.0000  0.0000  0.0000  0.0000  0.0000 </r>
        <r>  0.0000  0.0000  0.1276  0.0698  0.0000  0.0000  0.0000  0.0000  0.0000 </r>
       </set>
       <set comment="band 5">
        <r>  0.0434  0.0758  0.0000  0.0000  0.0000  0.0000  0.0000  0.0000  0.0000 </r>
        <r>  0.0434  0.0758  0.0000  0.0000  0.0000  0.0000  0.0000  0.0000  0.0000 </r>
       </set>
       <set comment="band 6">
        <r>  0.0488  0.0395  0.0000  0.0000  0.0000  0.0000  0.0000  0.0000  0.0000 </r>
        <r>  0.0488  0.0395  0.0000  0.0000  0.0000  0.0000  0.0000  0.0000  0.0000 </r>
       </set>
       <set comment="band 7">
        <r>  0.0000  0.0000  0.0754  0.0918  0.0000  0.0000  0.0000  0.0000  0.0000 </r>
        <r>  0.0000  0.0000  0.0754  0.0918  0.0000  0.0000  0.0000  0.0000  0.0000 </r>
       </set>
       <set comment="band 8">
        <r>  0.0000  0.0000  0.0911  0.0749  0.0000  0.0000  0.0000  0.0000  0.0000 </r>
        <r>  0.0000  0.0000  0.0912  0.0749  0.0000  0.0000  0.0000  0.0000  0.0000 </r>
       </set>
      </set>
      <set comment="kpoint 62">
       <set comment="band 1">
        <r>  0.2067  0.0135  0.0000  0.0000  0.0000  0.0000  0.0000  0.0000  0.0000 </r>
        <r>  0.2067  0.0135  0.0000  0.0000  0.0000  0.0000  0.0000  0.0000  0.0000 </r>
       </set>
       <set comment="band 2">
        <r>  0.1618  0.0932  0.0000  0.0000  0.0000  0.0000  0.0000  0.0000  0.0000 </r>
        <r>  0.1618  0.0932  0.0000  0.0000  0.0000  0.0000  0.0000  0.0000  0.0000 </r>
       </set>
       <set comment="band 3">
        <r>  0.0000  0.0000  0.0721  0.1259  0.0000  0.0000  0.0000  0.0000  0.0000 </r>
        <r>  0.0000  0.0000  0.0721  0.1259  0.0000  0.0000  0.0000  0.0000  0.0000 </r>
       </set>
       <set comment="band 4">
        <r>  0.0000  0.0000  0.1255  0.0718  0.0000  0.0000  0.0000  0.0000  0.0000 </r>
        <r>  0.0000  0.0000  0.1255  0.0718  0.0000  0.0000  0.0000  0.0000  0.0000 </r>
       </set>
       <set comment="band 5">
        <r>  0.0449  0.0725  0.0000  0.0000  0.0000  0.0000  0.0000  0.0000  0.0000 </r>
        <r>  0.0449  0.0725  0.0000  0.0000  0.0000  0.0000  0.0000  0.0000  0.0000 </r>
       </set>
       <set comment="band 6">
        <r>  0.0467  0.0377  0.0000  0.0000  0.0000  0.0000  0.0000  0.0000  0.0000 </r>
        <r>  0.0467  0.0377  0.0000  0.0000  0.0000  0.0000  0.0000  0.0000  0.0000 </r>
       </set>
       <set comment="band 7">
        <r>  0.0000  0.0000  0.0730  0.0939  0.0000  0.0000  0.0000  0.0000  0.0000 </r>
        <r>  0.0000  0.0000  0.0730  0.0939  0.0000  0.0000  0.0000  0.0000  0.0000 </r>
       </set>
       <set comment="band 8">
        <r>  0.0000  0.0000  0.0933  0.0727  0.0000  0.0000  0.0000  0.0000  0.0000 </r>
        <r>  0.0000  0.0000  0.0933  0.0727  0.0000  0.0000  0.0000  0.0000  0.0000 </r>
       </set>
      </set>
      <set comment="kpoint 63">
       <set comment="band 1">
        <r>  0.2062  0.0149  0.0000  0.0000  0.0000  0.0000  0.0000  0.0000  0.0000 </r>
        <r>  0.2062  0.0149  0.0000  0.0000  0.0000  0.0000  0.0000  0.0000  0.0000 </r>
       </set>
       <set comment="band 2">
        <r>  0.1649  0.0899  0.0000  0.0000  0.0000  0.0000  0.0000  0.0000  0.0000 </r>
        <r>  0.1649  0.0899  0.0000  0.0000  0.0000  0.0000  0.0000  0.0000  0.0000 </r>
       </set>
       <set comment="band 3">
        <r>  0.0000  0.0000  0.0739  0.1239  0.0000  0.0000  0.0000  0.0000  0.0000 </r>
        <r>  0.0000  0.0000  0.0739  0.1239  0.0000  0.0000  0.0000  0.0000  0.0000 </r>
       </set>
       <set comment="band 4">
        <r>  0.0000  0.0000  0.1235  0.0736  0.0000  0.0000  0.0000  0.0000  0.0000 </r>
        <r>  0.0000  0.0000  0.1235  0.0736  0.0000  0.0000  0.0000  0.0000  0.0000 </r>
       </set>
       <set comment="band 5">
        <r>  0.0462  0.0695  0.0000  0.0000  0.0000  0.0000  0.0000  0.0000  0.0000 </r>
        <r>  0.0462  0.0695  0.0000  0.0000  0.0000  0.0000  0.0000  0.0000  0.0000 </r>
       </set>
       <set comment="band 6">
        <r>  0.0452  0.0362  0.0000  0.0000  0.0000  0.0000  0.0000  0.0000  0.0000 </r>
        <r>  0.0452  0.0362  0.0000  0.0000  0.0000  0.0000  0.0000  0.0000  0.0000 </r>
       </set>
       <set comment="band 7">
        <r>  0.0000  0.0000  0.0710  0.0958  0.0000  0.0000  0.0000  0.0000  0.0000 </r>
        <r>  0.0000  0.0000  0.0710  0.0958  0.0000  0.0000  0.0000  0.0000  0.0000 </r>
       </set>
       <set comment="band 8">
        <r>  0.0000  0.0000  0.0952  0.0707  0.0000  0.0000  0.0000  0.0000  0.0000 </r>
        <r>  0.0000  0.0000  0.0952  0.0707  0.0000  0.0000  0.0000  0.0000  0.0000 </r>
       </set>
      </set>
      <set comment="kpoint 64">
       <set comment="band 1">
        <r>  0.2056  0.0162  0.0000  0.0000  0.0000  0.0000  0.0000  0.0000  0.0000 </r>
        <r>  0.2056  0.0162  0.0000  0.0000  0.0000  0.0000  0.0000  0.0000  0.0000 </r>
       </set>
       <set comment="band 2">
        <r>  0.1678  0.0867  0.0000  0.0000  0.0000  0.0000  0.0000  0.0000  0.0000 </r>
        <r>  0.1678  0.0867  0.0000  0.0000  0.0000  0.0000  0.0000  0.0000  0.0000 </r>
       </set>
       <set comment="band 3">
        <r>  0.0000  0.0000  0.0757  0.1219  0.0000  0.0000  0.0000  0.0000  0.0000 </r>
        <r>  0.0000  0.0000  0.0757  0.1219  0.0000  0.0000  0.0000  0.0000  0.0000 </r>
       </set>
       <set comment="band 4">
        <r>  0.0000  0.0000  0.1217  0.0754  0.0000  0.0000  0.0000  0.0000  0.0000 </r>
        <r>  0.0000  0.0000  0.1217  0.0754  0.0000  0.0000  0.0000  0.0000  0.0000 </r>
       </set>
       <set comment="band 5">
        <r>  0.0474  0.0665  0.0000  0.0000  0.0000  0.0000  0.0000  0.0000  0.0000 </r>
        <r>  0.0474  0.0665  0.0000  0.0000  0.0000  0.0000  0.0000  0.0000  0.0000 </r>
       </set>
       <set comment="band 6">
        <r>  0.0443  0.0349  0.0000  0.0000  0.0000  0.0000  0.0000  0.0000  0.0000 </r>
        <r>  0.0443  0.0349  0.0000  0.0000  0.0000  0.0000  0.0000  0.0000  0.0000 </r>
       </set>
       <set comment="band 7">
        <r>  0.0000  0.0000  0.0690  0.0976  0.0000  0.0000  0.0000  0.0000  0.0000 </r>
        <r>  0.0000  0.0000  0.0690  0.0976  0.0000  0.0000  0.0000  0.0000  0.0000 </r>
       </set>
       <set comment="band 8">
        <r>  0.0000  0.0000  0.0972  0.0688  0.0000  0.0000  0.0000  0.0000  0.0000 </r>
        <r>  0.0000  0.0000  0.0972  0.0688  0.0000  0.0000  0.0000  0.0000  0.0000 </r>
       </set>
      </set>
      <set comment="kpoint 65">
       <set comment="band 1">
        <r>  0.2050  0.0176  0.0000  0.0000  0.0000  0.0000  0.0000  0.0000  0.0000 </r>
        <r>  0.2050  0.0176  0.0000  0.0000  0.0000  0.0000  0.0000  0.0000  0.0000 </r>
       </set>
       <set comment="band 2">
        <r>  0.1705  0.0836  0.0000  0.0000  0.0000  0.0000  0.0000  0.0000  0.0000 </r>
        <r>  0.1705  0.0836  0.0000  0.0000  0.0000  0.0000  0.0000  0.0000  0.0000 </r>
       </set>
       <set comment="band 3">
        <r>  0.0000  0.0000  0.0774  0.1200  0.0000  0.0000  0.0000  0.0000  0.0000 </r>
        <r>  0.0000  0.0000  0.0774  0.1200  0.0000  0.0000  0.0000  0.0000  0.0000 </r>
       </set>
       <set comment="band 4">
        <r>  0.0000  0.0000  0.1199  0.0770  0.0000  0.0000  0.0000  0.0000  0.0000 </r>
        <r>  0.0000  0.0000  0.1199  0.0770  0.0000  0.0000  0.0000  0.0000  0.0000 </r>
       </set>
       <set comment="band 5">
        <r>  0.0485  0.0637  0.0000  0.0000  0.0000  0.0000  0.0000  0.0000  0.0000 </r>
        <r>  0.0485  0.0637  0.0000  0.0000  0.0000  0.0000  0.0000  0.0000  0.0000 </r>
       </set>
       <set comment="band 6">
        <r>  0.0438  0.0339  0.0000  0.0000  0.0000  0.0000  0.0000  0.0000  0.0000 </r>
        <r>  0.0438  0.0339  0.0000  0.0000  0.0000  0.0000  0.0000  0.0000  0.0000 </r>
       </set>
       <set comment="band 7">
        <r>  0.0000  0.0000  0.0671  0.0992  0.0000  0.0000  0.0000  0.0000  0.0000 </r>
        <r>  0.0000  0.0000  0.0671  0.0992  0.0000  0.0000  0.0000  0.0000  0.0000 </r>
       </set>
       <set comment="band 8">
        <r>  0.0000  0.0000  0.0988  0.0671  0.0000  0.0000  0.0000  0.0000  0.0000 </r>
        <r>  0.0000  0.0000  0.0988  0.0671  0.0000  0.0000  0.0000  0.0000  0.0000 </r>
       </set>
      </set>
      <set comment="kpoint 66">
       <set comment="band 1">
        <r>  0.2044  0.0191  0.0000  0.0000  0.0000  0.0000  0.0000  0.0000  0.0000 </r>
        <r>  0.2044  0.0191  0.0000  0.0000  0.0000  0.0000  0.0000  0.0000  0.0000 </r>
       </set>
       <set comment="band 2">
        <r>  0.1730  0.0806  0.0000  0.0000  0.0000  0.0000  0.0000  0.0000  0.0000 </r>
        <r>  0.1730  0.0806  0.0000  0.0000  0.0000  0.0000  0.0000  0.0000  0.0000 </r>
       </set>
       <set comment="band 3">
        <r>  0.0000  0.0000  0.0791  0.1182  0.0000  0.0000  0.0000  0.0000  0.0000 </r>
        <r>  0.0000  0.0000  0.0791  0.1182  0.0000  0.0000  0.0000  0.0000  0.0000 </r>
       </set>
       <set comment="band 4">
        <r>  0.0000  0.0000  0.1181  0.0787  0.0000  0.0000  0.0000  0.0000  0.0000 </r>
        <r>  0.0000  0.0000  0.1181  0.0787  0.0000  0.0000  0.0000  0.0000  0.0000 </r>
       </set>
       <set comment="band 5">
        <r>  0.0495  0.0610  0.0000  0.0000  0.0000  0.0000  0.0000  0.0000  0.0000 </r>
        <r>  0.0495  0.0610  0.0000  0.0000  0.0000  0.0000  0.0000  0.0000  0.0000 </r>
       </set>
       <set comment="band 6">
        <r>  0.0437  0.0332  0.0000  0.0000  0.0000  0.0000  0.0000  0.0000  0.0000 </r>
        <r>  0.0437  0.0332  0.0000  0.0000  0.0000  0.0000  0.0000  0.0000  0.0000 </r>
       </set>
       <set comment="band 7">
        <r>  0.0000  0.0000  0.0653  0.1008  0.0000  0.0000  0.0000  0.0000  0.0000 </r>
        <r>  0.0000  0.0000  0.0653  0.1008  0.0000  0.0000  0.0000  0.0000  0.0000 </r>
       </set>
       <set comment="band 8">
        <r>  0.0000  0.0000  0.1004  0.0655  0.0000  0.0000  0.0000  0.0000  0.0000 </r>
        <r>  0.0000  0.0000  0.1004  0.0655  0.0000  0.0000  0.0000  0.0000  0.0000 </r>
       </set>
      </set>
      <set comment="kpoint 67">
       <set comment="band 1">
        <r>  0.2038  0.0206  0.0000  0.0000  0.0000  0.0000  0.0000  0.0000  0.0000 </r>
        <r>  0.2038  0.0206  0.0000  0.0000  0.0000  0.0000  0.0000  0.0000  0.0000 </r>
       </set>
       <set comment="band 2">
        <r>  0.1753  0.0776  0.0000  0.0000  0.0000  0.0000  0.0000  0.0000  0.0000 </r>
        <r>  0.1753  0.0776  0.0000  0.0000  0.0000  0.0000  0.0000  0.0000  0.0000 </r>
       </set>
       <set comment="band 3">
        <r>  0.0000  0.0000  0.0807  0.1165  0.0000  0.0000  0.0000  0.0000  0.0000 </r>
        <r>  0.0000  0.0000  0.0807  0.1165  0.0000  0.0000  0.0000  0.0000  0.0000 </r>
       </set>
       <set comment="band 4">
        <r>  0.0000  0.0000  0.1165  0.0803  0.0000  0.0000  0.0000  0.0000  0.0000 </r>
        <r>  0.0000  0.0000  0.1165  0.0803  0.0000  0.0000  0.0000  0.0000  0.0000 </r>
       </set>
       <set comment="band 5">
        <r>  0.0503  0.0584  0.0000  0.0000  0.0000  0.0000  0.0000  0.0000  0.0000 </r>
        <r>  0.0503  0.0584  0.0000  0.0000  0.0000  0.0000  0.0000  0.0000  0.0000 </r>
       </set>
       <set comment="band 6">
        <r>  0.0437  0.0325  0.0000  0.0000  0.0000  0.0000  0.0000  0.0000  0.0000 </r>
        <r>  0.0437  0.0325  0.0000  0.0000  0.0000  0.0000  0.0000  0.0000  0.0000 </r>
       </set>
       <set comment="band 7">
        <r>  0.0000  0.0000  0.0637  0.1021  0.0000  0.0000  0.0000  0.0000  0.0000 </r>
        <r>  0.0000  0.0000  0.0637  0.1021  0.0000  0.0000  0.0000  0.0000  0.0000 </r>
       </set>
       <set comment="band 8">
        <r>  0.0000  0.0000  0.1017  0.0640  0.0000  0.0000  0.0000  0.0000  0.0000 </r>
        <r>  0.0000  0.0000  0.1017  0.0640  0.0000  0.0000  0.0000  0.0000  0.0000 </r>
       </set>
      </set>
      <set comment="kpoint 68">
       <set comment="band 1">
        <r>  0.2031  0.0222  0.0000  0.0000  0.0000  0.0000  0.0000  0.0000  0.0000 </r>
        <r>  0.2031  0.0222  0.0000  0.0000  0.0000  0.0000  0.0000  0.0000  0.0000 </r>
       </set>
       <set comment="band 2">
        <r>  0.1774  0.0747  0.0000  0.0000  0.0000  0.0000  0.0000  0.0000  0.0000 </r>
        <r>  0.1774  0.0747  0.0000  0.0000  0.0000  0.0000  0.0000  0.0000  0.0000 </r>
       </set>
       <set comment="band 3">
        <r>  0.0000  0.0000  0.0823  0.1148  0.0000  0.0000  0.0000  0.0000  0.0000 </r>
        <r>  0.0000  0.0000  0.0823  0.1148  0.0000  0.0000  0.0000  0.0000  0.0000 </r>
       </set>
       <set comment="band 4">
        <r>  0.0000  0.0000  0.1148  0.0818  0.0000  0.0000  0.0000  0.0000  0.0000 </r>
        <r>  0.0000  0.0000  0.1148  0.0818  0.0000  0.0000  0.0000  0.0000  0.0000 </r>
       </set>
       <set comment="band 5">
        <r>  0.0510  0.0560  0.0000  0.0000  0.0000  0.0000  0.0000  0.0000  0.0000 </r>
        <r>  0.0510  0.0560  0.0000  0.0000  0.0000  0.0000  0.0000  0.0000  0.0000 </r>
       </set>
       <set comment="band 6">
        <r>  0.0440  0.0321  0.0000  0.0000  0.0000  0.0000  0.0000  0.0000  0.0000 </r>
        <r>  0.0440  0.0321  0.0000  0.0000  0.0000  0.0000  0.0000  0.0000  0.0000 </r>
       </set>
       <set comment="band 7">
        <r>  0.0000  0.0000  0.0623  0.1033  0.0000  0.0000  0.0000  0.0000  0.0000 </r>
        <r>  0.0000  0.0000  0.0623  0.1033  0.0000  0.0000  0.0000  0.0000  0.0000 </r>
       </set>
       <set comment="band 8">
        <r>  0.0000  0.0000  0.1031  0.0627  0.0000  0.0000  0.0000  0.0000  0.0000 </r>
        <r>  0.0000  0.0000  0.1031  0.0627  0.0000  0.0000  0.0000  0.0000  0.0000 </r>
       </set>
      </set>
      <set comment="kpoint 69">
       <set comment="band 1">
        <r>  0.2025  0.0238  0.0000  0.0000  0.0000  0.0000  0.0000  0.0000  0.0000 </r>
        <r>  0.2025  0.0238  0.0000  0.0000  0.0000  0.0000  0.0000  0.0000  0.0000 </r>
       </set>
       <set comment="band 2">
        <r>  0.1793  0.0720  0.0000  0.0000  0.0000  0.0000  0.0000  0.0000  0.0000 </r>
        <r>  0.1793  0.0720  0.0000  0.0000  0.0000  0.0000  0.0000  0.0000  0.0000 </r>
       </set>
       <set comment="band 3">
        <r>  0.0000  0.0000  0.0838  0.1133  0.0000  0.0000  0.0000  0.0000  0.0000 </r>
        <r>  0.0000  0.0000  0.0838  0.1133  0.0000  0.0000  0.0000  0.0000  0.0000 </r>
       </set>
       <set comment="band 4">
        <r>  0.0000  0.0000  0.1133  0.0833  0.0000  0.0000  0.0000  0.0000  0.0000 </r>
        <r>  0.0000  0.0000  0.1133  0.0833  0.0000  0.0000  0.0000  0.0000  0.0000 </r>
       </set>
       <set comment="band 5">
        <r>  0.0516  0.0537  0.0000  0.0000  0.0000  0.0000  0.0000  0.0000  0.0000 </r>
        <r>  0.0516  0.0537  0.0000  0.0000  0.0000  0.0000  0.0000  0.0000  0.0000 </r>
       </set>
       <set comment="band 6">
        <r>  0.0444  0.0318  0.0000  0.0000  0.0000  0.0000  0.0000  0.0000  0.0000 </r>
        <r>  0.0444  0.0318  0.0000  0.0000  0.0000  0.0000  0.0000  0.0000  0.0000 </r>
       </set>
       <set comment="band 7">
        <r>  0.0000  0.0000  0.0611  0.1047  0.0000  0.0000  0.0000  0.0000  0.0000 </r>
        <r>  0.0000  0.0000  0.0611  0.1047  0.0000  0.0000  0.0000  0.0000  0.0000 </r>
       </set>
       <set comment="band 8">
        <r>  0.0000  0.0000  0.1042  0.0617  0.0000  0.0000  0.0000  0.0000  0.0000 </r>
        <r>  0.0000  0.0000  0.1042  0.0618  0.0000  0.0000  0.0000  0.0000  0.0000 </r>
       </set>
      </set>
      <set comment="kpoint 70">
       <set comment="band 1">
        <r>  0.2018  0.0254  0.0000  0.0000  0.0000  0.0000  0.0000  0.0000  0.0000 </r>
        <r>  0.2018  0.0254  0.0000  0.0000  0.0000  0.0000  0.0000  0.0000  0.0000 </r>
       </set>
       <set comment="band 2">
        <r>  0.1811  0.0692  0.0000  0.0000  0.0000  0.0000  0.0000  0.0000  0.0000 </r>
        <r>  0.1811  0.0692  0.0000  0.0000  0.0000  0.0000  0.0000  0.0000  0.0000 </r>
       </set>
       <set comment="band 3">
        <r>  0.0000  0.0000  0.0853  0.1117  0.0000  0.0000  0.0000  0.0000  0.0000 </r>
        <r>  0.0000  0.0000  0.0853  0.1117  0.0000  0.0000  0.0000  0.0000  0.0000 </r>
       </set>
       <set comment="band 4">
        <r>  0.0000  0.0000  0.1118  0.0848  0.0000  0.0000  0.0000  0.0000  0.0000 </r>
        <r>  0.0000  0.0000  0.1118  0.0848  0.0000  0.0000  0.0000  0.0000  0.0000 </r>
       </set>
       <set comment="band 5">
        <r>  0.0521  0.0515  0.0000  0.0000  0.0000  0.0000  0.0000  0.0000  0.0000 </r>
        <r>  0.0521  0.0515  0.0000  0.0000  0.0000  0.0000  0.0000  0.0000  0.0000 </r>
       </set>
       <set comment="band 6">
        <r>  0.0449  0.0316  0.0000  0.0000  0.0000  0.0000  0.0000  0.0000  0.0000 </r>
        <r>  0.0449  0.0316  0.0000  0.0000  0.0000  0.0000  0.0000  0.0000  0.0000 </r>
       </set>
       <set comment="band 7">
        <r>  0.0000  0.0000  0.0602  0.1056  0.0000  0.0000  0.0000  0.0000  0.0000 </r>
        <r>  0.0000  0.0000  0.0601  0.1056  0.0000  0.0000  0.0000  0.0000  0.0000 </r>
       </set>
       <set comment="band 8">
        <r>  0.0000  0.0000  0.1053  0.0610  0.0000  0.0000  0.0000  0.0000  0.0000 </r>
        <r>  0.0000  0.0000  0.1053  0.0610  0.0000  0.0000  0.0000  0.0000  0.0000 </r>
       </set>
      </set>
      <set comment="kpoint 71">
       <set comment="band 1">
        <r>  0.2011  0.0272  0.0000  0.0000  0.0000  0.0000  0.0000  0.0000  0.0000 </r>
        <r>  0.2011  0.0272  0.0000  0.0000  0.0000  0.0000  0.0000  0.0000  0.0000 </r>
       </set>
       <set comment="band 2">
        <r>  0.1827  0.0666  0.0000  0.0000  0.0000  0.0000  0.0000  0.0000  0.0000 </r>
        <r>  0.1827  0.0666  0.0000  0.0000  0.0000  0.0000  0.0000  0.0000  0.0000 </r>
       </set>
       <set comment="band 3">
        <r>  0.0000  0.0000  0.0867  0.1102  0.0000  0.0000  0.0000  0.0000  0.0000 </r>
        <r>  0.0000  0.0000  0.0867  0.1102  0.0000  0.0000  0.0000  0.0000  0.0000 </r>
       </set>
       <set comment="band 4">
        <r>  0.0000  0.0000  0.1104  0.0862  0.0000  0.0000  0.0000  0.0000  0.0000 </r>
        <r>  0.0000  0.0000  0.1104  0.0862  0.0000  0.0000  0.0000  0.0000  0.0000 </r>
       </set>
       <set comment="band 5">
        <r>  0.0524  0.0494  0.0000  0.0000  0.0000  0.0000  0.0000  0.0000  0.0000 </r>
        <r>  0.0524  0.0494  0.0000  0.0000  0.0000  0.0000  0.0000  0.0000  0.0000 </r>
       </set>
       <set comment="band 6">
        <r>  0.0455  0.0315  0.0000  0.0000  0.0000  0.0000  0.0000  0.0000  0.0000 </r>
        <r>  0.0455  0.0315  0.0000  0.0000  0.0000  0.0000  0.0000  0.0000  0.0000 </r>
       </set>
       <set comment="band 7">
        <r>  0.0000  0.0000  0.0594  0.1066  0.0000  0.0000  0.0000  0.0000  0.0000 </r>
        <r>  0.0000  0.0000  0.0594  0.1066  0.0000  0.0000  0.0000  0.0000  0.0000 </r>
       </set>
       <set comment="band 8">
        <r>  0.0000  0.0000  0.1065  0.0605  0.0000  0.0000  0.0000  0.0000  0.0000 </r>
        <r>  0.0000  0.0000  0.1064  0.0606  0.0000  0.0000  0.0000  0.0000  0.0000 </r>
       </set>
      </set>
      <set comment="kpoint 72">
       <set comment="band 1">
        <r>  0.2004  0.0290  0.0000  0.0000  0.0000  0.0000  0.0000  0.0000  0.0000 </r>
        <r>  0.2004  0.0290  0.0000  0.0000  0.0000  0.0000  0.0000  0.0000  0.0000 </r>
       </set>
       <set comment="band 2">
        <r>  0.1843  0.0640  0.0000  0.0000  0.0000  0.0000  0.0000  0.0000  0.0000 </r>
        <r>  0.1843  0.0640  0.0000  0.0000  0.0000  0.0000  0.0000  0.0000  0.0000 </r>
       </set>
       <set comment="band 3">
        <r>  0.0000  0.0000  0.0880  0.1088  0.0000  0.0000  0.0000  0.0000  0.0000 </r>
        <r>  0.0000  0.0000  0.0880  0.1088  0.0000  0.0000  0.0000  0.0000  0.0000 </r>
       </set>
       <set comment="band 4">
        <r>  0.0000  0.0000  0.1090  0.0876  0.0000  0.0000  0.0000  0.0000  0.0000 </r>
        <r>  0.0000  0.0000  0.1090  0.0876  0.0000  0.0000  0.0000  0.0000  0.0000 </r>
       </set>
       <set comment="band 5">
        <r>  0.0527  0.0475  0.0000  0.0000  0.0000  0.0000  0.0000  0.0000  0.0000 </r>
        <r>  0.0527  0.0475  0.0000  0.0000  0.0000  0.0000  0.0000  0.0000  0.0000 </r>
       </set>
       <set comment="band 6">
        <r>  0.0461  0.0315  0.0000  0.0000  0.0000  0.0000  0.0000  0.0000  0.0000 </r>
        <r>  0.0461  0.0315  0.0000  0.0000  0.0000  0.0000  0.0000  0.0000  0.0000 </r>
       </set>
       <set comment="band 7">
        <r>  0.0000  0.0000  0.0592  0.1076  0.0000  0.0000  0.0000  0.0000  0.0000 </r>
        <r>  0.0000  0.0000  0.0592  0.1076  0.0000  0.0000  0.0000  0.0000  0.0000 </r>
       </set>
       <set comment="band 8">
        <r>  0.0000  0.0000  0.1076  0.0605  0.0000  0.0000  0.0000  0.0000  0.0000 </r>
        <r>  0.0000  0.0000  0.1077  0.0605  0.0000  0.0000  0.0000  0.0000  0.0000 </r>
       </set>
      </set>
      <set comment="kpoint 73">
       <set comment="band 1">
        <r>  0.1996  0.0308  0.0000  0.0000  0.0000  0.0000  0.0000  0.0000  0.0000 </r>
        <r>  0.1996  0.0308  0.0000  0.0000  0.0000  0.0000  0.0000  0.0000  0.0000 </r>
       </set>
       <set comment="band 2">
        <r>  0.1857  0.0614  0.0000  0.0000  0.0000  0.0000  0.0000  0.0000  0.0000 </r>
        <r>  0.1857  0.0614  0.0000  0.0000  0.0000  0.0000  0.0000  0.0000  0.0000 </r>
       </set>
       <set comment="band 3">
        <r>  0.0000  0.0000  0.0894  0.1074  0.0000  0.0000  0.0000  0.0000  0.0000 </r>
        <r>  0.0000  0.0000  0.0894  0.1074  0.0000  0.0000  0.0000  0.0000  0.0000 </r>
       </set>
       <set comment="band 4">
        <r>  0.0000  0.0000  0.1076  0.0890  0.0000  0.0000  0.0000  0.0000  0.0000 </r>
        <r>  0.0000  0.0000  0.1076  0.0890  0.0000  0.0000  0.0000  0.0000  0.0000 </r>
       </set>
       <set comment="band 5">
        <r>  0.0528  0.0457  0.0000  0.0000  0.0000  0.0000  0.0000  0.0000  0.0000 </r>
        <r>  0.0528  0.0457  0.0000  0.0000  0.0000  0.0000  0.0000  0.0000  0.0000 </r>
       </set>
       <set comment="band 6">
        <r>  0.0468  0.0317  0.0000  0.0000  0.0000  0.0000  0.0000  0.0000  0.0000 </r>
        <r>  0.0468  0.0317  0.0000  0.0000  0.0000  0.0000  0.0000  0.0000  0.0000 </r>
       </set>
       <set comment="band 7">
        <r>  0.0000  0.0000  0.0592  0.1086  0.0000  0.0000  0.0000  0.0000  0.0000 </r>
        <r>  0.0000  0.0000  0.0593  0.1086  0.0000  0.0000  0.0000  0.0000  0.0000 </r>
       </set>
       <set comment="band 8">
        <r>  0.0000  0.0000  0.1090  0.0610  0.0000  0.0000  0.0000  0.0000  0.0000 </r>
        <r>  0.0000  0.0000  0.1090  0.0611  0.0000  0.0000  0.0000  0.0000  0.0000 </r>
       </set>
      </set>
      <set comment="kpoint 74">
       <set comment="band 1">
        <r>  0.1989  0.0327  0.0000  0.0000  0.0000  0.0000  0.0000  0.0000  0.0000 </r>
        <r>  0.1989  0.0327  0.0000  0.0000  0.0000  0.0000  0.0000  0.0000  0.0000 </r>
       </set>
       <set comment="band 2">
        <r>  0.1871  0.0589  0.0000  0.0000  0.0000  0.0000  0.0000  0.0000  0.0000 </r>
        <r>  0.1871  0.0589  0.0000  0.0000  0.0000  0.0000  0.0000  0.0000  0.0000 </r>
       </set>
       <set comment="band 3">
        <r>  0.0000  0.0000  0.0907  0.1060  0.0000  0.0000  0.0000  0.0000  0.0000 </r>
        <r>  0.0000  0.0000  0.0907  0.1060  0.0000  0.0000  0.0000  0.0000  0.0000 </r>
       </set>
       <set comment="band 4">
        <r>  0.0000  0.0000  0.1063  0.0903  0.0000  0.0000  0.0000  0.0000  0.0000 </r>
        <r>  0.0000  0.0000  0.1063  0.0903  0.0000  0.0000  0.0000  0.0000  0.0000 </r>
       </set>
       <set comment="band 5">
        <r>  0.0529  0.0440  0.0000  0.0000  0.0000  0.0000  0.0000  0.0000  0.0000 </r>
        <r>  0.0529  0.0440  0.0000  0.0000  0.0000  0.0000  0.0000  0.0000  0.0000 </r>
       </set>
       <set comment="band 6">
        <r>  0.0475  0.0320  0.0000  0.0000  0.0000  0.0000  0.0000  0.0000  0.0000 </r>
        <r>  0.0475  0.0320  0.0000  0.0000  0.0000  0.0000  0.0000  0.0000  0.0000 </r>
       </set>
       <set comment="band 7">
        <r>  0.0000  0.0000  0.0599  0.1098  0.0000  0.0000  0.0000  0.0000  0.0000 </r>
        <r>  0.0000  0.0000  0.0599  0.1098  0.0000  0.0000  0.0000  0.0000  0.0000 </r>
       </set>
       <set comment="band 8">
        <r>  0.0000  0.0000  0.1108  0.0626  0.0000  0.0000  0.0000  0.0000  0.0000 </r>
        <r>  0.0000  0.0000  0.1109  0.0626  0.0000  0.0000  0.0000  0.0000  0.0000 </r>
       </set>
      </set>
      <set comment="kpoint 75">
       <set comment="band 1">
        <r>  0.1981  0.0346  0.0000  0.0000  0.0000  0.0000  0.0000  0.0000  0.0000 </r>
        <r>  0.1981  0.0346  0.0000  0.0000  0.0000  0.0000  0.0000  0.0000  0.0000 </r>
       </set>
       <set comment="band 2">
        <r>  0.1884  0.0564  0.0000  0.0000  0.0000  0.0000  0.0000  0.0000  0.0000 </r>
        <r>  0.1884  0.0564  0.0000  0.0000  0.0000  0.0000  0.0000  0.0000  0.0000 </r>
       </set>
       <set comment="band 3">
        <r>  0.0000  0.0000  0.0921  0.1047  0.0000  0.0000  0.0000  0.0000  0.0000 </r>
        <r>  0.0000  0.0000  0.0921  0.1047  0.0000  0.0000  0.0000  0.0000  0.0000 </r>
       </set>
       <set comment="band 4">
        <r>  0.0000  0.0000  0.1049  0.0916  0.0000  0.0000  0.0000  0.0000  0.0000 </r>
        <r>  0.0000  0.0000  0.1049  0.0916  0.0000  0.0000  0.0000  0.0000  0.0000 </r>
       </set>
       <set comment="band 5">
        <r>  0.0528  0.0424  0.0000  0.0000  0.0000  0.0000  0.0000  0.0000  0.0000 </r>
        <r>  0.0528  0.0424  0.0000  0.0000  0.0000  0.0000  0.0000  0.0000  0.0000 </r>
       </set>
       <set comment="band 6">
        <r>  0.0482  0.0324  0.0000  0.0000  0.0000  0.0000  0.0000  0.0000  0.0000 </r>
        <r>  0.0482  0.0324  0.0000  0.0000  0.0000  0.0000  0.0000  0.0000  0.0000 </r>
       </set>
       <set comment="band 7">
        <r>  0.0000  0.0000  0.0613  0.1113  0.0000  0.0000  0.0000  0.0000  0.0000 </r>
        <r>  0.0000  0.0000  0.0612  0.1115  0.0000  0.0000  0.0000  0.0000  0.0000 </r>
       </set>
       <set comment="band 8">
        <r>  0.0000  0.0000  0.1131  0.0650  0.0000  0.0000  0.0000  0.0000  0.0000 </r>
        <r>  0.0000  0.0000  0.1127  0.0652  0.0000  0.0000  0.0000  0.0000  0.0000 </r>
       </set>
      </set>
      <set comment="kpoint 76">
       <set comment="band 1">
        <r>  0.1973  0.0365  0.0000  0.0000  0.0000  0.0000  0.0000  0.0000  0.0000 </r>
        <r>  0.1973  0.0365  0.0000  0.0000  0.0000  0.0000  0.0000  0.0000  0.0000 </r>
       </set>
       <set comment="band 2">
        <r>  0.1896  0.0540  0.0000  0.0000  0.0000  0.0000  0.0000  0.0000  0.0000 </r>
        <r>  0.1896  0.0540  0.0000  0.0000  0.0000  0.0000  0.0000  0.0000  0.0000 </r>
       </set>
       <set comment="band 3">
        <r>  0.0000  0.0000  0.0934  0.1033  0.0000  0.0000  0.0000  0.0000  0.0000 </r>
        <r>  0.0000  0.0000  0.0934  0.1033  0.0000  0.0000  0.0000  0.0000  0.0000 </r>
       </set>
       <set comment="band 4">
        <r>  0.0000  0.0000  0.1036  0.0929  0.0000  0.0000  0.0000  0.0000  0.0000 </r>
        <r>  0.0000  0.0000  0.1036  0.0929  0.0000  0.0000  0.0000  0.0000  0.0000 </r>
       </set>
       <set comment="band 5">
        <r>  0.0527  0.0409  0.0000  0.0000  0.0000  0.0000  0.0000  0.0000  0.0000 </r>
        <r>  0.0527  0.0409  0.0000  0.0000  0.0000  0.0000  0.0000  0.0000  0.0000 </r>
       </set>
       <set comment="band 6">
        <r>  0.0489  0.0329  0.0000  0.0000  0.0000  0.0000  0.0000  0.0000  0.0000 </r>
        <r>  0.0489  0.0329  0.0000  0.0000  0.0000  0.0000  0.0000  0.0000  0.0000 </r>
       </set>
       <set comment="band 7">
        <r>  0.0000  0.0000  0.0640  0.1135  0.0000  0.0000  0.0000  0.0000  0.0000 </r>
        <r>  0.0000  0.0000  0.0640  0.1136  0.0000  0.0000  0.0000  0.0000  0.0000 </r>
       </set>
       <set comment="band 8">
        <r>  0.0000  0.0000  0.1158  0.0696  0.0000  0.0000  0.0000  0.0000  0.0000 </r>
        <r>  0.0000  0.0000  0.1158  0.0696  0.0000  0.0000  0.0000  0.0000  0.0000 </r>
       </set>
      </set>
      <set comment="kpoint 77">
       <set comment="band 1">
        <r>  0.1964  0.0386  0.0000  0.0000  0.0000  0.0000  0.0000  0.0000  0.0000 </r>
        <r>  0.1964  0.0386  0.0000  0.0000  0.0000  0.0000  0.0000  0.0000  0.0000 </r>
       </set>
       <set comment="band 2">
        <r>  0.1907  0.0517  0.0000  0.0000  0.0000  0.0000  0.0000  0.0000  0.0000 </r>
        <r>  0.1907  0.0517  0.0000  0.0000  0.0000  0.0000  0.0000  0.0000  0.0000 </r>
       </set>
       <set comment="band 3">
        <r>  0.0000  0.0000  0.0947  0.1020  0.0000  0.0000  0.0000  0.0000  0.0000 </r>
        <r>  0.0000  0.0000  0.0947  0.1020  0.0000  0.0000  0.0000  0.0000  0.0000 </r>
       </set>
       <set comment="band 4">
        <r>  0.0000  0.0000  0.1023  0.0942  0.0000  0.0000  0.0000  0.0000  0.0000 </r>
        <r>  0.0000  0.0000  0.1023  0.0942  0.0000  0.0000  0.0000  0.0000  0.0000 </r>
       </set>
       <set comment="band 5">
        <r>  0.0525  0.0395  0.0000  0.0000  0.0000  0.0000  0.0000  0.0000  0.0000 </r>
        <r>  0.0525  0.0395  0.0000  0.0000  0.0000  0.0000  0.0000  0.0000  0.0000 </r>
       </set>
       <set comment="band 6">
        <r>  0.0496  0.0335  0.0000  0.0000  0.0000  0.0000  0.0000  0.0000  0.0000 </r>
        <r>  0.0496  0.0335  0.0000  0.0000  0.0000  0.0000  0.0000  0.0000  0.0000 </r>
       </set>
       <set comment="band 7">
        <r>  0.0000  0.0000  0.0684  0.1169  0.0000  0.0000  0.0000  0.0000  0.0000 </r>
        <r>  0.0000  0.0000  0.0688  0.1160  0.0000  0.0000  0.0000  0.0000  0.0000 </r>
       </set>
       <set comment="band 8">
        <r>  0.0000  0.0000  0.1195  0.0774  0.0000  0.0000  0.0000  0.0000  0.0000 </r>
        <r>  0.0000  0.0000  0.1199  0.0772  0.0000  0.0000  0.0000  0.0000  0.0000 </r>
       </set>
      </set>
      <set comment="kpoint 78">
       <set comment="band 1">
        <r>  0.1956  0.0406  0.0000  0.0000  0.0000  0.0000  0.0000  0.0000  0.0000 </r>
        <r>  0.1956  0.0406  0.0000  0.0000  0.0000  0.0000  0.0000  0.0000  0.0000 </r>
       </set>
       <set comment="band 2">
        <r>  0.1917  0.0493  0.0000  0.0000  0.0000  0.0000  0.0000  0.0000  0.0000 </r>
        <r>  0.1917  0.0493  0.0000  0.0000  0.0000  0.0000  0.0000  0.0000  0.0000 </r>
       </set>
       <set comment="band 3">
        <r>  0.0000  0.0000  0.0959  0.1007  0.0000  0.0000  0.0000  0.0000  0.0000 </r>
        <r>  0.0000  0.0000  0.0959  0.1007  0.0000  0.0000  0.0000  0.0000  0.0000 </r>
       </set>
       <set comment="band 4">
        <r>  0.0000  0.0000  0.1011  0.0955  0.0000  0.0000  0.0000  0.0000  0.0000 </r>
        <r>  0.0000  0.0000  0.1011  0.0955  0.0000  0.0000  0.0000  0.0000  0.0000 </r>
       </set>
       <set comment="band 5">
        <r>  0.0522  0.0383  0.0000  0.0000  0.0000  0.0000  0.0000  0.0000  0.0000 </r>
        <r>  0.0522  0.0383  0.0000  0.0000  0.0000  0.0000  0.0000  0.0000  0.0000 </r>
       </set>
       <set comment="band 6">
        <r>  0.0502  0.0342  0.0000  0.0000  0.0000  0.0000  0.0000  0.0000  0.0000 </r>
        <r>  0.0502  0.0342  0.0000  0.0000  0.0000  0.0000  0.0000  0.0000  0.0000 </r>
       </set>
       <set comment="band 7">
        <r>  0.0000  0.0000  0.0769  0.1201  0.0000  0.0000  0.0000  0.0000  0.0000 </r>
        <r>  0.0000  0.0000  0.0767  0.1207  0.0000  0.0000  0.0000  0.0000  0.0000 </r>
       </set>
       <set comment="band 8">
        <r>  0.0000  0.0000  0.1245  0.0920  0.0000  0.0000  0.0000  0.0000  0.0000 </r>
        <r>  0.0000  0.0000  0.1252  0.0920  0.0000  0.0000  0.0000  0.0000  0.0000 </r>
       </set>
      </set>
      <set comment="kpoint 79">
       <set comment="band 1">
        <r>  0.1947  0.0427  0.0000  0.0000  0.0000  0.0000  0.0000  0.0000  0.0000 </r>
        <r>  0.1947  0.0427  0.0000  0.0000  0.0000  0.0000  0.0000  0.0000  0.0000 </r>
       </set>
       <set comment="band 2">
        <r>  0.1928  0.0471  0.0000  0.0000  0.0000  0.0000  0.0000  0.0000  0.0000 </r>
        <r>  0.1928  0.0471  0.0000  0.0000  0.0000  0.0000  0.0000  0.0000  0.0000 </r>
       </set>
       <set comment="band 3">
        <r>  0.0000  0.0000  0.0972  0.0994  0.0000  0.0000  0.0000  0.0000  0.0000 </r>
        <r>  0.0000  0.0000  0.0972  0.0994  0.0000  0.0000  0.0000  0.0000  0.0000 </r>
       </set>
       <set comment="band 4">
        <r>  0.0000  0.0000  0.0998  0.0968  0.0000  0.0000  0.0000  0.0000  0.0000 </r>
        <r>  0.0000  0.0000  0.0998  0.0968  0.0000  0.0000  0.0000  0.0000  0.0000 </r>
       </set>
       <set comment="band 5">
        <r>  0.0518  0.0371  0.0000  0.0000  0.0000  0.0000  0.0000  0.0000  0.0000 </r>
        <r>  0.0518  0.0371  0.0000  0.0000  0.0000  0.0000  0.0000  0.0000  0.0000 </r>
       </set>
       <set comment="band 6">
        <r>  0.0508  0.0351  0.0000  0.0000  0.0000  0.0000  0.0000  0.0000  0.0000 </r>
        <r>  0.0508  0.0351  0.0000  0.0000  0.0000  0.0000  0.0000  0.0000  0.0000 </r>
       </set>
       <set comment="band 7">
        <r>  0.0000  0.0000  0.0905  0.1256  0.0000  0.0000  0.0000  0.0000  0.0000 </r>
        <r>  0.0000  0.0000  0.0900  0.1243  0.0000  0.0000  0.0000  0.0000  0.0000 </r>
       </set>
       <set comment="band 8">
        <r>  0.0000  0.0000  0.1241  0.1110  0.0000  0.0000  0.0000  0.0000  0.0000 </r>
        <r>  0.0000  0.0000  0.1251  0.1107  0.0000  0.0000  0.0000  0.0000  0.0000 </r>
       </set>
      </set>
      <set comment="kpoint 80">
       <set comment="band 1">
        <r>  0.3729  0.0034  0.0000  0.0000  0.0000  0.0000  0.0000  0.0000  0.0000 </r>
        <r>  0.0146  0.0864  0.0000  0.0000  0.0000  0.0000  0.0000  0.0000  0.0000 </r>
       </set>
       <set comment="band 2">
        <r>  0.0146  0.0864  0.0000  0.0000  0.0000  0.0000  0.0000  0.0000  0.0000 </r>
        <r>  0.3729  0.0034  0.0000  0.0000  0.0000  0.0000  0.0000  0.0000  0.0000 </r>
       </set>
       <set comment="band 3">
        <r>  0.0000  0.0000  0.1021  0.0945  0.0000  0.0000  0.0000  0.0000  0.0000 </r>
        <r>  0.0000  0.0000  0.0949  0.1017  0.0000  0.0000  0.0000  0.0000  0.0000 </r>
       </set>
       <set comment="band 4">
        <r>  0.0000  0.0000  0.0949  0.1017  0.0000  0.0000  0.0000  0.0000  0.0000 </r>
        <r>  0.0000  0.0000  0.1021  0.0945  0.0000  0.0000  0.0000  0.0000  0.0000 </r>
       </set>
       <set comment="band 5">
        <r>  0.0058  0.0680  0.0000  0.0000  0.0000  0.0000  0.0000  0.0000  0.0000 </r>
        <r>  0.0969  0.0041  0.0000  0.0000  0.0000  0.0000  0.0000  0.0000  0.0000 </r>
       </set>
       <set comment="band 6">
        <r>  0.0969  0.0041  0.0000  0.0000  0.0000  0.0000  0.0000  0.0000  0.0000 </r>
        <r>  0.0058  0.0680  0.0000  0.0000  0.0000  0.0000  0.0000  0.0000  0.0000 </r>
       </set>
       <set comment="band 7">
        <r>  0.0000  0.0000  0.0850  0.1540  0.0000  0.0000  0.0000  0.0000  0.0000 </r>
        <r>  0.0000  0.0000  0.1367  0.0960  0.0000  0.0000  0.0000  0.0000  0.0000 </r>
       </set>
       <set comment="band 8">
        <r>  0.0000  0.0000  0.1371  0.0959  0.0000  0.0000  0.0000  0.0000  0.0000 </r>
        <r>  0.0000  0.0000  0.0852  0.1535  0.0000  0.0000  0.0000  0.0000  0.0000 </r>
       </set>
      </set>
     </set>
    </set>
   </array>
  </projected>
 </calculation>
 <structure name="finalpos" >
  <crystal>
   <varray name="basis" >
    <v>       0.00000000       2.71500000       2.71500000 </v>
    <v>       2.74215000       0.00000000       2.71500000 </v>
    <v>       2.74215000       2.71500000       0.00000000 </v>
   </varray>
   <i name="volume">     40.42600927 </i>
   <varray name="rec_basis" >
    <v>      -0.18233868       0.18416206       0.18416206 </v>
    <v>       0.18233868      -0.18416206       0.18416206 </v>
    <v>       0.18233868       0.18416206      -0.18416206 </v>
   </varray>
  </crystal>
  <varray name="positions" >
   <v>       0.00000000       0.00000000       0.00000000 </v>
   <v>       0.25000000       0.25000000       0.25000000 </v>
  </varray>
 </structure>
</modeling>
