Si                                      
   1.00000000000000     
     0.0108600000000000    2.7204299999999999    2.7204299999999999
     2.7204299999999999    0.0108600000000000    2.7204299999999999
     2.7204299999999999    2.7204299999999999    0.0108600000000000
   Si
     2
Direct
  0.0002664521395985  0.0002664684344182  0.0002664283456255
  0.2497335478604015  0.2497335315655818  0.2497335716543745
 
  0.00000000E+00  0.00000000E+00  0.00000000E+00
  0.00000000E+00  0.00000000E+00  0.00000000E+00
