       N       E                     dE             d eps       ncg     rms          rms(c)
DAV:   1     0.941331328481E+01    0.94133E+01   -0.24985E+03  1280   0.502E+02
DAV:   2    -0.509373251482E+01   -0.14507E+02   -0.13643E+02  2168   0.677E+01
DAV:   3    -0.528317479915E+01   -0.18944E+00   -0.17792E+00  1728   0.965E+00
DAV:   4    -0.528490609596E+01   -0.17313E-02   -0.17313E-02  1960   0.611E-01
DAV:   5    -0.528492334975E+01   -0.17254E-04   -0.17254E-04  1720   0.282E-02
DAV:   6    -0.528492376483E+01   -0.41508E-06   -0.41466E-06  1480   0.323E-03
   1 F= -.52849238E+01 E0= -.52849238E+01  d E =-.182740E-10
