<?xml version="1.0" encoding="ISO-8859-1"?>
<modeling>
 <generator>
  <i name="program" type="string">vasp </i>
  <i name="version" type="string">6.3.0  </i>
  <i name="subversion" type="string">20Jan22 (build Mar 29 2022 17:59:55) complex                          parallel </i>
  <i name="platform" type="string">IFC91_ompi </i>
  <i name="date" type="string">2026 06 03 </i>
  <i name="time" type="string">12:46:07 </i>
 </generator>
 <incar>
  <i type="int" name="ISTART">     0</i>
  <i type="int" name="ICHARG">    11</i>
  <i type="int" name="ISYM">     0</i>
  <i name="ENCUT">    320.00000000</i>
  <i type="int" name="ISMEAR">     0</i>
  <i name="SIGMA">      0.05000000</i>
  <i type="int" name="LORBIT">    11</i>
  <i type="string" name="GGA">PE</i>
 </incar>
 <primitive_cell>
  <structure name="primitive_cell" >
   <crystal>
    <varray name="basis" >
     <v>       0.01086000       2.72043000       2.72043000 </v>
     <v>       2.72043000       0.01086000       2.72043000 </v>
     <v>       2.72043000       2.72043000       0.01086000 </v>
    </varray>
    <i name="volume">     40.02527208 </i>
    <varray name="rec_basis" >
     <v>      -0.18489872       0.18416353       0.18416353 </v>
     <v>       0.18416353      -0.18489872       0.18416353 </v>
     <v>       0.18416353       0.18416353      -0.18489872 </v>
    </varray>
   </crystal>
   <varray name="positions" >
    <v>       0.00026645       0.00026647       0.00026643 </v>
    <v>       0.24973355       0.24973353       0.24973357 </v>
   </varray>
  </structure>
  <varray name="primitive_index" >
   <v type="int" >        1 </v>
   <v type="int" >        2 </v>
  </varray>
 </primitive_cell>
 <kpoints>
  <generation param="listgenerated">
   <i name="divisions" type="int">      40 </i>
   <v>       0.00000000       0.50000000       0.50000000 </v>
   <v>       0.00000000       0.00000000       0.00000000 </v>
   <v>       0.50000000       0.00000000       0.50000000 </v>
  </generation>
  <varray name="kpointlist" >
   <v>       0.00000000       0.50000000       0.50000000 </v>
   <v>       0.00000000       0.48717949       0.48717949 </v>
   <v>       0.00000000       0.47435897       0.47435897 </v>
   <v>       0.00000000       0.46153846       0.46153846 </v>
   <v>       0.00000000       0.44871795       0.44871795 </v>
   <v>       0.00000000       0.43589744       0.43589744 </v>
   <v>       0.00000000       0.42307692       0.42307692 </v>
   <v>       0.00000000       0.41025641       0.41025641 </v>
   <v>       0.00000000       0.39743590       0.39743590 </v>
   <v>       0.00000000       0.38461538       0.38461538 </v>
   <v>       0.00000000       0.37179487       0.37179487 </v>
   <v>       0.00000000       0.35897436       0.35897436 </v>
   <v>       0.00000000       0.34615385       0.34615385 </v>
   <v>       0.00000000       0.33333333       0.33333333 </v>
   <v>       0.00000000       0.32051282       0.32051282 </v>
   <v>       0.00000000       0.30769231       0.30769231 </v>
   <v>       0.00000000       0.29487179       0.29487179 </v>
   <v>       0.00000000       0.28205128       0.28205128 </v>
   <v>       0.00000000       0.26923077       0.26923077 </v>
   <v>       0.00000000       0.25641026       0.25641026 </v>
   <v>       0.00000000       0.24358974       0.24358974 </v>
   <v>       0.00000000       0.23076923       0.23076923 </v>
   <v>       0.00000000       0.21794872       0.21794872 </v>
   <v>       0.00000000       0.20512821       0.20512821 </v>
   <v>       0.00000000       0.19230769       0.19230769 </v>
   <v>       0.00000000       0.17948718       0.17948718 </v>
   <v>       0.00000000       0.16666667       0.16666667 </v>
   <v>       0.00000000       0.15384615       0.15384615 </v>
   <v>       0.00000000       0.14102564       0.14102564 </v>
   <v>       0.00000000       0.12820513       0.12820513 </v>
   <v>       0.00000000       0.11538462       0.11538462 </v>
   <v>       0.00000000       0.10256410       0.10256410 </v>
   <v>       0.00000000       0.08974359       0.08974359 </v>
   <v>       0.00000000       0.07692308       0.07692308 </v>
   <v>       0.00000000       0.06410256       0.06410256 </v>
   <v>       0.00000000       0.05128205       0.05128205 </v>
   <v>       0.00000000       0.03846154       0.03846154 </v>
   <v>       0.00000000       0.02564103       0.02564103 </v>
   <v>       0.00000000       0.01282051       0.01282051 </v>
   <v>       0.00000000       0.00000000       0.00000000 </v>
   <v>       0.00000000       0.00000000       0.00000000 </v>
   <v>       0.01282051       0.00000000       0.01282051 </v>
   <v>       0.02564103       0.00000000       0.02564103 </v>
   <v>       0.03846154       0.00000000       0.03846154 </v>
   <v>       0.05128205       0.00000000       0.05128205 </v>
   <v>       0.06410256       0.00000000       0.06410256 </v>
   <v>       0.07692308       0.00000000       0.07692308 </v>
   <v>       0.08974359       0.00000000       0.08974359 </v>
   <v>       0.10256410       0.00000000       0.10256410 </v>
   <v>       0.11538462       0.00000000       0.11538462 </v>
   <v>       0.12820513       0.00000000       0.12820513 </v>
   <v>       0.14102564       0.00000000       0.14102564 </v>
   <v>       0.15384615       0.00000000       0.15384615 </v>
   <v>       0.16666667       0.00000000       0.16666667 </v>
   <v>       0.17948718       0.00000000       0.17948718 </v>
   <v>       0.19230769       0.00000000       0.19230769 </v>
   <v>       0.20512821       0.00000000       0.20512821 </v>
   <v>       0.21794872       0.00000000       0.21794872 </v>
   <v>       0.23076923       0.00000000       0.23076923 </v>
   <v>       0.24358974       0.00000000       0.24358974 </v>
   <v>       0.25641026       0.00000000       0.25641026 </v>
   <v>       0.26923077       0.00000000       0.26923077 </v>
   <v>       0.28205128       0.00000000       0.28205128 </v>
   <v>       0.29487179       0.00000000       0.29487179 </v>
   <v>       0.30769231       0.00000000       0.30769231 </v>
   <v>       0.32051282       0.00000000       0.32051282 </v>
   <v>       0.33333333       0.00000000       0.33333333 </v>
   <v>       0.34615385       0.00000000       0.34615385 </v>
   <v>       0.35897436       0.00000000       0.35897436 </v>
   <v>       0.37179487       0.00000000       0.37179487 </v>
   <v>       0.38461538       0.00000000       0.38461538 </v>
   <v>       0.39743590       0.00000000       0.39743590 </v>
   <v>       0.41025641       0.00000000       0.41025641 </v>
   <v>       0.42307692       0.00000000       0.42307692 </v>
   <v>       0.43589744       0.00000000       0.43589744 </v>
   <v>       0.44871795       0.00000000       0.44871795 </v>
   <v>       0.46153846       0.00000000       0.46153846 </v>
   <v>       0.47435897       0.00000000       0.47435897 </v>
   <v>       0.48717949       0.00000000       0.48717949 </v>
   <v>       0.50000000       0.00000000       0.50000000 </v>
  </varray>
  <varray name="weights" >
   <v>       0.01250000 </v>
   <v>       0.01250000 </v>
   <v>       0.01250000 </v>
   <v>       0.01250000 </v>
   <v>       0.01250000 </v>
   <v>       0.01250000 </v>
   <v>       0.01250000 </v>
   <v>       0.01250000 </v>
   <v>       0.01250000 </v>
   <v>       0.01250000 </v>
   <v>       0.01250000 </v>
   <v>       0.01250000 </v>
   <v>       0.01250000 </v>
   <v>       0.01250000 </v>
   <v>       0.01250000 </v>
   <v>       0.01250000 </v>
   <v>       0.01250000 </v>
   <v>       0.01250000 </v>
   <v>       0.01250000 </v>
   <v>       0.01250000 </v>
   <v>       0.01250000 </v>
   <v>       0.01250000 </v>
   <v>       0.01250000 </v>
   <v>       0.01250000 </v>
   <v>       0.01250000 </v>
   <v>       0.01250000 </v>
   <v>       0.01250000 </v>
   <v>       0.01250000 </v>
   <v>       0.01250000 </v>
   <v>       0.01250000 </v>
   <v>       0.01250000 </v>
   <v>       0.01250000 </v>
   <v>       0.01250000 </v>
   <v>       0.01250000 </v>
   <v>       0.01250000 </v>
   <v>       0.01250000 </v>
   <v>       0.01250000 </v>
   <v>       0.01250000 </v>
   <v>       0.01250000 </v>
   <v>       0.01250000 </v>
   <v>       0.01250000 </v>
   <v>       0.01250000 </v>
   <v>       0.01250000 </v>
   <v>       0.01250000 </v>
   <v>       0.01250000 </v>
   <v>       0.01250000 </v>
   <v>       0.01250000 </v>
   <v>       0.01250000 </v>
   <v>       0.01250000 </v>
   <v>       0.01250000 </v>
   <v>       0.01250000 </v>
   <v>       0.01250000 </v>
   <v>       0.01250000 </v>
   <v>       0.01250000 </v>
   <v>       0.01250000 </v>
   <v>       0.01250000 </v>
   <v>       0.01250000 </v>
   <v>       0.01250000 </v>
   <v>       0.01250000 </v>
   <v>       0.01250000 </v>
   <v>       0.01250000 </v>
   <v>       0.01250000 </v>
   <v>       0.01250000 </v>
   <v>       0.01250000 </v>
   <v>       0.01250000 </v>
   <v>       0.01250000 </v>
   <v>       0.01250000 </v>
   <v>       0.01250000 </v>
   <v>       0.01250000 </v>
   <v>       0.01250000 </v>
   <v>       0.01250000 </v>
   <v>       0.01250000 </v>
   <v>       0.01250000 </v>
   <v>       0.01250000 </v>
   <v>       0.01250000 </v>
   <v>       0.01250000 </v>
   <v>       0.01250000 </v>
   <v>       0.01250000 </v>
   <v>       0.01250000 </v>
   <v>       0.01250000 </v>
  </varray>
  <kpoints_labels>
   <i name="X_par" type="int">       1 </i>
   <i name="\Gamma" type="int">       2 </i>
   <i name="\Gamma" type="int">       3 </i>
   <i name="X_perp" type="int">       4 </i>
  </kpoints_labels>
 </kpoints>
 <parameters>
  <separator name="general" >
   <i type="string" name="SYSTEM">unknown system</i>
   <i type="logical" name="LCOMPAT"> F  </i>
  </separator>
  <separator name="electronic" >
   <i type="string" name="PREC">normal</i>
   <i name="ENMAX">    320.00000000</i>
   <i name="ENAUG">    322.06900000</i>
   <i name="EDIFF">      0.00010000</i>
   <i type="int" name="IALGO">    38</i>
   <i type="int" name="IWAVPR">    10</i>
   <i type="int" name="NBANDS">     8</i>
   <i type="int" name="NBANDSLOW">    -1</i>
   <i type="int" name="NBANDSHIGH">    -1</i>
   <i name="NELECT">      8.00000000</i>
   <i type="int" name="TURBO">     0</i>
   <i type="int" name="IRESTART">     0</i>
   <i type="int" name="NREBOOT">     0</i>
   <i type="int" name="NMIN">     0</i>
   <i name="EREF">      0.00000000</i>
   <separator name="electronic smearing" >
    <i type="int" name="ISMEAR">     0</i>
    <i name="SIGMA">      0.05000000</i>
    <i name="KSPACING">      0.50000000</i>
    <i type="logical" name="KGAMMA"> T  </i>
    <i type="logical" name="KBLOWUP"> T  </i>
   </separator>
   <separator name="electronic projectors" >
    <i type="logical" name="LREAL"> F  </i>
    <v name="ROPT">      0.00000000</v>
    <i type="int" name="LMAXPAW">  -100</i>
    <i type="int" name="LMAXMIX">     2</i>
    <i type="logical" name="NLSPLINE"> F  </i>
   </separator>
   <separator name="electronic startup" >
    <i type="int" name="ISTART">     0</i>
    <i type="int" name="ICHARG">    11</i>
    <i type="int" name="INIWAV">     1</i>
   </separator>
   <separator name="electronic spin" >
    <i type="int" name="ISPIN">     1</i>
    <i type="logical" name="LNONCOLLINEAR"> F  </i>
    <v name="MAGMOM">      1.00000000      1.00000000</v>
    <i name="NUPDOWN">     -1.00000000</i>
    <i type="logical" name="LSORBIT"> F  </i>
    <v name="SAXIS">      0.00000000      0.00000000      1.00000000</v>
    <i type="logical" name="LSPIRAL"> F  </i>
    <v name="QSPIRAL">      0.00000000      0.00000000      0.00000000</v>
    <i type="logical" name="LZEROZ"> F  </i>
   </separator>
   <separator name="electronic exchange-correlation" >
    <i type="logical" name="LASPH"> F  </i>
    <i type="logical" name="LMETAGGA"> F  </i>
   </separator>
   <separator name="electronic convergence" >
    <i type="int" name="NELM">    60</i>
    <i type="int" name="NELMDL">    -5</i>
    <i type="int" name="NELMIN">     2</i>
    <i name="ENINI">    320.00000000</i>
    <separator name="electronic convergence detail" >
     <i type="logical" name="LDIAG"> T  </i>
     <i type="logical" name="LSUBROT"> F  </i>
     <i name="WEIMIN">      0.00000000</i>
     <i name="EBREAK">      0.00000313</i>
     <i name="DEPER">      0.30000000</i>
     <i type="int" name="NRMM">     4</i>
     <i name="TIME">      0.40000000</i>
    </separator>
   </separator>
   <separator name="electronic mixer" >
    <i name="AMIX">      0.40000000</i>
    <i name="BMIX">      1.00000000</i>
    <i name="AMIN">      0.10000000</i>
    <i name="AMIX_MAG">      1.60000000</i>
    <i name="BMIX_MAG">      1.00000000</i>
    <separator name="electronic mixer details" >
     <i type="int" name="IMIX">     4</i>
     <i type="logical" name="MIXFIRST"> F  </i>
     <i type="int" name="MAXMIX">   -45</i>
     <i name="WC">    100.00000000</i>
     <i type="int" name="INIMIX">     1</i>
     <i type="int" name="MIXPRE">     1</i>
     <i type="int" name="MREMOVE">     5</i>
    </separator>
   </separator>
   <separator name="electronic dipolcorrection" >
    <i type="logical" name="LDIPOL"> F  </i>
    <i type="logical" name="LMONO"> F  </i>
    <i type="int" name="IDIPOL">     0</i>
    <i name="EPSILON">      1.00000000</i>
    <v name="DIPOL">   -100.00000000   -100.00000000   -100.00000000</v>
    <i name="EFIELD">      0.00000000</i>
   </separator>
  </separator>
  <separator name="grids" >
   <i type="int" name="NGX">    18</i>
   <i type="int" name="NGY">    18</i>
   <i type="int" name="NGZ">    18</i>
   <i type="int" name="NGXF">    36</i>
   <i type="int" name="NGYF">    36</i>
   <i type="int" name="NGZF">    36</i>
   <i type="logical" name="ADDGRID"> F  </i>
  </separator>
  <separator name="ionic" >
   <i type="int" name="NSW">     0</i>
   <i type="int" name="IBRION">    -1</i>
   <i type="int" name="MDALGO">     0</i>
   <i type="int" name="ISIF">     2</i>
   <i name="PSTRESS">      0.00000000</i>
   <i name="EDIFFG">      0.00100000</i>
   <i type="int" name="NFREE">     0</i>
   <i name="POTIM">      0.50000000</i>
   <i name="SMASS">     -3.00000000</i>
   <i name="SCALEE">      1.00000000</i>
  </separator>
  <separator name="ionic md" >
   <i name="TEBEG">      0.00010000</i>
   <i name="TEEND">      0.00010000</i>
   <i type="int" name="NBLOCK">     1</i>
   <i type="int" name="KBLOCK">     1</i>
   <i type="int" name="NPACO">   256</i>
   <i name="APACO">     10.00000000</i>
  </separator>
  <separator name="symmetry" >
   <i type="int" name="ISYM">     0</i>
   <i name="SYMPREC">      0.00001000</i>
  </separator>
  <separator name="dos" >
   <i type="int" name="LORBIT">    11</i>
   <v name="RWIGS">     -1.00000000</v>
   <i type="int" name="NEDOS">   301</i>
   <i name="EMIN">     10.00000000</i>
   <i name="EMAX">    -10.00000000</i>
   <i name="EFERMI">      0.00000000</i>
  </separator>
  <separator name="writing" >
   <i type="int" name="NWRITE">     2</i>
   <i type="logical" name="LWAVE"> T  </i>
   <i type="logical" name="LDOWNSAMPLE"> F  </i>
   <i type="logical" name="LCHARG"> T  </i>
   <i type="logical" name="LPARD"> F  </i>
   <i type="logical" name="LVTOT"> F  </i>
   <i type="logical" name="LVHAR"> F  </i>
   <i type="logical" name="LELF"> F  </i>
   <i type="logical" name="LOPTICS"> F  </i>
   <v name="STM">      0.00000000      0.00000000      0.00000000      0.00000000      0.00000000      0.00000000      0.00000000</v>
  </separator>
  <separator name="performance" >
   <i type="int" name="NPAR">     1</i>
   <i type="int" name="NSIM">     4</i>
   <i type="int" name="NBLK">    -1</i>
   <i type="logical" name="LPLANE"> T  </i>
   <i type="logical" name="LSCALAPACK"> T  </i>
   <i type="logical" name="LSCAAWARE"> F  </i>
   <i type="logical" name="LSCALU"> F  </i>
   <i type="logical" name="LASYNC"> F  </i>
   <i type="logical" name="LORBITALREAL"> F  </i>
  </separator>
  <separator name="miscellaneous" >
   <i type="int" name="IDIOT">     3</i>
   <i type="int" name="PHON_NSTRUCT">    -1</i>
   <i type="logical" name="LMUSIC"> F  </i>
   <v name="POMASS">     28.08500000</v>
   <v name="DARWINR">      0.00000000</v>
   <v name="DARWINV">      1.00000000</v>
   <i type="logical" name="LCORR"> T  </i>
  </separator>
  <i type="logical" name="GGA_COMPAT"> T  </i>
  <i type="logical" name="LBERRY"> F  </i>
  <i type="int" name="ICORELEVEL">     0</i>
  <i type="logical" name="LDAU"> F  </i>
  <i type="int" name="I_CONSTRAINED_M">     0</i>
  <separator name="electronic exchange-correlation" >
   <i type="string" name="GGA">PE</i>
   <i type="int" name="VOSKOWN">     0</i>
   <i type="logical" name="LHFCALC"> F  </i>
   <i type="string" name="PRECFOCK"></i>
   <i type="logical" name="LSYMGRAD"> F  </i>
   <i type="logical" name="LHFONE"> F  </i>
   <i type="logical" name="LRHFCALC"> F  </i>
   <i type="logical" name="LTHOMAS"> F  </i>
   <i type="logical" name="LMODELHF"> F  </i>
   <i type="logical" name="LFOCKACE"> F  </i>
   <i name="ENCUT4O">     -1.00000000</i>
   <i type="int" name="EXXOEP">     0</i>
   <i type="int" name="FOURORBIT">     0</i>
   <i name="AEXX">      0.00000000</i>
   <i name="HFALPHA">      0.00000000</i>
   <i name="MCALPHA">      0.00000000</i>
   <i name="ALDAX">      1.00000000</i>
   <i name="AGGAX">      1.00000000</i>
   <i name="ALDAC">      1.00000000</i>
   <i name="AGGAC">      1.00000000</i>
   <i type="int" name="NKREDX">     1</i>
   <i type="int" name="NKREDY">     1</i>
   <i type="int" name="NKREDZ">     1</i>
   <i type="logical" name="SHIFTRED"> F  </i>
   <i type="logical" name="ODDONLY"> F  </i>
   <i type="logical" name="EVENONLY"> F  </i>
   <i type="int" name="LMAXFOCK">     0</i>
   <i type="int" name="NMAXFOCKAE">     0</i>
   <i type="logical" name="LFOCKAEDFT"> F  </i>
   <i name="HFSCREEN">      0.00000000</i>
   <i name="HFSCREENC">      0.00000000</i>
   <i type="int" name="NBANDSGWLOW">     0</i>
  </separator>
  <separator name="vdW DFT" >
   <i type="logical" name="LUSE_VDW"> F  </i>
   <i name="Zab_VDW">     -0.84910000</i>
   <i name="PARAM1">      0.12340000</i>
   <i name="PARAM2">      1.00000000</i>
   <i name="PARAM3">      0.00000000</i>
  </separator>
  <separator name="model GW" >
   <i type="int" name="MODEL_GW">     0</i>
   <i name="MODEL_EPS0">     12.00758162</i>
   <i name="MODEL_ALPHA">      1.00000000</i>
  </separator>
  <separator name="linear response parameters" >
   <i type="logical" name="LEPSILON"> F  </i>
   <i type="logical" name="LRPA"> F  </i>
   <i type="logical" name="LNABLA"> F  </i>
   <i type="logical" name="LVEL"> F  </i>
   <i name="CSHIFT">      0.10000000</i>
   <i name="OMEGAMAX">     -1.00000000</i>
   <i name="DEG_THRESHOLD">      0.00200000</i>
   <i name="RTIME">     -0.10000000</i>
   <i name="WPLASMAI">      0.00000000</i>
   <v name="DFIELD">      0.00000000      0.00000000      0.00000000</v>
   <v name="WPLASMA">      0.00000000      0.00000000      0.00000000      0.00000000      0.00000000      0.00000000      0.00000000      0.00000000      0.00000000</v>
  </separator>
  <separator name="orbital magnetization" >
   <i type="logical" name="NUCIND"> F  </i>
   <v name="MAGPOS">      0.00000000      0.00000000      0.00000000</v>
   <i type="logical" name="LNICSALL"> T  </i>
   <i type="logical" name="ORBITALMAG"> F  </i>
   <i type="logical" name="LMAGBLOCH"> F  </i>
   <i type="logical" name="LCHIMAG"> F  </i>
   <i type="logical" name="LGAUGE"> T  </i>
   <i type="int" name="MAGATOM">     0</i>
   <v name="MAGDIPOL">      0.00000000      0.00000000      0.00000000</v>
   <v name="AVECCONST">      0.00000000      0.00000000      0.00000000</v>
  </separator>
  <separator name="response functions" >
   <i type="logical" name="LFINITE_TEMPERATURE"> F  </i>
   <i type="logical" name="LADDER"> F  </i>
   <i type="logical" name="LRPAFORCE"> F  </i>
   <i type="logical" name="LFXC"> F  </i>
   <i type="logical" name="LHARTREE"> T  </i>
   <i type="int" name="IBSE">     0</i>
   <v type="int" name="KPOINT">    -1     0     0     0</v>
   <i type="logical" name="LTCTC"> F  </i>
   <i type="logical" name="LTCTE"> F  </i>
   <i type="logical" name="LTETE"> F  </i>
   <i type="logical" name="LTRIPLET"> F  </i>
   <i type="logical" name="LFXCEPS"> F  </i>
   <i type="logical" name="LFXHEG"> F  </i>
   <i type="int" name="NATURALO">     2</i>
   <i type="logical" name="LHOLEGF"> F  </i>
   <i type="logical" name="L2ORDER"> F  </i>
   <i type="logical" name="LDMP1"> F  </i>
   <i type="logical" name="LMP2LT"> F  </i>
   <i type="logical" name="LSMP2LT"> F  </i>
   <i type="logical" name="LGWLF"> F  </i>
   <i name="ENCUTGW">     -2.00000000</i>
   <i name="ENCUTGWSOFT">     -2.00000000</i>
   <i name="ENCUTLF">     -1.00000000</i>
   <i type="logical" name="LESF_SPLINES"> F  </i>
   <i type="int" name="LMAXMP2">    -1</i>
   <i name="SCISSOR">      0.00000000</i>
   <i type="int" name="NOMEGA">     0</i>
   <i type="int" name="NOMEGAR">     0</i>
   <i type="int" name="NBANDSGW">    -1</i>
   <i type="int" name="NBANDSO">    -1</i>
   <i type="int" name="NBANDSV">    -1</i>
   <i type="int" name="NELMGW">     1</i>
   <i type="int" name="NELMHF">     1</i>
   <i type="int" name="DIM">     3</i>
   <i type="int" name="IESPILON">     4</i>
   <i type="int" name="ANTIRES">     0</i>
   <i name="OMEGAMAX">    -30.00000000</i>
   <i name="OMEGAMIN">    -30.00000000</i>
   <i name="OMEGATL">   -200.00000000</i>
   <i type="int" name="OMEGAGRID">     0</i>
   <i name="CSHIFT">     -0.10000000</i>
   <i type="logical" name="LSELFENERGY"> F  </i>
   <i type="logical" name="LSPECTRAL"> F  </i>
   <i type="logical" name="LSPECTRALGW"> F  </i>
   <i type="logical" name="LSINGLES"> F  </i>
   <i type="logical" name="LFERMIGW"> F  </i>
   <i type="logical" name="ODDONLYGW"> F  </i>
   <i type="logical" name="EVENONLYGW"> F  </i>
   <i type="int" name="NKREDLFX">     1</i>
   <i type="int" name="NKREDLFY">     1</i>
   <i type="int" name="NKREDLFZ">     1</i>
   <i type="int" name="MAXMEM">  2800</i>
   <i type="int" name="TELESCOPE">     0</i>
   <i type="int" name="NTAUPAR">    -1</i>
   <i type="int" name="NOMEGAPAR">    -1</i>
   <i name="DAMP_NEWTON">      0.80000001</i>
   <i name="LAMBDA">      1.00000000</i>
  </separator>
  <separator name="External order field" >
   <i name="OFIELD_KAPPA">      0.00000000</i>
   <v name="OFIELD_K">      0.00000000      0.00000000      0.00000000</v>
   <i name="OFIELD_Q6_NEAR">      0.00000000</i>
   <i name="OFIELD_Q6_FAR">      0.00000000</i>
   <i name="OFIELD_A">      0.00000000</i>
  </separator>
  <separator name="optional k-points parameters" >
   <i type="int" name="KPOINTS_OPT_MODE">     1</i>
   <i type="logical" name="LKPOINTS_OPT"> F  </i>
  </separator>
 </parameters>
 <atominfo>
  <atoms>       2 </atoms>
  <types>       1 </types>
  <array name="atoms" >
   <dimension dim="1">ion</dimension>
   <field type="string">element</field>
   <field type="int">atomtype</field>
   <set>
    <rc><c>Si</c><c>   1</c></rc>
    <rc><c>Si</c><c>   1</c></rc>
   </set>
  </array>
  <array name="atomtypes" >
   <dimension dim="1">type</dimension>
   <field type="int">atomspertype</field>
   <field type="string">element</field>
   <field>mass</field>
   <field>valence</field>
   <field type="string">pseudopotential</field>
   <set>
    <rc><c>   2</c><c>Si</c><c>     28.08500000</c><c>      4.00000000</c><c>  PAW_PBE Si 05Jan2001                  </c></rc>
   </set>
  </array>
 </atominfo>
 <structure name="initialpos" >
  <crystal>
   <varray name="basis" >
    <v>       0.01086000       2.72043000       2.72043000 </v>
    <v>       2.72043000       0.01086000       2.72043000 </v>
    <v>       2.72043000       2.72043000       0.01086000 </v>
   </varray>
   <i name="volume">     40.02527208 </i>
   <varray name="rec_basis" >
    <v>      -0.18489872       0.18416353       0.18416353 </v>
    <v>       0.18416353      -0.18489872       0.18416353 </v>
    <v>       0.18416353       0.18416353      -0.18489872 </v>
   </varray>
  </crystal>
  <varray name="positions" >
   <v>       0.00026645       0.00026647       0.00026643 </v>
   <v>       0.24973355       0.24973353       0.24973357 </v>
  </varray>
 </structure>
 <calculation>
  <scstep>
   <time name="dav">    0.41    0.41</time>
   <time name="total">    0.43    0.43</time>
   <energy>
    <i name="alphaZ">      3.36418758 </i>
    <i name="ewald">   -228.56481669 </i>
    <i name="hartreedc">    -14.92811278 </i>
    <i name="XCdc">    -17.95896533 </i>
    <i name="pawpsdc">    894.51751864 </i>
    <i name="pawaedc">   -859.55687295 </i>
    <i name="eentropy">     -0.00223613 </i>
    <i name="bandstr">     26.41169437 </i>
    <i name="atom">    206.13066687 </i>
    <i name="e_fr_energy">      9.41306357 </i>
    <i name="e_wo_entrp">      9.41529970 </i>
    <i name="e_0_energy">      9.41418164 </i>
   </energy>
  </scstep>
  <scstep>
   <time name="dav">    0.62    0.62</time>
   <time name="total">    0.63    0.63</time>
   <energy>
    <i name="e_fr_energy">     -5.09371833 </i>
    <i name="e_wo_entrp">     -5.09215202 </i>
    <i name="e_0_energy">     -5.09293518 </i>
   </energy>
  </scstep>
  <scstep>
   <time name="dav">    0.52    0.52</time>
   <time name="total">    0.52    0.52</time>
   <energy>
    <i name="e_fr_energy">     -5.28315803 </i>
    <i name="e_wo_entrp">     -5.28315803 </i>
    <i name="e_0_energy">     -5.28315803 </i>
   </energy>
  </scstep>
  <scstep>
   <time name="dav">    0.57    0.57</time>
   <time name="total">    0.57    0.57</time>
   <energy>
    <i name="e_fr_energy">     -5.28488935 </i>
    <i name="e_wo_entrp">     -5.28488935 </i>
    <i name="e_0_energy">     -5.28488935 </i>
   </energy>
  </scstep>
  <scstep>
   <time name="dav">    0.51    0.51</time>
   <time name="total">    0.52    0.52</time>
   <energy>
    <i name="e_fr_energy">     -5.28490661 </i>
    <i name="e_wo_entrp">     -5.28490661 </i>
    <i name="e_0_energy">     -5.28490661 </i>
   </energy>
  </scstep>
  <scstep>
   <time name="dav">    0.46    0.46</time>
   <time name="total">    0.46    0.46</time>
   <energy>
    <i name="alphaZ">      3.36418758 </i>
    <i name="ewald">   -228.56481669 </i>
    <i name="hartreedc">    -14.92811278 </i>
    <i name="XCdc">    -17.95896533 </i>
    <i name="pawpsdc">    894.51751864 </i>
    <i name="pawaedc">   -859.55687295 </i>
    <i name="eentropy">     -0.00000000 </i>
    <i name="bandstr">     11.71148764 </i>
    <i name="atom">    206.13066687 </i>
    <i name="e_fr_energy">     -5.28490702 </i>
    <i name="e_wo_entrp">     -5.28490702 </i>
    <i name="e_0_energy">     -5.28490702 </i>
   </energy>
  </scstep>
  <structure>
   <crystal>
    <varray name="basis" >
     <v>       0.01086000       2.72043000       2.72043000 </v>
     <v>       2.72043000       0.01086000       2.72043000 </v>
     <v>       2.72043000       2.72043000       0.01086000 </v>
    </varray>
    <i name="volume">     40.02527208 </i>
    <varray name="rec_basis" >
     <v>      -0.18489872       0.18416353       0.18416353 </v>
     <v>       0.18416353      -0.18489872       0.18416353 </v>
     <v>       0.18416353       0.18416353      -0.18489872 </v>
    </varray>
   </crystal>
   <varray name="positions" >
    <v>       0.00026645       0.00026647       0.00026643 </v>
    <v>       0.24973355       0.24973353       0.24973357 </v>
   </varray>
  </structure>
  <varray name="forces" >
   <v>      -0.02763684      -0.02764103      -0.02169527 </v>
   <v>       0.02763684       0.02764103       0.02169527 </v>
  </varray>
  <varray name="stress" >
   <v>     239.36769070      -1.28889983      -0.16387063 </v>
   <v>      -1.28890002     239.36795377      -0.16412626 </v>
   <v>      -0.16387062      -0.16412631     336.28050315 </v>
  </varray>
  <energy>
   <i name="e_fr_energy">     -5.28490702 </i>
   <i name="e_wo_entrp">     -5.28490702 </i>
   <i name="e_0_energy">     -5.28490702 </i>
  </energy>
  <time name="totalsc">    3.50    3.50</time>
  <eigenvalues>
   <array>
    <dimension dim="1">band</dimension>
    <dimension dim="2">kpoint</dimension>
    <dimension dim="3">spin</dimension>
    <field>eigene</field>
    <field>occ</field>
    <set>
     <set comment="spin 1">
      <set comment="kpoint 1">
       <r>   -1.9902    1.0000 </r>
       <r>   -1.9754    1.0000 </r>
       <r>    2.9555    1.0000 </r>
       <r>    3.0076    1.0000 </r>
       <r>    6.5146    0.0000 </r>
       <r>    6.5736    0.0000 </r>
       <r>   15.9423    0.0000 </r>
       <r>   15.9675    0.0000 </r>
      </set>
      <set comment="kpoint 2">
       <r>   -2.1797    1.0000 </r>
       <r>   -1.7825    1.0000 </r>
       <r>    2.9582    1.0000 </r>
       <r>    3.0102    1.0000 </r>
       <r>    6.4936    0.0000 </r>
       <r>    6.6024    0.0000 </r>
       <r>   15.8717    0.0000 </r>
       <r>   15.9020    0.0000 </r>
      </set>
      <set comment="kpoint 3">
       <r>   -2.3728    1.0000 </r>
       <r>   -1.5790    1.0000 </r>
       <r>    2.9660    1.0000 </r>
       <r>    3.0180    1.0000 </r>
       <r>    6.4635    0.0000 </r>
       <r>    6.6559    0.0000 </r>
       <r>   15.7032    0.0000 </r>
       <r>   15.7222    0.0000 </r>
      </set>
      <set comment="kpoint 4">
       <r>   -2.5623    1.0000 </r>
       <r>   -1.3725    1.0000 </r>
       <r>    2.9790    1.0000 </r>
       <r>    3.0310    1.0000 </r>
       <r>    6.4385    0.0000 </r>
       <r>    6.7200    0.0000 </r>
       <r>   15.4933    0.0000 </r>
       <r>   15.5076    0.0000 </r>
      </set>
      <set comment="kpoint 5">
       <r>   -2.7478    1.0000 </r>
       <r>   -1.1630    1.0000 </r>
       <r>    2.9972    1.0000 </r>
       <r>    3.0492    1.0000 </r>
       <r>    6.4201    0.0000 </r>
       <r>    6.7929    0.0000 </r>
       <r>   15.2642    0.0000 </r>
       <r>   15.2763    0.0000 </r>
      </set>
      <set comment="kpoint 6">
       <r>   -2.9293    1.0000 </r>
       <r>   -0.9507    1.0000 </r>
       <r>    3.0206    1.0000 </r>
       <r>    3.0725    1.0000 </r>
       <r>    6.4087    0.0000 </r>
       <r>    6.8742    0.0000 </r>
       <r>   15.0278    0.0000 </r>
       <r>   15.0373    0.0000 </r>
      </set>
      <set comment="kpoint 7">
       <r>   -3.1068    1.0000 </r>
       <r>   -0.7358    1.0000 </r>
       <r>    3.0491    1.0000 </r>
       <r>    3.1010    1.0000 </r>
       <r>    6.4043    0.0000 </r>
       <r>    6.9639    0.0000 </r>
       <r>   14.7874    0.0000 </r>
       <r>   14.7945    0.0000 </r>
      </set>
      <set comment="kpoint 8">
       <r>   -3.2799    1.0000 </r>
       <r>   -0.5186    1.0000 </r>
       <r>    3.0828    1.0000 </r>
       <r>    3.1345    1.0000 </r>
       <r>    6.4069    0.0000 </r>
       <r>    7.0620    0.0000 </r>
       <r>   14.5461    0.0000 </r>
       <r>   14.5511    0.0000 </r>
      </set>
      <set comment="kpoint 9">
       <r>   -3.4488    1.0000 </r>
       <r>   -0.2992    1.0000 </r>
       <r>    3.1216    1.0000 </r>
       <r>    3.1732    1.0000 </r>
       <r>    6.4163    0.0000 </r>
       <r>    7.1685    0.0000 </r>
       <r>   14.3041    0.0000 </r>
       <r>   14.3071    0.0000 </r>
      </set>
      <set comment="kpoint 10">
       <r>   -3.6132    1.0000 </r>
       <r>   -0.0777    1.0000 </r>
       <r>    3.1654    1.0000 </r>
       <r>    3.2170    1.0000 </r>
       <r>    6.4323    0.0000 </r>
       <r>    7.2833    0.0000 </r>
       <r>   14.0625    0.0000 </r>
       <r>   14.0635    0.0000 </r>
      </set>
      <set comment="kpoint 11">
       <r>   -3.7729    1.0000 </r>
       <r>    0.1455    1.0000 </r>
       <r>    3.2143    1.0000 </r>
       <r>    3.2658    1.0000 </r>
       <r>    6.4554    0.0000 </r>
       <r>    7.4068    0.0000 </r>
       <r>   13.8210    0.0000 </r>
       <r>   13.8230    0.0000 </r>
      </set>
      <set comment="kpoint 12">
       <r>   -3.9280    1.0000 </r>
       <r>    0.3703    1.0000 </r>
       <r>    3.2682    1.0000 </r>
       <r>    3.3195    1.0000 </r>
       <r>    6.4847    0.0000 </r>
       <r>    7.5386    0.0000 </r>
       <r>   13.5801    0.0000 </r>
       <r>   13.5833    0.0000 </r>
      </set>
      <set comment="kpoint 13">
       <r>   -4.0783    1.0000 </r>
       <r>    0.5965    1.0000 </r>
       <r>    3.3271    1.0000 </r>
       <r>    3.3782    1.0000 </r>
       <r>    6.5201    0.0000 </r>
       <r>    7.6788    0.0000 </r>
       <r>   13.3399    0.0000 </r>
       <r>   13.3450    0.0000 </r>
      </set>
      <set comment="kpoint 14">
       <r>   -4.2238    1.0000 </r>
       <r>    0.8240    1.0000 </r>
       <r>    3.3909    1.0000 </r>
       <r>    3.4418    1.0000 </r>
       <r>    6.5617    0.0000 </r>
       <r>    7.8272    0.0000 </r>
       <r>   13.1011    0.0000 </r>
       <r>   13.1081    0.0000 </r>
      </set>
      <set comment="kpoint 15">
       <r>   -4.3644    1.0000 </r>
       <r>    1.0524    1.0000 </r>
       <r>    3.4595    1.0000 </r>
       <r>    3.5102    1.0000 </r>
       <r>    6.6093    0.0000 </r>
       <r>    7.9837    0.0000 </r>
       <r>   12.8640    0.0000 </r>
       <r>   12.8725    0.0000 </r>
      </set>
      <set comment="kpoint 16">
       <r>   -4.5000    1.0000 </r>
       <r>    1.2817    1.0000 </r>
       <r>    3.5329    1.0000 </r>
       <r>    3.5833    1.0000 </r>
       <r>    6.6624    0.0000 </r>
       <r>    8.1478    0.0000 </r>
       <r>   12.6280    0.0000 </r>
       <r>   12.6384    0.0000 </r>
      </set>
      <set comment="kpoint 17">
       <r>   -4.6305    1.0000 </r>
       <r>    1.5115    1.0000 </r>
       <r>    3.6109    1.0000 </r>
       <r>    3.6611    1.0000 </r>
       <r>    6.7210    0.0000 </r>
       <r>    8.3194    0.0000 </r>
       <r>   12.3931    0.0000 </r>
       <r>   12.4059    0.0000 </r>
      </set>
      <set comment="kpoint 18">
       <r>   -4.7559    1.0000 </r>
       <r>    1.7418    1.0000 </r>
       <r>    3.6935    1.0000 </r>
       <r>    3.7435    1.0000 </r>
       <r>    6.7848    0.0000 </r>
       <r>    8.4978    0.0000 </r>
       <r>   12.1600    0.0000 </r>
       <r>   12.1744    0.0000 </r>
      </set>
      <set comment="kpoint 19">
       <r>   -4.8761    1.0000 </r>
       <r>    1.9722    1.0000 </r>
       <r>    3.7806    1.0000 </r>
       <r>    3.8302    1.0000 </r>
       <r>    6.8535    0.0000 </r>
       <r>    8.6823    0.0000 </r>
       <r>   11.9284    0.0000 </r>
       <r>   11.9450    0.0000 </r>
      </set>
      <set comment="kpoint 20">
       <r>   -4.9911    1.0000 </r>
       <r>    2.2027    1.0000 </r>
       <r>    3.8720    1.0000 </r>
       <r>    3.9213    1.0000 </r>
       <r>    6.9269    0.0000 </r>
       <r>    8.8723    0.0000 </r>
       <r>   11.6990    0.0000 </r>
       <r>   11.7169    0.0000 </r>
      </set>
      <set comment="kpoint 21">
       <r>   -5.1007    1.0000 </r>
       <r>    2.4330    1.0000 </r>
       <r>    3.9677    1.0000 </r>
       <r>    4.0166    1.0000 </r>
       <r>    7.0048    0.0000 </r>
       <r>    9.0663    0.0000 </r>
       <r>   11.4720    0.0000 </r>
       <r>   11.4917    0.0000 </r>
      </set>
      <set comment="kpoint 22">
       <r>   -5.2050    1.0000 </r>
       <r>    2.6629    1.0000 </r>
       <r>    4.0674    1.0000 </r>
       <r>    4.1159    1.0000 </r>
       <r>    7.0869    0.0000 </r>
       <r>    9.2627    0.0000 </r>
       <r>   11.2476    0.0000 </r>
       <r>   11.2692    0.0000 </r>
      </set>
      <set comment="kpoint 23">
       <r>   -5.3039    1.0000 </r>
       <r>    2.8922    1.0000 </r>
       <r>    4.1709    1.0000 </r>
       <r>    4.2190    1.0000 </r>
       <r>    7.1725    0.0000 </r>
       <r>    9.4589    0.0000 </r>
       <r>   11.0254    0.0000 </r>
       <r>   11.0487    0.0000 </r>
      </set>
      <set comment="kpoint 24">
       <r>   -5.3973    1.0000 </r>
       <r>    3.1205    1.0000 </r>
       <r>    4.2781    1.0000 </r>
       <r>    4.3257    1.0000 </r>
       <r>    7.2613    0.0000 </r>
       <r>    9.6512    0.0000 </r>
       <r>   10.8064    0.0000 </r>
       <r>   10.8308    0.0000 </r>
      </set>
      <set comment="kpoint 25">
       <r>   -5.4853    1.0000 </r>
       <r>    3.3475    1.0000 </r>
       <r>    4.3885    1.0000 </r>
       <r>    4.4356    1.0000 </r>
       <r>    7.3526    0.0000 </r>
       <r>    9.8342    0.0000 </r>
       <r>   10.5905    0.0000 </r>
       <r>   10.6160    0.0000 </r>
      </set>
      <set comment="kpoint 26">
       <r>   -5.5678    1.0000 </r>
       <r>    3.5729    1.0000 </r>
       <r>    4.5019    1.0000 </r>
       <r>    4.5484    1.0000 </r>
       <r>    7.4460    0.0000 </r>
       <r>    9.9990    0.0000 </r>
       <r>   10.3793    0.0000 </r>
       <r>   10.4047    0.0000 </r>
      </set>
      <set comment="kpoint 27">
       <r>   -5.6447    1.0000 </r>
       <r>    3.7964    1.0000 </r>
       <r>    4.6178    1.0000 </r>
       <r>    4.6637    1.0000 </r>
       <r>    7.5406    0.0000 </r>
       <r>   10.1150    0.0000 </r>
       <r>   10.1934    0.0000 </r>
       <r>   10.1971    0.0000 </r>
      </set>
      <set comment="kpoint 28">
       <r>   -5.7160    1.0000 </r>
       <r>    4.0172    1.0000 </r>
       <r>    4.7358    1.0000 </r>
       <r>    4.7810    1.0000 </r>
       <r>    7.6360    0.0000 </r>
       <r>    9.9571    0.0000 </r>
       <r>    9.9945    0.0000 </r>
       <r>   10.2439    0.0000 </r>
      </set>
      <set comment="kpoint 29">
       <r>   -5.7817    1.0000 </r>
       <r>    4.2345    1.0000 </r>
       <r>    4.8553    1.0000 </r>
       <r>    4.8997    1.0000 </r>
       <r>    7.7309    0.0000 </r>
       <r>    9.7601    0.0000 </r>
       <r>    9.7967    0.0000 </r>
       <r>   10.2815    0.0000 </r>
      </set>
      <set comment="kpoint 30">
       <r>   -5.8418    1.0000 </r>
       <r>    4.4475    1.0000 </r>
       <r>    4.9754    1.0000 </r>
       <r>    5.0189    1.0000 </r>
       <r>    7.8245    0.0000 </r>
       <r>    9.5671    0.0000 </r>
       <r>    9.6046    0.0000 </r>
       <r>   10.2588    0.0000 </r>
      </set>
      <set comment="kpoint 31">
       <r>   -5.8963    1.0000 </r>
       <r>    4.6549    1.0000 </r>
       <r>    5.0951    1.0000 </r>
       <r>    5.1377    1.0000 </r>
       <r>    7.9156    0.0000 </r>
       <r>    9.3809    0.0000 </r>
       <r>    9.4195    0.0000 </r>
       <r>   10.1817    0.0000 </r>
      </set>
      <set comment="kpoint 32">
       <r>   -5.9450    1.0000 </r>
       <r>    4.8553    1.0000 </r>
       <r>    5.2134    1.0000 </r>
       <r>    5.2549    1.0000 </r>
       <r>    8.0031    0.0000 </r>
       <r>    9.2034    0.0000 </r>
       <r>    9.2432    0.0000 </r>
       <r>   10.0654    0.0000 </r>
      </set>
      <set comment="kpoint 33">
       <r>   -5.9881    1.0000 </r>
       <r>    5.0464    1.0000 </r>
       <r>    5.3287    1.0000 </r>
       <r>    5.3688    1.0000 </r>
       <r>    8.0855    0.0000 </r>
       <r>    9.0359    0.0000 </r>
       <r>    9.0770    0.0000 </r>
       <r>    9.9262    0.0000 </r>
      </set>
      <set comment="kpoint 34">
       <r>   -6.0255    1.0000 </r>
       <r>    5.2256    1.0000 </r>
       <r>    5.4391    1.0000 </r>
       <r>    5.4775    1.0000 </r>
       <r>    8.1611    0.0000 </r>
       <r>    8.8807    0.0000 </r>
       <r>    8.9228    0.0000 </r>
       <r>    9.7781    0.0000 </r>
      </set>
      <set comment="kpoint 35">
       <r>   -6.0571    1.0000 </r>
       <r>    5.3894    1.0000 </r>
       <r>    5.5424    1.0000 </r>
       <r>    5.5785    1.0000 </r>
       <r>    8.2284    0.0000 </r>
       <r>    8.7404    0.0000 </r>
       <r>    8.7832    0.0000 </r>
       <r>    9.6319    0.0000 </r>
      </set>
      <set comment="kpoint 36">
       <r>   -6.0830    1.0000 </r>
       <r>    5.5327    1.0000 </r>
       <r>    5.6361    1.0000 </r>
       <r>    5.6687    1.0000 </r>
       <r>    8.2854    0.0000 </r>
       <r>    8.6185    0.0000 </r>
       <r>    8.6614    0.0000 </r>
       <r>    9.4968    0.0000 </r>
      </set>
      <set comment="kpoint 37">
       <r>   -6.1031    1.0000 </r>
       <r>    5.6494    1.0000 </r>
       <r>    5.7182    1.0000 </r>
       <r>    5.7447    1.0000 </r>
       <r>    8.3298    0.0000 </r>
       <r>    8.5194    0.0000 </r>
       <r>    8.5607    0.0000 </r>
       <r>    9.3810    0.0000 </r>
      </set>
      <set comment="kpoint 38">
       <r>   -6.1175    1.0000 </r>
       <r>    5.7323    1.0000 </r>
       <r>    5.7866    1.0000 </r>
       <r>    5.8027    1.0000 </r>
       <r>    8.3564    0.0000 </r>
       <r>    8.4508    0.0000 </r>
       <r>    8.4851    0.0000 </r>
       <r>    9.2916    0.0000 </r>
      </set>
      <set comment="kpoint 39">
       <r>   -6.1262    1.0000 </r>
       <r>    5.7795    1.0000 </r>
       <r>    5.8344    1.0000 </r>
       <r>    5.8392    1.0000 </r>
       <r>    8.3566    0.0000 </r>
       <r>    8.4241    0.0000 </r>
       <r>    8.4380    0.0000 </r>
       <r>    9.2351    0.0000 </r>
      </set>
      <set comment="kpoint 40">
       <r>   -6.1290    1.0000 </r>
       <r>    5.7948    1.0000 </r>
       <r>    5.8517    1.0000 </r>
       <r>    5.8517    1.0000 </r>
       <r>    8.3497    0.0000 </r>
       <r>    8.4220    0.0000 </r>
       <r>    8.4220    0.0000 </r>
       <r>    9.2157    0.0000 </r>
      </set>
      <set comment="kpoint 41">
       <r>   -6.1290    1.0000 </r>
       <r>    5.7948    1.0000 </r>
       <r>    5.8517    1.0000 </r>
       <r>    5.8517    1.0000 </r>
       <r>    8.3497    0.0000 </r>
       <r>    8.4220    0.0000 </r>
       <r>    8.4220    0.0000 </r>
       <r>    9.2157    0.0000 </r>
      </set>
      <set comment="kpoint 42">
       <r>   -6.1262    1.0000 </r>
       <r>    5.7795    1.0000 </r>
       <r>    5.8344    1.0000 </r>
       <r>    5.8392    1.0000 </r>
       <r>    8.3566    0.0000 </r>
       <r>    8.4241    0.0000 </r>
       <r>    8.4380    0.0000 </r>
       <r>    9.2351    0.0000 </r>
      </set>
      <set comment="kpoint 43">
       <r>   -6.1175    1.0000 </r>
       <r>    5.7323    1.0000 </r>
       <r>    5.7866    1.0000 </r>
       <r>    5.8027    1.0000 </r>
       <r>    8.3564    0.0000 </r>
       <r>    8.4508    0.0000 </r>
       <r>    8.4851    0.0000 </r>
       <r>    9.2916    0.0000 </r>
      </set>
      <set comment="kpoint 44">
       <r>   -6.1031    1.0000 </r>
       <r>    5.6494    1.0000 </r>
       <r>    5.7182    1.0000 </r>
       <r>    5.7447    1.0000 </r>
       <r>    8.3298    0.0000 </r>
       <r>    8.5194    0.0000 </r>
       <r>    8.5607    0.0000 </r>
       <r>    9.3810    0.0000 </r>
      </set>
      <set comment="kpoint 45">
       <r>   -6.0830    1.0000 </r>
       <r>    5.5327    1.0000 </r>
       <r>    5.6361    1.0000 </r>
       <r>    5.6687    1.0000 </r>
       <r>    8.2854    0.0000 </r>
       <r>    8.6185    0.0000 </r>
       <r>    8.6614    0.0000 </r>
       <r>    9.4968    0.0000 </r>
      </set>
      <set comment="kpoint 46">
       <r>   -6.0571    1.0000 </r>
       <r>    5.3894    1.0000 </r>
       <r>    5.5424    1.0000 </r>
       <r>    5.5784    1.0000 </r>
       <r>    8.2284    0.0000 </r>
       <r>    8.7404    0.0000 </r>
       <r>    8.7832    0.0000 </r>
       <r>    9.6319    0.0000 </r>
      </set>
      <set comment="kpoint 47">
       <r>   -6.0255    1.0000 </r>
       <r>    5.2256    1.0000 </r>
       <r>    5.4391    1.0000 </r>
       <r>    5.4775    1.0000 </r>
       <r>    8.1611    0.0000 </r>
       <r>    8.8807    0.0000 </r>
       <r>    8.9228    0.0000 </r>
       <r>    9.7781    0.0000 </r>
      </set>
      <set comment="kpoint 48">
       <r>   -5.9881    1.0000 </r>
       <r>    5.0464    1.0000 </r>
       <r>    5.3287    1.0000 </r>
       <r>    5.3688    1.0000 </r>
       <r>    8.0855    0.0000 </r>
       <r>    9.0359    0.0000 </r>
       <r>    9.0770    0.0000 </r>
       <r>    9.9262    0.0000 </r>
      </set>
      <set comment="kpoint 49">
       <r>   -5.9450    1.0000 </r>
       <r>    4.8553    1.0000 </r>
       <r>    5.2134    1.0000 </r>
       <r>    5.2549    1.0000 </r>
       <r>    8.0031    0.0000 </r>
       <r>    9.2034    0.0000 </r>
       <r>    9.2432    0.0000 </r>
       <r>   10.0654    0.0000 </r>
      </set>
      <set comment="kpoint 50">
       <r>   -5.8963    1.0000 </r>
       <r>    4.6549    1.0000 </r>
       <r>    5.0951    1.0000 </r>
       <r>    5.1377    1.0000 </r>
       <r>    7.9156    0.0000 </r>
       <r>    9.3809    0.0000 </r>
       <r>    9.4195    0.0000 </r>
       <r>   10.1817    0.0000 </r>
      </set>
      <set comment="kpoint 51">
       <r>   -5.8418    1.0000 </r>
       <r>    4.4475    1.0000 </r>
       <r>    4.9754    1.0000 </r>
       <r>    5.0189    1.0000 </r>
       <r>    7.8245    0.0000 </r>
       <r>    9.5671    0.0000 </r>
       <r>    9.6046    0.0000 </r>
       <r>   10.2588    0.0000 </r>
      </set>
      <set comment="kpoint 52">
       <r>   -5.7817    1.0000 </r>
       <r>    4.2345    1.0000 </r>
       <r>    4.8553    1.0000 </r>
       <r>    4.8997    1.0000 </r>
       <r>    7.7309    0.0000 </r>
       <r>    9.7601    0.0000 </r>
       <r>    9.7967    0.0000 </r>
       <r>   10.2815    0.0000 </r>
      </set>
      <set comment="kpoint 53">
       <r>   -5.7160    1.0000 </r>
       <r>    4.0172    1.0000 </r>
       <r>    4.7358    1.0000 </r>
       <r>    4.7810    1.0000 </r>
       <r>    7.6360    0.0000 </r>
       <r>    9.9571    0.0000 </r>
       <r>    9.9945    0.0000 </r>
       <r>   10.2439    0.0000 </r>
      </set>
      <set comment="kpoint 54">
       <r>   -5.6447    1.0000 </r>
       <r>    3.7964    1.0000 </r>
       <r>    4.6178    1.0000 </r>
       <r>    4.6637    1.0000 </r>
       <r>    7.5406    0.0000 </r>
       <r>   10.1150    0.0000 </r>
       <r>   10.1934    0.0000 </r>
       <r>   10.1971    0.0000 </r>
      </set>
      <set comment="kpoint 55">
       <r>   -5.5678    1.0000 </r>
       <r>    3.5729    1.0000 </r>
       <r>    4.5019    1.0000 </r>
       <r>    4.5484    1.0000 </r>
       <r>    7.4460    0.0000 </r>
       <r>    9.9990    0.0000 </r>
       <r>   10.3793    0.0000 </r>
       <r>   10.4047    0.0000 </r>
      </set>
      <set comment="kpoint 56">
       <r>   -5.4853    1.0000 </r>
       <r>    3.3475    1.0000 </r>
       <r>    4.3885    1.0000 </r>
       <r>    4.4356    1.0000 </r>
       <r>    7.3526    0.0000 </r>
       <r>    9.8342    0.0000 </r>
       <r>   10.5905    0.0000 </r>
       <r>   10.6160    0.0000 </r>
      </set>
      <set comment="kpoint 57">
       <r>   -5.3973    1.0000 </r>
       <r>    3.1205    1.0000 </r>
       <r>    4.2781    1.0000 </r>
       <r>    4.3257    1.0000 </r>
       <r>    7.2613    0.0000 </r>
       <r>    9.6512    0.0000 </r>
       <r>   10.8064    0.0000 </r>
       <r>   10.8309    0.0000 </r>
      </set>
      <set comment="kpoint 58">
       <r>   -5.3039    1.0000 </r>
       <r>    2.8922    1.0000 </r>
       <r>    4.1709    1.0000 </r>
       <r>    4.2190    1.0000 </r>
       <r>    7.1725    0.0000 </r>
       <r>    9.4589    0.0000 </r>
       <r>   11.0254    0.0000 </r>
       <r>   11.0487    0.0000 </r>
      </set>
      <set comment="kpoint 59">
       <r>   -5.2050    1.0000 </r>
       <r>    2.6629    1.0000 </r>
       <r>    4.0674    1.0000 </r>
       <r>    4.1159    1.0000 </r>
       <r>    7.0869    0.0000 </r>
       <r>    9.2627    0.0000 </r>
       <r>   11.2476    0.0000 </r>
       <r>   11.2692    0.0000 </r>
      </set>
      <set comment="kpoint 60">
       <r>   -5.1007    1.0000 </r>
       <r>    2.4330    1.0000 </r>
       <r>    3.9677    1.0000 </r>
       <r>    4.0166    1.0000 </r>
       <r>    7.0048    0.0000 </r>
       <r>    9.0663    0.0000 </r>
       <r>   11.4720    0.0000 </r>
       <r>   11.4917    0.0000 </r>
      </set>
      <set comment="kpoint 61">
       <r>   -4.9911    1.0000 </r>
       <r>    2.2027    1.0000 </r>
       <r>    3.8720    1.0000 </r>
       <r>    3.9213    1.0000 </r>
       <r>    6.9269    0.0000 </r>
       <r>    8.8723    0.0000 </r>
       <r>   11.6990    0.0000 </r>
       <r>   11.7169    0.0000 </r>
      </set>
      <set comment="kpoint 62">
       <r>   -4.8761    1.0000 </r>
       <r>    1.9722    1.0000 </r>
       <r>    3.7806    1.0000 </r>
       <r>    3.8302    1.0000 </r>
       <r>    6.8535    0.0000 </r>
       <r>    8.6823    0.0000 </r>
       <r>   11.9284    0.0000 </r>
       <r>   11.9450    0.0000 </r>
      </set>
      <set comment="kpoint 63">
       <r>   -4.7559    1.0000 </r>
       <r>    1.7418    1.0000 </r>
       <r>    3.6935    1.0000 </r>
       <r>    3.7435    1.0000 </r>
       <r>    6.7848    0.0000 </r>
       <r>    8.4978    0.0000 </r>
       <r>   12.1600    0.0000 </r>
       <r>   12.1744    0.0000 </r>
      </set>
      <set comment="kpoint 64">
       <r>   -4.6305    1.0000 </r>
       <r>    1.5115    1.0000 </r>
       <r>    3.6109    1.0000 </r>
       <r>    3.6611    1.0000 </r>
       <r>    6.7210    0.0000 </r>
       <r>    8.3194    0.0000 </r>
       <r>   12.3931    0.0000 </r>
       <r>   12.4059    0.0000 </r>
      </set>
      <set comment="kpoint 65">
       <r>   -4.5000    1.0000 </r>
       <r>    1.2817    1.0000 </r>
       <r>    3.5329    1.0000 </r>
       <r>    3.5833    1.0000 </r>
       <r>    6.6624    0.0000 </r>
       <r>    8.1478    0.0000 </r>
       <r>   12.6280    0.0000 </r>
       <r>   12.6384    0.0000 </r>
      </set>
      <set comment="kpoint 66">
       <r>   -4.3644    1.0000 </r>
       <r>    1.0524    1.0000 </r>
       <r>    3.4595    1.0000 </r>
       <r>    3.5102    1.0000 </r>
       <r>    6.6093    0.0000 </r>
       <r>    7.9837    0.0000 </r>
       <r>   12.8640    0.0000 </r>
       <r>   12.8725    0.0000 </r>
      </set>
      <set comment="kpoint 67">
       <r>   -4.2238    1.0000 </r>
       <r>    0.8240    1.0000 </r>
       <r>    3.3909    1.0000 </r>
       <r>    3.4418    1.0000 </r>
       <r>    6.5617    0.0000 </r>
       <r>    7.8272    0.0000 </r>
       <r>   13.1011    0.0000 </r>
       <r>   13.1081    0.0000 </r>
      </set>
      <set comment="kpoint 68">
       <r>   -4.0783    1.0000 </r>
       <r>    0.5965    1.0000 </r>
       <r>    3.3271    1.0000 </r>
       <r>    3.3782    1.0000 </r>
       <r>    6.5201    0.0000 </r>
       <r>    7.6788    0.0000 </r>
       <r>   13.3399    0.0000 </r>
       <r>   13.3450    0.0000 </r>
      </set>
      <set comment="kpoint 69">
       <r>   -3.9280    1.0000 </r>
       <r>    0.3703    1.0000 </r>
       <r>    3.2682    1.0000 </r>
       <r>    3.3195    1.0000 </r>
       <r>    6.4847    0.0000 </r>
       <r>    7.5386    0.0000 </r>
       <r>   13.5801    0.0000 </r>
       <r>   13.5833    0.0000 </r>
      </set>
      <set comment="kpoint 70">
       <r>   -3.7729    1.0000 </r>
       <r>    0.1455    1.0000 </r>
       <r>    3.2143    1.0000 </r>
       <r>    3.2658    1.0000 </r>
       <r>    6.4554    0.0000 </r>
       <r>    7.4068    0.0000 </r>
       <r>   13.8210    0.0000 </r>
       <r>   13.8230    0.0000 </r>
      </set>
      <set comment="kpoint 71">
       <r>   -3.6132    1.0000 </r>
       <r>   -0.0777    1.0000 </r>
       <r>    3.1654    1.0000 </r>
       <r>    3.2170    1.0000 </r>
       <r>    6.4323    0.0000 </r>
       <r>    7.2833    0.0000 </r>
       <r>   14.0625    0.0000 </r>
       <r>   14.0635    0.0000 </r>
      </set>
      <set comment="kpoint 72">
       <r>   -3.4488    1.0000 </r>
       <r>   -0.2992    1.0000 </r>
       <r>    3.1216    1.0000 </r>
       <r>    3.1732    1.0000 </r>
       <r>    6.4163    0.0000 </r>
       <r>    7.1685    0.0000 </r>
       <r>   14.3039    0.0000 </r>
       <r>   14.3067    0.0000 </r>
      </set>
      <set comment="kpoint 73">
       <r>   -3.2799    1.0000 </r>
       <r>   -0.5186    1.0000 </r>
       <r>    3.0828    1.0000 </r>
       <r>    3.1345    1.0000 </r>
       <r>    6.4069    0.0000 </r>
       <r>    7.0620    0.0000 </r>
       <r>   14.5461    0.0000 </r>
       <r>   14.5511    0.0000 </r>
      </set>
      <set comment="kpoint 74">
       <r>   -3.1068    1.0000 </r>
       <r>   -0.7358    1.0000 </r>
       <r>    3.0491    1.0000 </r>
       <r>    3.1010    1.0000 </r>
       <r>    6.4043    0.0000 </r>
       <r>    6.9639    0.0000 </r>
       <r>   14.7874    0.0000 </r>
       <r>   14.7945    0.0000 </r>
      </set>
      <set comment="kpoint 75">
       <r>   -2.9293    1.0000 </r>
       <r>   -0.9507    1.0000 </r>
       <r>    3.0206    1.0000 </r>
       <r>    3.0725    1.0000 </r>
       <r>    6.4087    0.0000 </r>
       <r>    6.8742    0.0000 </r>
       <r>   15.0278    0.0000 </r>
       <r>   15.0373    0.0000 </r>
      </set>
      <set comment="kpoint 76">
       <r>   -2.7478    1.0000 </r>
       <r>   -1.1630    1.0000 </r>
       <r>    2.9972    1.0000 </r>
       <r>    3.0492    1.0000 </r>
       <r>    6.4201    0.0000 </r>
       <r>    6.7929    0.0000 </r>
       <r>   15.2642    0.0000 </r>
       <r>   15.2763    0.0000 </r>
      </set>
      <set comment="kpoint 77">
       <r>   -2.5623    1.0000 </r>
       <r>   -1.3725    1.0000 </r>
       <r>    2.9790    1.0000 </r>
       <r>    3.0310    1.0000 </r>
       <r>    6.4385    0.0000 </r>
       <r>    6.7200    0.0000 </r>
       <r>   15.4926    0.0000 </r>
       <r>   15.5077    0.0000 </r>
      </set>
      <set comment="kpoint 78">
       <r>   -2.3728    1.0000 </r>
       <r>   -1.5790    1.0000 </r>
       <r>    2.9660    1.0000 </r>
       <r>    3.0180    1.0000 </r>
       <r>    6.4635    0.0000 </r>
       <r>    6.6559    0.0000 </r>
       <r>   15.7032    0.0000 </r>
       <r>   15.7219    0.0000 </r>
      </set>
      <set comment="kpoint 79">
       <r>   -2.1797    1.0000 </r>
       <r>   -1.7825    1.0000 </r>
       <r>    2.9582    1.0000 </r>
       <r>    3.0102    1.0000 </r>
       <r>    6.4936    0.0000 </r>
       <r>    6.6024    0.0000 </r>
       <r>   15.8727    0.0000 </r>
       <r>   15.8946    0.0000 </r>
      </set>
      <set comment="kpoint 80">
       <r>   -1.9902    1.0000 </r>
       <r>   -1.9754    1.0000 </r>
       <r>    2.9555    1.0000 </r>
       <r>    3.0076    1.0000 </r>
       <r>    6.5146    0.0000 </r>
       <r>    6.5736    0.0000 </r>
       <r>   15.9422    0.0000 </r>
       <r>   15.9703    0.0000 </r>
      </set>
     </set>
    </set>
   </array>
  </eigenvalues>
  <separator name="orbital magnetization" >
   <v name="MAGDIPOLOUT">      0.00000000      0.00000000      0.00000000</v>
  </separator>
  <dos>
   <i name="efermi">      6.06520767 </i>
   <total>
    <array>
     <dimension dim="1">gridpoints</dimension>
     <dimension dim="2">spin</dimension>
     <field>energy</field>
     <field>total</field>
     <field>integrated</field>
     <set>
      <set comment="spin 1">
       <r>    -7.2340     0.0000     0.0000 </r>
       <r>    -7.1530     0.0000     0.0000 </r>
       <r>    -7.0719     0.0000     0.0000 </r>
       <r>    -6.9909     0.0000     0.0000 </r>
       <r>    -6.9099     0.0000     0.0000 </r>
       <r>    -6.8289     0.0000     0.0000 </r>
       <r>    -6.7478     0.0000     0.0000 </r>
       <r>    -6.6668     0.0000     0.0000 </r>
       <r>    -6.5858     0.0000     0.0000 </r>
       <r>    -6.5047     0.0000     0.0000 </r>
       <r>    -6.4237     0.0000     0.0000 </r>
       <r>    -6.3427     0.0000     0.0000 </r>
       <r>    -6.2616     0.0001     0.0000 </r>
       <r>    -6.1806     0.1163     0.0094 </r>
       <r>    -6.0996     1.8946     0.1630 </r>
       <r>    -6.0185     2.0653     0.3303 </r>
       <r>    -5.9375     1.2466     0.4313 </r>
       <r>    -5.8565     0.9835     0.5110 </r>
       <r>    -5.7755     0.8430     0.5793 </r>
       <r>    -5.6944     0.7502     0.6401 </r>
       <r>    -5.6134     0.6826     0.6954 </r>
       <r>    -5.5324     0.6319     0.7466 </r>
       <r>    -5.4513     0.5936     0.7947 </r>
       <r>    -5.3703     0.5632     0.8404 </r>
       <r>    -5.2893     0.5309     0.8834 </r>
       <r>    -5.2082     0.4896     0.9231 </r>
       <r>    -5.1272     0.4638     0.9606 </r>
       <r>    -5.0462     0.4844     0.9999 </r>
       <r>    -4.9651     0.4788     1.0387 </r>
       <r>    -4.8841     0.3919     1.0705 </r>
       <r>    -4.8031     0.4087     1.1036 </r>
       <r>    -4.7220     0.4714     1.1418 </r>
       <r>    -4.6410     0.3374     1.1691 </r>
       <r>    -4.5600     0.3946     1.2011 </r>
       <r>    -4.4790     0.4336     1.2362 </r>
       <r>    -4.3979     0.2746     1.2585 </r>
       <r>    -4.3169     0.4598     1.2957 </r>
       <r>    -4.2359     0.2788     1.3183 </r>
       <r>    -4.1548     0.3845     1.3495 </r>
       <r>    -4.0738     0.3462     1.3775 </r>
       <r>    -3.9928     0.2930     1.4013 </r>
       <r>    -3.9117     0.4020     1.4339 </r>
       <r>    -3.8307     0.2289     1.4524 </r>
       <r>    -3.7497     0.4297     1.4872 </r>
       <r>    -3.6686     0.1927     1.5028 </r>
       <r>    -3.5876     0.4371     1.5383 </r>
       <r>    -3.5066     0.1757     1.5525 </r>
       <r>    -3.4256     0.4286     1.5872 </r>
       <r>    -3.3445     0.1776     1.6016 </r>
       <r>    -3.2635     0.3991     1.6340 </r>
       <r>    -3.1825     0.2061     1.6507 </r>
       <r>    -3.1014     0.3374     1.6780 </r>
       <r>    -3.0204     0.2701     1.6999 </r>
       <r>    -2.9394     0.2411     1.7194 </r>
       <r>    -2.8583     0.3641     1.7489 </r>
       <r>    -2.7773     0.1379     1.7601 </r>
       <r>    -2.6963     0.4477     1.7964 </r>
       <r>    -2.6152     0.0859     1.8033 </r>
       <r>    -2.5342     0.4438     1.8393 </r>
       <r>    -2.4532     0.1384     1.8505 </r>
       <r>    -2.3721     0.3068     1.8754 </r>
       <r>    -2.2911     0.2978     1.8995 </r>
       <r>    -2.2101     0.1264     1.9098 </r>
       <r>    -2.1291     0.4498     1.9462 </r>
       <r>    -2.0480     0.0906     1.9535 </r>
       <r>    -1.9670     0.7821     2.0169 </r>
       <r>    -1.8860     0.4047     2.0497 </r>
       <r>    -1.8049     0.1655     2.0631 </r>
       <r>    -1.7239     0.4249     2.0976 </r>
       <r>    -1.6429     0.0520     2.1018 </r>
       <r>    -1.5618     0.4019     2.1343 </r>
       <r>    -1.4808     0.1923     2.1499 </r>
       <r>    -1.3998     0.1368     2.1610 </r>
       <r>    -1.3187     0.4416     2.1968 </r>
       <r>    -1.2377     0.0503     2.2009 </r>
       <r>    -1.1567     0.3414     2.2285 </r>
       <r>    -1.0757     0.2610     2.2497 </r>
       <r>    -0.9946     0.0701     2.2553 </r>
       <r>    -0.9136     0.4603     2.2926 </r>
       <r>    -0.8326     0.0924     2.3001 </r>
       <r>    -0.7515     0.2010     2.3164 </r>
       <r>    -0.6705     0.3944     2.3484 </r>
       <r>    -0.5895     0.0338     2.3511 </r>
       <r>    -0.5084     0.3644     2.3806 </r>
       <r>    -0.4274     0.2358     2.3998 </r>
       <r>    -0.3464     0.0590     2.4045 </r>
       <r>    -0.2653     0.4564     2.4415 </r>
       <r>    -0.1843     0.1050     2.4500 </r>
       <r>    -0.1033     0.1446     2.4618 </r>
       <r>    -0.0222     0.4360     2.4971 </r>
       <r>     0.0588     0.0403     2.5004 </r>
       <r>     0.1398     0.2648     2.5218 </r>
       <r>     0.2208     0.3377     2.5492 </r>
       <r>     0.3019     0.0265     2.5513 </r>
       <r>     0.3829     0.3781     2.5820 </r>
       <r>     0.4639     0.2202     2.5998 </r>
       <r>     0.5450     0.0471     2.6036 </r>
       <r>     0.6260     0.4475     2.6399 </r>
       <r>     0.7070     0.1246     2.6500 </r>
       <r>     0.7881     0.0958     2.6577 </r>
       <r>     0.8691     0.4592     2.6950 </r>
       <r>     0.9501     0.0634     2.7001 </r>
       <r>     1.0312     0.1678     2.7137 </r>
       <r>     1.1122     0.4201     2.7477 </r>
       <r>     1.1932     0.0319     2.7503 </r>
       <r>     1.2742     0.2535     2.7708 </r>
       <r>     1.3553     0.3482     2.7991 </r>
       <r>     1.4363     0.0218     2.8008 </r>
       <r>     1.5173     0.3386     2.8283 </r>
       <r>     1.5984     0.2638     2.8497 </r>
       <r>     1.6794     0.0283     2.8519 </r>
       <r>     1.7604     0.4087     2.8851 </r>
       <r>     1.8415     0.1830     2.8999 </r>
       <r>     1.9225     0.0507     2.9040 </r>
       <r>     2.0035     0.4519     2.9406 </r>
       <r>     2.0846     0.1157     2.9500 </r>
       <r>     2.1656     0.0909     2.9574 </r>
       <r>     2.2466     0.4603     2.9947 </r>
       <r>     2.3277     0.0668     3.0001 </r>
       <r>     2.4087     0.1510     3.0123 </r>
       <r>     2.4897     0.4318     3.0473 </r>
       <r>     2.5707     0.0363     3.0502 </r>
       <r>     2.6518     0.2293     3.0688 </r>
       <r>     2.7328     0.3701     3.0988 </r>
       <r>     2.8138     0.0231     3.1007 </r>
       <r>     2.8949     0.3896     3.1322 </r>
       <r>     2.9759     2.3314     3.3212 </r>
       <r>     3.0569     4.7777     3.7083 </r>
       <r>     3.1380     3.6368     4.0030 </r>
       <r>     3.2190     2.4786     4.2038 </r>
       <r>     3.3000     1.9599     4.3626 </r>
       <r>     3.3811     2.1285     4.5351 </r>
       <r>     3.4621     1.6188     4.6663 </r>
       <r>     3.5431     1.5160     4.7891 </r>
       <r>     3.6241     1.7482     4.9308 </r>
       <r>     3.7052     1.2735     5.0340 </r>
       <r>     3.7862     1.3985     5.1473 </r>
       <r>     3.8672     1.4738     5.2667 </r>
       <r>     3.9483     1.0930     5.3553 </r>
       <r>     4.0293     1.4035     5.4690 </r>
       <r>     4.1103     1.2224     5.5681 </r>
       <r>     4.1914     1.0340     5.6519 </r>
       <r>     4.2724     1.3920     5.7647 </r>
       <r>     4.3534     1.0172     5.8471 </r>
       <r>     4.4345     1.1311     5.9387 </r>
       <r>     4.5155     1.2425     6.0394 </r>
       <r>     4.5965     0.9090     6.1131 </r>
       <r>     4.6776     1.3182     6.2199 </r>
       <r>     4.7586     0.9912     6.3002 </r>
       <r>     4.8396     1.0170     6.3826 </r>
       <r>     4.9206     1.2774     6.4861 </r>
       <r>     5.0017     0.9053     6.5595 </r>
       <r>     5.0827     1.2612     6.6617 </r>
       <r>     5.1637     1.0082     6.7434 </r>
       <r>     5.2448     1.2624     6.8457 </r>
       <r>     5.3258     1.0348     6.9295 </r>
       <r>     5.4068     1.3256     7.0369 </r>
       <r>     5.4879     1.2087     7.1349 </r>
       <r>     5.5689     1.4523     7.2525 </r>
       <r>     5.6499     1.4945     7.3736 </r>
       <r>     5.7310     1.9446     7.5312 </r>
       <r>     5.8120     3.0552     7.7788 </r>
       <r>     5.8930     2.5048     7.9818 </r>
       <r>     5.9740     0.2247     8.0000 </r>
       <r>     6.0551     0.0004     8.0000 </r>
       <r>     6.1361     0.0000     8.0000 </r>
       <r>     6.2171     0.0000     8.0000 </r>
       <r>     6.2982     0.0025     8.0002 </r>
       <r>     6.3792     0.6567     8.0534 </r>
       <r>     6.4602     4.0495     8.3816 </r>
       <r>     6.5413     3.2284     8.6432 </r>
       <r>     6.6223     2.2630     8.8265 </r>
       <r>     6.7033     1.7852     8.9712 </r>
       <r>     6.7844     1.5027     9.0930 </r>
       <r>     6.8654     1.3494     9.2023 </r>
       <r>     6.9464     1.2338     9.3023 </r>
       <r>     7.0275     1.1510     9.3955 </r>
       <r>     7.1085     1.1117     9.4856 </r>
       <r>     7.1895     1.0611     9.5716 </r>
       <r>     7.2705     0.9479     9.6484 </r>
       <r>     7.3516     0.9570     9.7260 </r>
       <r>     7.4326     0.9820     9.8055 </r>
       <r>     7.5136     0.8160     9.8717 </r>
       <r>     7.5947     0.9731     9.9505 </r>
       <r>     7.6757     0.8532    10.0197 </r>
       <r>     7.7567     0.8704    10.0902 </r>
       <r>     7.8378     0.9082    10.1638 </r>
       <r>     7.9188     0.7978    10.2284 </r>
       <r>     7.9998     0.9683    10.3069 </r>
       <r>     8.0809     0.8232    10.3736 </r>
       <r>     8.1619     1.0529    10.4589 </r>
       <r>     8.2429     0.9912    10.5392 </r>
       <r>     8.3239     1.6405    10.6722 </r>
       <r>     8.4050     2.7872    10.8980 </r>
       <r>     8.4860     2.9321    11.1356 </r>
       <r>     8.5670     1.7346    11.2762 </r>
       <r>     8.6481     1.1066    11.3658 </r>
       <r>     8.7291     1.2338    11.4658 </r>
       <r>     8.8101     0.9250    11.5408 </r>
       <r>     8.8912     1.0421    11.6252 </r>
       <r>     8.9722     0.8939    11.6976 </r>
       <r>     9.0532     0.8275    11.7647 </r>
       <r>     9.1343     1.0260    11.8478 </r>
       <r>     9.2153     1.0972    11.9367 </r>
       <r>     9.2963     2.1845    12.1138 </r>
       <r>     9.3774     1.0878    12.2019 </r>
       <r>     9.4584     1.5002    12.3235 </r>
       <r>     9.5394     1.0238    12.4064 </r>
       <r>     9.6204     1.2610    12.5086 </r>
       <r>     9.7015     1.1046    12.5981 </r>
       <r>     9.7825     1.0738    12.6851 </r>
       <r>     9.8635     1.2946    12.7900 </r>
       <r>     9.9446     0.8635    12.8600 </r>
       <r>    10.0256     1.5374    12.9846 </r>
       <r>    10.1066     0.9998    13.0656 </r>
       <r>    10.1877     1.3248    13.1729 </r>
       <r>    10.2687     1.9899    13.3342 </r>
       <r>    10.3497     0.9533    13.4114 </r>
       <r>    10.4308     0.9062    13.4849 </r>
       <r>    10.5118     0.1951    13.5007 </r>
       <r>    10.5928     0.4746    13.5391 </r>
       <r>    10.6738     0.7143    13.5970 </r>
       <r>    10.7549     0.0915    13.6044 </r>
       <r>    10.8359     0.7814    13.6677 </r>
       <r>    10.9169     0.3938    13.6996 </r>
       <r>    10.9980     0.1861    13.7147 </r>
       <r>    11.0790     0.8917    13.7870 </r>
       <r>    11.1600     0.1648    13.8003 </r>
       <r>    11.2411     0.3904    13.8320 </r>
       <r>    11.3221     0.7871    13.8957 </r>
       <r>    11.4031     0.0720    13.9016 </r>
       <r>    11.4842     0.6281    13.9525 </r>
       <r>    11.5652     0.5722    13.9989 </r>
       <r>    11.6462     0.0700    14.0045 </r>
       <r>    11.7273     0.8097    14.0701 </r>
       <r>    11.8083     0.3652    14.0997 </r>
       <r>    11.8893     0.1219    14.1096 </r>
       <r>    11.9703     0.8970    14.1823 </r>
       <r>    12.0514     0.2185    14.2000 </r>
       <r>    12.1324     0.2069    14.2168 </r>
       <r>    12.2134     0.9038    14.2900 </r>
       <r>    12.2945     0.1254    14.3002 </r>
       <r>    12.3755     0.3096    14.3252 </r>
       <r>    12.4565     0.8533    14.3944 </r>
       <r>    12.5376     0.0738    14.4004 </r>
       <r>    12.6186     0.4163    14.4341 </r>
       <r>    12.6996     0.7743    14.4968 </r>
       <r>    12.7807     0.0475    14.5007 </r>
       <r>    12.8617     0.5179    14.5427 </r>
       <r>    12.9427     0.6851    14.5982 </r>
       <r>    13.0237     0.0367    14.6011 </r>
       <r>    13.1048     0.6058    14.6502 </r>
       <r>    13.1858     0.6004    14.6989 </r>
       <r>    13.2668     0.0340    14.7016 </r>
       <r>    13.3479     0.6714    14.7560 </r>
       <r>    13.4289     0.5334    14.7993 </r>
       <r>    13.5099     0.0354    14.8021 </r>
       <r>    13.5910     0.7181    14.8603 </r>
       <r>    13.6720     0.4831    14.8995 </r>
       <r>    13.7530     0.0382    14.9026 </r>
       <r>    13.8341     0.7501    14.9633 </r>
       <r>    13.9151     0.4472    14.9996 </r>
       <r>    13.9961     0.0414    15.0029 </r>
       <r>    14.0772     0.7728    15.0656 </r>
       <r>    14.1582     0.4208    15.0996 </r>
       <r>    14.2392     0.0421    15.1031 </r>
       <r>    14.3202     0.7791    15.1662 </r>
       <r>    14.4013     0.4131    15.1997 </r>
       <r>    14.4823     0.0421    15.2031 </r>
       <r>    14.5633     0.7781    15.2661 </r>
       <r>    14.6444     0.4138    15.2997 </r>
       <r>    14.7254     0.0444    15.3033 </r>
       <r>    14.8064     0.7849    15.3669 </r>
       <r>    14.8875     0.4051    15.3997 </r>
       <r>    14.9685     0.0488    15.4036 </r>
       <r>    15.0495     0.7980    15.4683 </r>
       <r>    15.1306     0.3877    15.4997 </r>
       <r>    15.2116     0.0667    15.5051 </r>
       <r>    15.2926     0.8425    15.5734 </r>
       <r>    15.3736     0.3264    15.5998 </r>
       <r>    15.4547     0.1295    15.6103 </r>
       <r>    15.5357     0.9049    15.6836 </r>
       <r>    15.6167     0.2065    15.7004 </r>
       <r>    15.6978     0.4182    15.7343 </r>
       <r>    15.7788     0.7706    15.7967 </r>
       <r>    15.8598     0.3578    15.8257 </r>
       <r>    15.9409     1.2602    15.9278 </r>
       <r>    16.0219     0.8418    15.9960 </r>
       <r>    16.1029     0.0491    16.0000 </r>
       <r>    16.1840     0.0000    16.0000 </r>
       <r>    16.2650     0.0000    16.0000 </r>
       <r>    16.3460     0.0000    16.0000 </r>
       <r>    16.4271     0.0000    16.0000 </r>
       <r>    16.5081     0.0000    16.0000 </r>
       <r>    16.5891     0.0000    16.0000 </r>
       <r>    16.6701     0.0000    16.0000 </r>
       <r>    16.7512     0.0000    16.0000 </r>
       <r>    16.8322     0.0000    16.0000 </r>
       <r>    16.9132     0.0000    16.0000 </r>
       <r>    16.9943     0.0000    16.0000 </r>
       <r>    17.0753     0.0000    16.0000 </r>
      </set>
     </set>
    </array>
   </total>
   <partial>
    <array>
     <dimension dim="1">gridpoints</dimension>
     <dimension dim="2">spin</dimension>
     <dimension dim="3">ion</dimension>
     <field>energy</field>
     <field>    s</field>
     <field>   py</field>
     <field>   pz</field>
     <field>   px</field>
     <field>  dxy</field>
     <field>  dyz</field>
     <field>  dz2</field>
     <field>  dxz</field>
     <field>x2-y2</field>
     <set>
      <set comment="ion 1">
       <set comment="spin 1">
        <r>    -7.2340     0.0000     0.0000     0.0000     0.0000     0.0000     0.0000     0.0000     0.0000     0.0000 </r>
        <r>    -7.1530     0.0000     0.0000     0.0000     0.0000     0.0000     0.0000     0.0000     0.0000     0.0000 </r>
        <r>    -7.0719     0.0000     0.0000     0.0000     0.0000     0.0000     0.0000     0.0000     0.0000     0.0000 </r>
        <r>    -6.9909     0.0000     0.0000     0.0000     0.0000     0.0000     0.0000     0.0000     0.0000     0.0000 </r>
        <r>    -6.9099     0.0000     0.0000     0.0000     0.0000     0.0000     0.0000     0.0000     0.0000     0.0000 </r>
        <r>    -6.8289     0.0000     0.0000     0.0000     0.0000     0.0000     0.0000     0.0000     0.0000     0.0000 </r>
        <r>    -6.7478     0.0000     0.0000     0.0000     0.0000     0.0000     0.0000     0.0000     0.0000     0.0000 </r>
        <r>    -6.6668     0.0000     0.0000     0.0000     0.0000     0.0000     0.0000     0.0000     0.0000     0.0000 </r>
        <r>    -6.5858     0.0000     0.0000     0.0000     0.0000     0.0000     0.0000     0.0000     0.0000     0.0000 </r>
        <r>    -6.5047     0.0000     0.0000     0.0000     0.0000     0.0000     0.0000     0.0000     0.0000     0.0000 </r>
        <r>    -6.4237     0.0000     0.0000     0.0000     0.0000     0.0000     0.0000     0.0000     0.0000     0.0000 </r>
        <r>    -6.3427     0.0000     0.0000     0.0000     0.0000     0.0000     0.0000     0.0000     0.0000     0.0000 </r>
        <r>    -6.2616     0.0000     0.0000     0.0000     0.0000     0.0000     0.0000     0.0000     0.0000     0.0000 </r>
        <r>    -6.1806     0.0248     0.0000     0.0000     0.0000     0.0000     0.0000     0.0000     0.0000     0.0000 </r>
        <r>    -6.0996     0.4042     0.0002     0.0000     0.0002     0.0000     0.0000     0.0000     0.0000     0.0000 </r>
        <r>    -6.0185     0.4402     0.0006     0.0000     0.0006     0.0000     0.0000     0.0000     0.0000     0.0000 </r>
        <r>    -5.9375     0.2651     0.0010     0.0000     0.0010     0.0000     0.0000     0.0000     0.0000     0.0000 </r>
        <r>    -5.8565     0.2087     0.0012     0.0000     0.0012     0.0000     0.0000     0.0000     0.0000     0.0000 </r>
        <r>    -5.7755     0.1786     0.0014     0.0000     0.0014     0.0000     0.0000     0.0000     0.0000     0.0000 </r>
        <r>    -5.6944     0.1586     0.0016     0.0000     0.0016     0.0000     0.0000     0.0000     0.0000     0.0000 </r>
        <r>    -5.6134     0.1440     0.0018     0.0000     0.0018     0.0000     0.0000     0.0000     0.0000     0.0000 </r>
        <r>    -5.5324     0.1331     0.0019     0.0000     0.0019     0.0000     0.0000     0.0000     0.0000     0.0000 </r>
        <r>    -5.4513     0.1248     0.0021     0.0000     0.0021     0.0000     0.0000     0.0000     0.0000     0.0000 </r>
        <r>    -5.3703     0.1181     0.0022     0.0000     0.0022     0.0000     0.0000     0.0000     0.0000     0.0000 </r>
        <r>    -5.2893     0.1111     0.0023     0.0000     0.0023     0.0000     0.0000     0.0000     0.0000     0.0000 </r>
        <r>    -5.2082     0.1023     0.0024     0.0000     0.0024     0.0000     0.0000     0.0000     0.0000     0.0000 </r>
        <r>    -5.1272     0.0967     0.0024     0.0000     0.0024     0.0000     0.0000     0.0000     0.0000     0.0000 </r>
        <r>    -5.0462     0.1008     0.0028     0.0000     0.0028     0.0000     0.0000     0.0000     0.0000     0.0000 </r>
        <r>    -4.9651     0.0995     0.0030     0.0000     0.0030     0.0000     0.0000     0.0000     0.0000     0.0000 </r>
        <r>    -4.8841     0.0812     0.0026     0.0000     0.0026     0.0000     0.0000     0.0000     0.0000     0.0000 </r>
        <r>    -4.8031     0.0846     0.0029     0.0000     0.0029     0.0000     0.0000     0.0000     0.0000     0.0000 </r>
        <r>    -4.7220     0.0974     0.0036     0.0000     0.0036     0.0000     0.0000     0.0000     0.0000     0.0000 </r>
        <r>    -4.6410     0.0696     0.0027     0.0000     0.0027     0.0000     0.0000     0.0000     0.0000     0.0000 </r>
        <r>    -4.5600     0.0812     0.0033     0.0000     0.0033     0.0000     0.0000     0.0000     0.0000     0.0000 </r>
        <r>    -4.4790     0.0890     0.0039     0.0000     0.0039     0.0000     0.0000     0.0000     0.0000     0.0000 </r>
        <r>    -4.3979     0.0563     0.0025     0.0000     0.0025     0.0000     0.0000     0.0000     0.0000     0.0000 </r>
        <r>    -4.3169     0.0941     0.0045     0.0000     0.0045     0.0000     0.0000     0.0000     0.0000     0.0000 </r>
        <r>    -4.2359     0.0569     0.0029     0.0000     0.0029     0.0000     0.0000     0.0000     0.0000     0.0000 </r>
        <r>    -4.1548     0.0784     0.0040     0.0000     0.0040     0.0000     0.0000     0.0000     0.0000     0.0000 </r>
        <r>    -4.0738     0.0704     0.0039     0.0000     0.0039     0.0000     0.0000     0.0000     0.0000     0.0000 </r>
        <r>    -3.9928     0.0596     0.0033     0.0000     0.0033     0.0000     0.0000     0.0000     0.0000     0.0000 </r>
        <r>    -3.9117     0.0814     0.0049     0.0000     0.0049     0.0000     0.0000     0.0000     0.0000     0.0000 </r>
        <r>    -3.8307     0.0463     0.0028     0.0000     0.0028     0.0000     0.0000     0.0000     0.0000     0.0000 </r>
        <r>    -3.7497     0.0867     0.0056     0.0000     0.0056     0.0000     0.0000     0.0000     0.0000     0.0000 </r>
        <r>    -3.6686     0.0389     0.0025     0.0000     0.0025     0.0000     0.0000     0.0000     0.0000     0.0000 </r>
        <r>    -3.5876     0.0879     0.0060     0.0000     0.0060     0.0000     0.0000     0.0000     0.0000     0.0000 </r>
        <r>    -3.5066     0.0353     0.0025     0.0000     0.0025     0.0000     0.0000     0.0000     0.0000     0.0000 </r>
        <r>    -3.4256     0.0859     0.0063     0.0000     0.0063     0.0000     0.0000     0.0000     0.0000     0.0000 </r>
        <r>    -3.3445     0.0356     0.0026     0.0000     0.0026     0.0000     0.0000     0.0000     0.0000     0.0000 </r>
        <r>    -3.2635     0.0797     0.0062     0.0000     0.0062     0.0000     0.0000     0.0000     0.0000     0.0000 </r>
        <r>    -3.1825     0.0411     0.0032     0.0000     0.0032     0.0000     0.0000     0.0000     0.0000     0.0000 </r>
        <r>    -3.1014     0.0671     0.0056     0.0000     0.0056     0.0000     0.0000     0.0000     0.0000     0.0000 </r>
        <r>    -3.0204     0.0537     0.0045     0.0000     0.0045     0.0000     0.0000     0.0000     0.0000     0.0000 </r>
        <r>    -2.9394     0.0477     0.0042     0.0000     0.0042     0.0000     0.0000     0.0000     0.0000     0.0000 </r>
        <r>    -2.8583     0.0721     0.0064     0.0000     0.0064     0.0000     0.0000     0.0000     0.0000     0.0000 </r>
        <r>    -2.7773     0.0272     0.0025     0.0000     0.0025     0.0000     0.0000     0.0000     0.0000     0.0000 </r>
        <r>    -2.6963     0.0882     0.0083     0.0000     0.0083     0.0000     0.0000     0.0000     0.0000     0.0000 </r>
        <r>    -2.6152     0.0169     0.0016     0.0000     0.0016     0.0000     0.0000     0.0000     0.0000     0.0000 </r>
        <r>    -2.5342     0.0871     0.0087     0.0000     0.0087     0.0000     0.0000     0.0000     0.0000     0.0000 </r>
        <r>    -2.4532     0.0272     0.0027     0.0000     0.0027     0.0000     0.0000     0.0000     0.0000     0.0000 </r>
        <r>    -2.3721     0.0599     0.0063     0.0000     0.0063     0.0000     0.0000     0.0000     0.0000     0.0000 </r>
        <r>    -2.2911     0.0582     0.0062     0.0000     0.0062     0.0000     0.0000     0.0000     0.0000     0.0000 </r>
        <r>    -2.2101     0.0246     0.0027     0.0000     0.0027     0.0000     0.0000     0.0000     0.0000     0.0000 </r>
        <r>    -2.1291     0.0874     0.0098     0.0000     0.0098     0.0000     0.0000     0.0000     0.0000     0.0000 </r>
        <r>    -2.0480     0.0176     0.0020     0.0000     0.0020     0.0000     0.0000     0.0000     0.0000     0.0000 </r>
        <r>    -1.9670     0.1512     0.0179     0.0000     0.0179     0.0000     0.0000     0.0000     0.0000     0.0000 </r>
        <r>    -1.8860     0.0782     0.0092     0.0000     0.0092     0.0000     0.0000     0.0000     0.0000     0.0000 </r>
        <r>    -1.8049     0.0318     0.0040     0.0000     0.0040     0.0000     0.0000     0.0000     0.0000     0.0000 </r>
        <r>    -1.7239     0.0817     0.0102     0.0000     0.0102     0.0000     0.0000     0.0000     0.0000     0.0000 </r>
        <r>    -1.6429     0.0100     0.0013     0.0000     0.0013     0.0000     0.0000     0.0000     0.0000     0.0000 </r>
        <r>    -1.5618     0.0769     0.0101     0.0000     0.0101     0.0000     0.0000     0.0000     0.0000     0.0000 </r>
        <r>    -1.4808     0.0368     0.0048     0.0000     0.0048     0.0000     0.0000     0.0000     0.0000     0.0000 </r>
        <r>    -1.3998     0.0260     0.0036     0.0000     0.0036     0.0000     0.0000     0.0000     0.0000     0.0000 </r>
        <r>    -1.3187     0.0840     0.0116     0.0000     0.0116     0.0000     0.0000     0.0000     0.0000     0.0000 </r>
        <r>    -1.2377     0.0095     0.0013     0.0000     0.0013     0.0000     0.0000     0.0000     0.0000     0.0000 </r>
        <r>    -1.1567     0.0645     0.0094     0.0000     0.0094     0.0000     0.0000     0.0000     0.0000     0.0000 </r>
        <r>    -1.0757     0.0493     0.0072     0.0000     0.0072     0.0000     0.0000     0.0000     0.0000     0.0000 </r>
        <r>    -0.9946     0.0132     0.0020     0.0000     0.0020     0.0000     0.0000     0.0000     0.0000     0.0000 </r>
        <r>    -0.9136     0.0864     0.0132     0.0000     0.0132     0.0000     0.0000     0.0000     0.0000     0.0000 </r>
        <r>    -0.8326     0.0173     0.0027     0.0000     0.0027     0.0000     0.0000     0.0000     0.0000     0.0000 </r>
        <r>    -0.7515     0.0375     0.0060     0.0000     0.0060     0.0000     0.0000     0.0000     0.0000     0.0000 </r>
        <r>    -0.6705     0.0735     0.0118     0.0000     0.0118     0.0000     0.0000     0.0000     0.0000     0.0000 </r>
        <r>    -0.5895     0.0063     0.0010     0.0000     0.0010     0.0000     0.0000     0.0000     0.0000     0.0000 </r>
        <r>    -0.5084     0.0674     0.0114     0.0000     0.0114     0.0000     0.0000     0.0000     0.0000     0.0000 </r>
        <r>    -0.4274     0.0436     0.0074     0.0000     0.0074     0.0000     0.0000     0.0000     0.0000     0.0000 </r>
        <r>    -0.3464     0.0108     0.0019     0.0000     0.0019     0.0000     0.0000     0.0000     0.0000     0.0000 </r>
        <r>    -0.2653     0.0837     0.0149     0.0000     0.0149     0.0000     0.0000     0.0000     0.0000     0.0000 </r>
        <r>    -0.1843     0.0193     0.0034     0.0000     0.0034     0.0000     0.0000     0.0000     0.0000     0.0000 </r>
        <r>    -0.1033     0.0263     0.0049     0.0000     0.0049     0.0000     0.0000     0.0000     0.0000     0.0000 </r>
        <r>    -0.0222     0.0793     0.0148     0.0000     0.0148     0.0000     0.0000     0.0000     0.0000     0.0000 </r>
        <r>     0.0588     0.0073     0.0014     0.0000     0.0014     0.0000     0.0000     0.0000     0.0000     0.0000 </r>
        <r>     0.1398     0.0477     0.0093     0.0000     0.0093     0.0000     0.0000     0.0000     0.0000     0.0000 </r>
        <r>     0.2208     0.0608     0.0119     0.0000     0.0119     0.0000     0.0000     0.0000     0.0000     0.0000 </r>
        <r>     0.3019     0.0047     0.0010     0.0000     0.0010     0.0000     0.0000     0.0000     0.0000     0.0000 </r>
        <r>     0.3829     0.0674     0.0139     0.0000     0.0139     0.0000     0.0000     0.0000     0.0000     0.0000 </r>
        <r>     0.4639     0.0393     0.0081     0.0000     0.0081     0.0000     0.0000     0.0000     0.0000     0.0000 </r>
        <r>     0.5450     0.0083     0.0018     0.0000     0.0018     0.0000     0.0000     0.0000     0.0000     0.0000 </r>
        <r>     0.6260     0.0789     0.0170     0.0000     0.0170     0.0000     0.0000     0.0000     0.0000     0.0000 </r>
        <r>     0.7070     0.0220     0.0047     0.0000     0.0047     0.0000     0.0000     0.0000     0.0000     0.0000 </r>
        <r>     0.7881     0.0167     0.0038     0.0000     0.0038     0.0000     0.0000     0.0000     0.0000     0.0000 </r>
        <r>     0.8691     0.0800     0.0182     0.0000     0.0182     0.0000     0.0000     0.0000     0.0000     0.0000 </r>
        <r>     0.9501     0.0110     0.0025     0.0000     0.0025     0.0000     0.0000     0.0000     0.0000     0.0000 </r>
        <r>     1.0312     0.0288     0.0069     0.0000     0.0069     0.0000     0.0000     0.0000     0.0000     0.0000 </r>
        <r>     1.1122     0.0722     0.0172     0.0000     0.0172     0.0000     0.0000     0.0000     0.0000     0.0000 </r>
        <r>     1.1932     0.0055     0.0013     0.0000     0.0013     0.0000     0.0000     0.0000     0.0000     0.0000 </r>
        <r>     1.2742     0.0429     0.0108     0.0000     0.0108     0.0000     0.0000     0.0000     0.0000     0.0000 </r>
        <r>     1.3553     0.0590     0.0148     0.0000     0.0148     0.0000     0.0000     0.0000     0.0000     0.0000 </r>
        <r>     1.4363     0.0037     0.0009     0.0000     0.0009     0.0000     0.0000     0.0000     0.0000     0.0000 </r>
        <r>     1.5173     0.0564     0.0150     0.0000     0.0150     0.0000     0.0000     0.0000     0.0000     0.0000 </r>
        <r>     1.5984     0.0439     0.0117     0.0000     0.0117     0.0000     0.0000     0.0000     0.0000     0.0000 </r>
        <r>     1.6794     0.0046     0.0013     0.0000     0.0013     0.0000     0.0000     0.0000     0.0000     0.0000 </r>
        <r>     1.7604     0.0669     0.0187     0.0000     0.0187     0.0000     0.0000     0.0000     0.0000     0.0000 </r>
        <r>     1.8415     0.0299     0.0084     0.0000     0.0084     0.0000     0.0000     0.0000     0.0000     0.0000 </r>
        <r>     1.9225     0.0081     0.0024     0.0000     0.0024     0.0000     0.0000     0.0000     0.0000     0.0000 </r>
        <r>     2.0035     0.0725     0.0215     0.0000     0.0215     0.0000     0.0000     0.0000     0.0000     0.0000 </r>
        <r>     2.0846     0.0185     0.0055     0.0000     0.0055     0.0000     0.0000     0.0000     0.0000     0.0000 </r>
        <r>     2.1656     0.0143     0.0045     0.0000     0.0045     0.0000     0.0000     0.0000     0.0000     0.0000 </r>
        <r>     2.2466     0.0722     0.0227     0.0000     0.0227     0.0000     0.0000     0.0000     0.0000     0.0000 </r>
        <r>     2.3277     0.0105     0.0033     0.0000     0.0033     0.0000     0.0000     0.0000     0.0000     0.0000 </r>
        <r>     2.4087     0.0231     0.0077     0.0000     0.0077     0.0000     0.0000     0.0000     0.0000     0.0000 </r>
        <r>     2.4897     0.0661     0.0221     0.0000     0.0221     0.0000     0.0000     0.0000     0.0000     0.0000 </r>
        <r>     2.5707     0.0055     0.0019     0.0000     0.0019     0.0000     0.0000     0.0000     0.0000     0.0000 </r>
        <r>     2.6518     0.0341     0.0122     0.0000     0.0122     0.0000     0.0000     0.0000     0.0000     0.0000 </r>
        <r>     2.7328     0.0551     0.0196     0.0000     0.0196     0.0000     0.0000     0.0000     0.0000     0.0000 </r>
        <r>     2.8138     0.0034     0.0012     0.0000     0.0012     0.0000     0.0000     0.0000     0.0000     0.0000 </r>
        <r>     2.8949     0.0461     0.0211     0.0070     0.0211     0.0000     0.0000     0.0000     0.0000     0.0000 </r>
        <r>     2.9759     0.0411     0.1169     0.2024     0.1169     0.0000     0.0000     0.0000     0.0000     0.0000 </r>
        <r>     3.0569     0.0039     0.2368     0.4704     0.2368     0.0000     0.0000     0.0000     0.0000     0.0000 </r>
        <r>     3.1380     0.0563     0.1832     0.3203     0.1832     0.0000     0.0000     0.0000     0.0000     0.0000 </r>
        <r>     3.2190     0.0265     0.1242     0.2267     0.1242     0.0000     0.0000     0.0000     0.0000     0.0000 </r>
        <r>     3.3000     0.0076     0.0977     0.1886     0.0977     0.0000     0.0000     0.0000     0.0000     0.0000 </r>
        <r>     3.3811     0.0612     0.1100     0.1658     0.1100     0.0000     0.0000     0.0000     0.0000     0.0000 </r>
        <r>     3.4621     0.0142     0.0813     0.1500     0.0813     0.0000     0.0000     0.0000     0.0000     0.0000 </r>
        <r>     3.5431     0.0158     0.0767     0.1382     0.0767     0.0000     0.0000     0.0000     0.0000     0.0000 </r>
        <r>     3.6241     0.0575     0.0922     0.1290     0.0922     0.0000     0.0000     0.0000     0.0000     0.0000 </r>
        <r>     3.7052     0.0062     0.0638     0.1217     0.0638     0.0000     0.0000     0.0000     0.0000     0.0000 </r>
        <r>     3.7862     0.0287     0.0730     0.1156     0.0730     0.0000     0.0000     0.0000     0.0000     0.0000 </r>
        <r>     3.8672     0.0444     0.0786     0.1103     0.0786     0.0000     0.0000     0.0000     0.0000     0.0000 </r>
        <r>     3.9483     0.0035     0.0549     0.1059     0.0549     0.0000     0.0000     0.0000     0.0000     0.0000 </r>
        <r>     4.0293     0.0431     0.0764     0.1025     0.0764     0.0000     0.0000     0.0000     0.0000     0.0000 </r>
        <r>     4.1103     0.0257     0.0648     0.0996     0.0648     0.0000     0.0000     0.0000     0.0000     0.0000 </r>
        <r>     4.1914     0.0076     0.0531     0.0962     0.0531     0.0000     0.0000     0.0000     0.0000     0.0000 </r>
        <r>     4.2724     0.0494     0.0789     0.0932     0.0789     0.0000     0.0000     0.0000     0.0000     0.0000 </r>
        <r>     4.3534     0.0096     0.0527     0.0929     0.0527     0.0000     0.0000     0.0000     0.0000     0.0000 </r>
        <r>     4.4345     0.0215     0.0617     0.0916     0.0617     0.0000     0.0000     0.0000     0.0000     0.0000 </r>
        <r>     4.5155     0.0375     0.0712     0.0866     0.0712     0.0000     0.0000     0.0000     0.0000     0.0000 </r>
        <r>     4.5965     0.0044     0.0469     0.0867     0.0469     0.0000     0.0000     0.0000     0.0000     0.0000 </r>
        <r>     4.6776     0.0380     0.0776     0.0901     0.0776     0.0000     0.0000     0.0000     0.0000     0.0000 </r>
        <r>     4.7586     0.0145     0.0543     0.0839     0.0543     0.0000     0.0000     0.0000     0.0000     0.0000 </r>
        <r>     4.8396     0.0160     0.0575     0.0826     0.0575     0.0000     0.0000     0.0000     0.0000     0.0000 </r>
        <r>     4.9206     0.0312     0.0765     0.0899     0.0765     0.0000     0.0000     0.0000     0.0000     0.0000 </r>
        <r>     5.0017     0.0059     0.0488     0.0838     0.0488     0.0000     0.0000     0.0000     0.0000     0.0000 </r>
        <r>     5.0827     0.0312     0.0797     0.0822     0.0797     0.0000     0.0000     0.0000     0.0000     0.0000 </r>
        <r>     5.1637     0.0078     0.0557     0.0913     0.0557     0.0000     0.0000     0.0000     0.0000     0.0000 </r>
        <r>     5.2448     0.0230     0.0801     0.0881     0.0801     0.0000     0.0000     0.0000     0.0000     0.0000 </r>
        <r>     5.3258     0.0111     0.0611     0.0862     0.0611     0.0000     0.0000     0.0000     0.0000     0.0000 </r>
        <r>     5.4068     0.0175     0.0851     0.0965     0.0851     0.0000     0.0000     0.0000     0.0000     0.0000 </r>
        <r>     5.4879     0.0103     0.0736     0.1002     0.0736     0.0000     0.0000     0.0000     0.0000     0.0000 </r>
        <r>     5.5689     0.0142     0.0965     0.1054     0.0965     0.0000     0.0000     0.0000     0.0000     0.0000 </r>
        <r>     5.6499     0.0087     0.0968     0.1186     0.0968     0.0000     0.0000     0.0000     0.0000     0.0000 </r>
        <r>     5.7310     0.0083     0.1307     0.1495     0.1307     0.0000     0.0000     0.0000     0.0000     0.0000 </r>
        <r>     5.8120     0.0049     0.2101     0.2350     0.2101     0.0000     0.0000     0.0000     0.0000     0.0000 </r>
        <r>     5.8930     0.0013     0.1751     0.1912     0.1751     0.0000     0.0000     0.0000     0.0000     0.0000 </r>
        <r>     5.9740     0.0000     0.0159     0.0169     0.0159     0.0000     0.0000     0.0000     0.0000     0.0000 </r>
        <r>     6.0551     0.0000     0.0000     0.0000     0.0000     0.0000     0.0000     0.0000     0.0000     0.0000 </r>
        <r>     6.1361     0.0000     0.0000     0.0000     0.0000     0.0000     0.0000     0.0000     0.0000     0.0000 </r>
        <r>     6.2171     0.0000     0.0000     0.0000     0.0000     0.0000     0.0000     0.0000     0.0000     0.0000 </r>
        <r>     6.2982     0.0001     0.0001     0.0000     0.0001     0.0000     0.0000     0.0000     0.0000     0.0000 </r>
        <r>     6.3792     0.0349     0.0143     0.0000     0.0143     0.0000     0.0000     0.0000     0.0000     0.0000 </r>
        <r>     6.4602     0.2143     0.0887     0.0000     0.0887     0.0000     0.0000     0.0000     0.0000     0.0000 </r>
        <r>     6.5413     0.1681     0.0720     0.0000     0.0720     0.0000     0.0000     0.0000     0.0000     0.0000 </r>
        <r>     6.6223     0.1155     0.0521     0.0000     0.0521     0.0000     0.0000     0.0000     0.0000     0.0000 </r>
        <r>     6.7033     0.0889     0.0431     0.0000     0.0431     0.0000     0.0000     0.0000     0.0000     0.0000 </r>
        <r>     6.7844     0.0729     0.0380     0.0000     0.0380     0.0000     0.0000     0.0000     0.0000     0.0000 </r>
        <r>     6.8654     0.0638     0.0355     0.0000     0.0355     0.0000     0.0000     0.0000     0.0000     0.0000 </r>
        <r>     6.9464     0.0568     0.0338     0.0000     0.0338     0.0000     0.0000     0.0000     0.0000     0.0000 </r>
        <r>     7.0275     0.0516     0.0327     0.0000     0.0327     0.0000     0.0000     0.0000     0.0000     0.0000 </r>
        <r>     7.1085     0.0485     0.0324     0.0000     0.0324     0.0000     0.0000     0.0000     0.0000     0.0000 </r>
        <r>     7.1895     0.0449     0.0320     0.0000     0.0320     0.0000     0.0000     0.0000     0.0000     0.0000 </r>
        <r>     7.2705     0.0386     0.0307     0.0000     0.0307     0.0000     0.0000     0.0000     0.0000     0.0000 </r>
        <r>     7.3516     0.0380     0.0313     0.0000     0.0313     0.0000     0.0000     0.0000     0.0000     0.0000 </r>
        <r>     7.4326     0.0380     0.0322     0.0000     0.0322     0.0000     0.0000     0.0000     0.0000     0.0000 </r>
        <r>     7.5136     0.0294     0.0306     0.0000     0.0306     0.0000     0.0000     0.0000     0.0000     0.0000 </r>
        <r>     7.5947     0.0351     0.0342     0.0000     0.0342     0.0000     0.0000     0.0000     0.0000     0.0000 </r>
        <r>     7.6757     0.0283     0.0337     0.0000     0.0337     0.0000     0.0000     0.0000     0.0000     0.0000 </r>
        <r>     7.7567     0.0278     0.0350     0.0000     0.0350     0.0000     0.0000     0.0000     0.0000     0.0000 </r>
        <r>     7.8378     0.0280     0.0367     0.0000     0.0367     0.0000     0.0000     0.0000     0.0000     0.0000 </r>
        <r>     7.9188     0.0216     0.0366     0.0000     0.0366     0.0000     0.0000     0.0000     0.0000     0.0000 </r>
        <r>     7.9998     0.0269     0.0416     0.0000     0.0416     0.0000     0.0000     0.0000     0.0000     0.0000 </r>
        <r>     8.0809     0.0179     0.0425     0.0000     0.0425     0.0000     0.0000     0.0000     0.0000     0.0000 </r>
        <r>     8.1619     0.0243     0.0507     0.0000     0.0507     0.0000     0.0000     0.0000     0.0000     0.0000 </r>
        <r>     8.2429     0.0158     0.0569     0.0002     0.0569     0.0000     0.0000     0.0000     0.0000     0.0000 </r>
        <r>     8.3239     0.0203     0.0937     0.0135     0.0937     0.0000     0.0000     0.0000     0.0000     0.0000 </r>
        <r>     8.4050     0.0171     0.1507     0.0834     0.1507     0.0000     0.0000     0.0000     0.0000     0.0000 </r>
        <r>     8.4860     0.0113     0.1306     0.1572     0.1306     0.0000     0.0000     0.0000     0.0000     0.0000 </r>
        <r>     8.5670     0.0175     0.0606     0.1002     0.0605     0.0000     0.0000     0.0000     0.0000     0.0000 </r>
        <r>     8.6481     0.0061     0.0405     0.0761     0.0405     0.0000     0.0000     0.0000     0.0000     0.0000 </r>
        <r>     8.7291     0.0214     0.0384     0.0604     0.0384     0.0000     0.0000     0.0000     0.0000     0.0000 </r>
        <r>     8.8101     0.0043     0.0346     0.0661     0.0346     0.0000     0.0000     0.0000     0.0000     0.0000 </r>
        <r>     8.8912     0.0200     0.0326     0.0499     0.0326     0.0000     0.0000     0.0000     0.0000     0.0000 </r>
        <r>     8.9722     0.0091     0.0316     0.0563     0.0316     0.0000     0.0000     0.0000     0.0000     0.0000 </r>
        <r>     9.0532     0.0115     0.0286     0.0486     0.0286     0.0000     0.0000     0.0000     0.0000     0.0000 </r>
        <r>     9.1343     0.0223     0.0330     0.0510     0.0330     0.0000     0.0000     0.0000     0.0000     0.0000 </r>
        <r>     9.2153     0.1766     0.0236     0.0436     0.0236     0.0000     0.0000     0.0000     0.0000     0.0000 </r>
        <r>     9.2963     0.3968     0.0386     0.0547     0.0386     0.0000     0.0000     0.0000     0.0000     0.0000 </r>
        <r>     9.3774     0.2059     0.0215     0.0321     0.0215     0.0000     0.0000     0.0000     0.0000     0.0000 </r>
        <r>     9.4584     0.1569     0.0422     0.0640     0.0422     0.0000     0.0000     0.0000     0.0000     0.0000 </r>
        <r>     9.5394     0.1718     0.0225     0.0201     0.0225     0.0000     0.0000     0.0000     0.0000     0.0000 </r>
        <r>     9.6204     0.1024     0.0421     0.0685     0.0421     0.0000     0.0000     0.0000     0.0000     0.0000 </r>
        <r>     9.7015     0.1488     0.0286     0.0225     0.0286     0.0000     0.0000     0.0000     0.0000     0.0000 </r>
        <r>     9.7825     0.1097     0.0361     0.0522     0.0361     0.0000     0.0000     0.0000     0.0000     0.0000 </r>
        <r>     9.8635     0.1228     0.0412     0.0454     0.0412     0.0000     0.0000     0.0000     0.0000     0.0000 </r>
        <r>     9.9446     0.1295     0.0275     0.0236     0.0275     0.0000     0.0000     0.0000     0.0000     0.0000 </r>
        <r>    10.0256     0.1158     0.0548     0.0682     0.0548     0.0000     0.0000     0.0000     0.0000     0.0000 </r>
        <r>    10.1066     0.1565     0.0338     0.0184     0.0338     0.0000     0.0000     0.0000     0.0000     0.0000 </r>
        <r>    10.1877     0.1467     0.0490     0.0445     0.0490     0.0000     0.0000     0.0000     0.0000     0.0000 </r>
        <r>    10.2687     0.2522     0.0749     0.0503     0.0749     0.0000     0.0000     0.0000     0.0000     0.0000 </r>
        <r>    10.3497     0.1393     0.0362     0.0156     0.0362     0.0000     0.0000     0.0000     0.0000     0.0000 </r>
        <r>    10.4308     0.0038     0.0375     0.0734     0.0375     0.0000     0.0000     0.0000     0.0000     0.0000 </r>
        <r>    10.5118     0.0000     0.0081     0.0162     0.0081     0.0000     0.0000     0.0000     0.0000     0.0000 </r>
        <r>    10.5928     0.0000     0.0197     0.0394     0.0197     0.0000     0.0000     0.0000     0.0000     0.0000 </r>
        <r>    10.6738     0.0000     0.0297     0.0595     0.0297     0.0000     0.0000     0.0000     0.0000     0.0000 </r>
        <r>    10.7549     0.0000     0.0038     0.0076     0.0038     0.0000     0.0000     0.0000     0.0000     0.0000 </r>
        <r>    10.8359     0.0000     0.0325     0.0651     0.0325     0.0000     0.0000     0.0000     0.0000     0.0000 </r>
        <r>    10.9169     0.0000     0.0164     0.0328     0.0164     0.0000     0.0000     0.0000     0.0000     0.0000 </r>
        <r>    10.9980     0.0000     0.0078     0.0155     0.0078     0.0000     0.0000     0.0000     0.0000     0.0000 </r>
        <r>    11.0790     0.0000     0.0372     0.0744     0.0372     0.0000     0.0000     0.0000     0.0000     0.0000 </r>
        <r>    11.1600     0.0000     0.0069     0.0138     0.0069     0.0000     0.0000     0.0000     0.0000     0.0000 </r>
        <r>    11.2411     0.0000     0.0163     0.0325     0.0163     0.0000     0.0000     0.0000     0.0000     0.0000 </r>
        <r>    11.3221     0.0000     0.0328     0.0657     0.0328     0.0000     0.0000     0.0000     0.0000     0.0000 </r>
        <r>    11.4031     0.0000     0.0030     0.0060     0.0030     0.0000     0.0000     0.0000     0.0000     0.0000 </r>
        <r>    11.4842     0.0000     0.0262     0.0523     0.0262     0.0000     0.0000     0.0000     0.0000     0.0000 </r>
        <r>    11.5652     0.0000     0.0239     0.0477     0.0239     0.0000     0.0000     0.0000     0.0000     0.0000 </r>
        <r>    11.6462     0.0000     0.0029     0.0058     0.0029     0.0000     0.0000     0.0000     0.0000     0.0000 </r>
        <r>    11.7273     0.0000     0.0337     0.0674     0.0337     0.0000     0.0000     0.0000     0.0000     0.0000 </r>
        <r>    11.8083     0.0000     0.0152     0.0304     0.0152     0.0000     0.0000     0.0000     0.0000     0.0000 </r>
        <r>    11.8893     0.0000     0.0051     0.0101     0.0051     0.0000     0.0000     0.0000     0.0000     0.0000 </r>
        <r>    11.9703     0.0000     0.0374     0.0747     0.0374     0.0000     0.0000     0.0000     0.0000     0.0000 </r>
        <r>    12.0514     0.0000     0.0091     0.0182     0.0091     0.0000     0.0000     0.0000     0.0000     0.0000 </r>
        <r>    12.1324     0.0000     0.0086     0.0172     0.0086     0.0000     0.0000     0.0000     0.0000     0.0000 </r>
        <r>    12.2134     0.0000     0.0376     0.0752     0.0376     0.0000     0.0000     0.0000     0.0000     0.0000 </r>
        <r>    12.2945     0.0000     0.0052     0.0104     0.0052     0.0000     0.0000     0.0000     0.0000     0.0000 </r>
        <r>    12.3755     0.0000     0.0129     0.0257     0.0129     0.0000     0.0000     0.0000     0.0000     0.0000 </r>
        <r>    12.4565     0.0000     0.0355     0.0709     0.0355     0.0000     0.0000     0.0000     0.0000     0.0000 </r>
        <r>    12.5376     0.0000     0.0031     0.0061     0.0031     0.0000     0.0000     0.0000     0.0000     0.0000 </r>
        <r>    12.6186     0.0000     0.0173     0.0345     0.0173     0.0000     0.0000     0.0000     0.0000     0.0000 </r>
        <r>    12.6996     0.0000     0.0321     0.0643     0.0321     0.0000     0.0000     0.0000     0.0000     0.0000 </r>
        <r>    12.7807     0.0000     0.0020     0.0039     0.0020     0.0000     0.0000     0.0000     0.0000     0.0000 </r>
        <r>    12.8617     0.0000     0.0214     0.0429     0.0215     0.0000     0.0000     0.0000     0.0000     0.0000 </r>
        <r>    12.9427     0.0000     0.0284     0.0567     0.0284     0.0000     0.0000     0.0000     0.0000     0.0000 </r>
        <r>    13.0237     0.0000     0.0015     0.0030     0.0015     0.0000     0.0000     0.0000     0.0000     0.0000 </r>
        <r>    13.1048     0.0000     0.0251     0.0501     0.0251     0.0000     0.0000     0.0000     0.0000     0.0000 </r>
        <r>    13.1858     0.0000     0.0248     0.0496     0.0248     0.0000     0.0000     0.0000     0.0000     0.0000 </r>
        <r>    13.2668     0.0000     0.0014     0.0028     0.0014     0.0000     0.0000     0.0000     0.0000     0.0000 </r>
        <r>    13.3479     0.0000     0.0277     0.0554     0.0277     0.0000     0.0000     0.0000     0.0000     0.0000 </r>
        <r>    13.4289     0.0000     0.0220     0.0440     0.0220     0.0000     0.0000     0.0000     0.0000     0.0000 </r>
        <r>    13.5099     0.0000     0.0015     0.0029     0.0015     0.0000     0.0000     0.0000     0.0000     0.0000 </r>
        <r>    13.5910     0.0000     0.0296     0.0592     0.0296     0.0000     0.0000     0.0000     0.0000     0.0000 </r>
        <r>    13.6720     0.0000     0.0199     0.0398     0.0199     0.0000     0.0000     0.0000     0.0000     0.0000 </r>
        <r>    13.7530     0.0000     0.0016     0.0031     0.0016     0.0000     0.0000     0.0000     0.0000     0.0000 </r>
        <r>    13.8341     0.0000     0.0310     0.0619     0.0310     0.0000     0.0000     0.0000     0.0000     0.0000 </r>
        <r>    13.9151     0.0000     0.0185     0.0369     0.0185     0.0000     0.0000     0.0000     0.0000     0.0000 </r>
        <r>    13.9961     0.0000     0.0017     0.0034     0.0017     0.0000     0.0000     0.0000     0.0000     0.0000 </r>
        <r>    14.0772     0.0000     0.0320     0.0640     0.0320     0.0000     0.0000     0.0000     0.0000     0.0000 </r>
        <r>    14.1582     0.0000     0.0174     0.0348     0.0174     0.0000     0.0000     0.0000     0.0000     0.0000 </r>
        <r>    14.2392     0.0000     0.0017     0.0035     0.0018     0.0000     0.0000     0.0000     0.0000     0.0000 </r>
        <r>    14.3202     0.0000     0.0324     0.0648     0.0325     0.0000     0.0000     0.0000     0.0000     0.0000 </r>
        <r>    14.4013     0.0000     0.0172     0.0344     0.0171     0.0000     0.0000     0.0000     0.0000     0.0000 </r>
        <r>    14.4823     0.0000     0.0018     0.0035     0.0018     0.0000     0.0000     0.0000     0.0000     0.0000 </r>
        <r>    14.5633     0.0000     0.0326     0.0652     0.0326     0.0000     0.0000     0.0000     0.0000     0.0000 </r>
        <r>    14.6444     0.0000     0.0173     0.0347     0.0173     0.0000     0.0000     0.0000     0.0000     0.0000 </r>
        <r>    14.7254     0.0000     0.0019     0.0038     0.0019     0.0000     0.0000     0.0000     0.0000     0.0000 </r>
        <r>    14.8064     0.0000     0.0333     0.0666     0.0333     0.0000     0.0000     0.0000     0.0000     0.0000 </r>
        <r>    14.8875     0.0000     0.0172     0.0343     0.0172     0.0000     0.0000     0.0000     0.0000     0.0000 </r>
        <r>    14.9685     0.0000     0.0021     0.0042     0.0021     0.0000     0.0000     0.0000     0.0000     0.0000 </r>
        <r>    15.0495     0.0000     0.0346     0.0691     0.0346     0.0000     0.0000     0.0000     0.0000     0.0000 </r>
        <r>    15.1306     0.0000     0.0168     0.0336     0.0168     0.0000     0.0000     0.0000     0.0000     0.0000 </r>
        <r>    15.2116     0.0000     0.0030     0.0060     0.0030     0.0000     0.0000     0.0000     0.0000     0.0000 </r>
        <r>    15.2926     0.0000     0.0377     0.0753     0.0377     0.0000     0.0000     0.0000     0.0000     0.0000 </r>
        <r>    15.3736     0.0000     0.0146     0.0292     0.0146     0.0000     0.0000     0.0000     0.0000     0.0000 </r>
        <r>    15.4547     0.0000     0.0061     0.0122     0.0061     0.0000     0.0000     0.0000     0.0000     0.0000 </r>
        <r>    15.5357     0.0000     0.0429     0.0849     0.0425     0.0000     0.0000     0.0000     0.0000     0.0000 </r>
        <r>    15.6167     0.0000     0.0098     0.0194     0.0097     0.0000     0.0000     0.0000     0.0000     0.0000 </r>
        <r>    15.6978     0.0000     0.0210     0.0426     0.0213     0.0000     0.0000     0.0000     0.0000     0.0000 </r>
        <r>    15.7788     0.0000     0.0390     0.0781     0.0391     0.0000     0.0000     0.0000     0.0000     0.0000 </r>
        <r>    15.8598     0.0000     0.0199     0.0391     0.0210     0.0000     0.0000     0.0000     0.0000     0.0000 </r>
        <r>    15.9409     0.0000     0.0740     0.1448     0.0734     0.0000     0.0000     0.0000     0.0000     0.0000 </r>
        <r>    16.0219     0.0000     0.0506     0.1019     0.0485     0.0000     0.0000     0.0000     0.0000     0.0000 </r>
        <r>    16.1029     0.0000     0.0027     0.0062     0.0028     0.0000     0.0000     0.0000     0.0000     0.0000 </r>
        <r>    16.1840     0.0000     0.0000     0.0000     0.0000     0.0000     0.0000     0.0000     0.0000     0.0000 </r>
        <r>    16.2650     0.0000     0.0000     0.0000     0.0000     0.0000     0.0000     0.0000     0.0000     0.0000 </r>
        <r>    16.3460     0.0000     0.0000     0.0000     0.0000     0.0000     0.0000     0.0000     0.0000     0.0000 </r>
        <r>    16.4271     0.0000     0.0000     0.0000     0.0000     0.0000     0.0000     0.0000     0.0000     0.0000 </r>
        <r>    16.5081     0.0000     0.0000     0.0000     0.0000     0.0000     0.0000     0.0000     0.0000     0.0000 </r>
        <r>    16.5891     0.0000     0.0000     0.0000     0.0000     0.0000     0.0000     0.0000     0.0000     0.0000 </r>
        <r>    16.6701     0.0000     0.0000     0.0000     0.0000     0.0000     0.0000     0.0000     0.0000     0.0000 </r>
        <r>    16.7512     0.0000     0.0000     0.0000     0.0000     0.0000     0.0000     0.0000     0.0000     0.0000 </r>
        <r>    16.8322     0.0000     0.0000     0.0000     0.0000     0.0000     0.0000     0.0000     0.0000     0.0000 </r>
        <r>    16.9132     0.0000     0.0000     0.0000     0.0000     0.0000     0.0000     0.0000     0.0000     0.0000 </r>
        <r>    16.9943     0.0000     0.0000     0.0000     0.0000     0.0000     0.0000     0.0000     0.0000     0.0000 </r>
        <r>    17.0753     0.0000     0.0000     0.0000     0.0000     0.0000     0.0000     0.0000     0.0000     0.0000 </r>
       </set>
      </set>
      <set comment="ion 2">
       <set comment="spin 1">
        <r>    -7.2340     0.0000     0.0000     0.0000     0.0000     0.0000     0.0000     0.0000     0.0000     0.0000 </r>
        <r>    -7.1530     0.0000     0.0000     0.0000     0.0000     0.0000     0.0000     0.0000     0.0000     0.0000 </r>
        <r>    -7.0719     0.0000     0.0000     0.0000     0.0000     0.0000     0.0000     0.0000     0.0000     0.0000 </r>
        <r>    -6.9909     0.0000     0.0000     0.0000     0.0000     0.0000     0.0000     0.0000     0.0000     0.0000 </r>
        <r>    -6.9099     0.0000     0.0000     0.0000     0.0000     0.0000     0.0000     0.0000     0.0000     0.0000 </r>
        <r>    -6.8289     0.0000     0.0000     0.0000     0.0000     0.0000     0.0000     0.0000     0.0000     0.0000 </r>
        <r>    -6.7478     0.0000     0.0000     0.0000     0.0000     0.0000     0.0000     0.0000     0.0000     0.0000 </r>
        <r>    -6.6668     0.0000     0.0000     0.0000     0.0000     0.0000     0.0000     0.0000     0.0000     0.0000 </r>
        <r>    -6.5858     0.0000     0.0000     0.0000     0.0000     0.0000     0.0000     0.0000     0.0000     0.0000 </r>
        <r>    -6.5047     0.0000     0.0000     0.0000     0.0000     0.0000     0.0000     0.0000     0.0000     0.0000 </r>
        <r>    -6.4237     0.0000     0.0000     0.0000     0.0000     0.0000     0.0000     0.0000     0.0000     0.0000 </r>
        <r>    -6.3427     0.0000     0.0000     0.0000     0.0000     0.0000     0.0000     0.0000     0.0000     0.0000 </r>
        <r>    -6.2616     0.0000     0.0000     0.0000     0.0000     0.0000     0.0000     0.0000     0.0000     0.0000 </r>
        <r>    -6.1806     0.0248     0.0000     0.0000     0.0000     0.0000     0.0000     0.0000     0.0000     0.0000 </r>
        <r>    -6.0996     0.4042     0.0002     0.0000     0.0002     0.0000     0.0000     0.0000     0.0000     0.0000 </r>
        <r>    -6.0185     0.4402     0.0006     0.0000     0.0006     0.0000     0.0000     0.0000     0.0000     0.0000 </r>
        <r>    -5.9375     0.2651     0.0010     0.0000     0.0010     0.0000     0.0000     0.0000     0.0000     0.0000 </r>
        <r>    -5.8565     0.2087     0.0012     0.0000     0.0012     0.0000     0.0000     0.0000     0.0000     0.0000 </r>
        <r>    -5.7755     0.1786     0.0014     0.0000     0.0014     0.0000     0.0000     0.0000     0.0000     0.0000 </r>
        <r>    -5.6944     0.1586     0.0016     0.0000     0.0016     0.0000     0.0000     0.0000     0.0000     0.0000 </r>
        <r>    -5.6134     0.1440     0.0018     0.0000     0.0018     0.0000     0.0000     0.0000     0.0000     0.0000 </r>
        <r>    -5.5324     0.1331     0.0019     0.0000     0.0019     0.0000     0.0000     0.0000     0.0000     0.0000 </r>
        <r>    -5.4513     0.1248     0.0021     0.0000     0.0021     0.0000     0.0000     0.0000     0.0000     0.0000 </r>
        <r>    -5.3703     0.1181     0.0022     0.0000     0.0022     0.0000     0.0000     0.0000     0.0000     0.0000 </r>
        <r>    -5.2893     0.1111     0.0023     0.0000     0.0023     0.0000     0.0000     0.0000     0.0000     0.0000 </r>
        <r>    -5.2082     0.1023     0.0024     0.0000     0.0024     0.0000     0.0000     0.0000     0.0000     0.0000 </r>
        <r>    -5.1272     0.0967     0.0024     0.0000     0.0024     0.0000     0.0000     0.0000     0.0000     0.0000 </r>
        <r>    -5.0462     0.1008     0.0028     0.0000     0.0028     0.0000     0.0000     0.0000     0.0000     0.0000 </r>
        <r>    -4.9651     0.0995     0.0030     0.0000     0.0030     0.0000     0.0000     0.0000     0.0000     0.0000 </r>
        <r>    -4.8841     0.0812     0.0026     0.0000     0.0026     0.0000     0.0000     0.0000     0.0000     0.0000 </r>
        <r>    -4.8031     0.0846     0.0029     0.0000     0.0029     0.0000     0.0000     0.0000     0.0000     0.0000 </r>
        <r>    -4.7220     0.0974     0.0036     0.0000     0.0036     0.0000     0.0000     0.0000     0.0000     0.0000 </r>
        <r>    -4.6410     0.0696     0.0027     0.0000     0.0027     0.0000     0.0000     0.0000     0.0000     0.0000 </r>
        <r>    -4.5600     0.0812     0.0033     0.0000     0.0033     0.0000     0.0000     0.0000     0.0000     0.0000 </r>
        <r>    -4.4790     0.0890     0.0039     0.0000     0.0039     0.0000     0.0000     0.0000     0.0000     0.0000 </r>
        <r>    -4.3979     0.0563     0.0025     0.0000     0.0025     0.0000     0.0000     0.0000     0.0000     0.0000 </r>
        <r>    -4.3169     0.0941     0.0045     0.0000     0.0045     0.0000     0.0000     0.0000     0.0000     0.0000 </r>
        <r>    -4.2359     0.0569     0.0029     0.0000     0.0029     0.0000     0.0000     0.0000     0.0000     0.0000 </r>
        <r>    -4.1548     0.0784     0.0040     0.0000     0.0040     0.0000     0.0000     0.0000     0.0000     0.0000 </r>
        <r>    -4.0738     0.0704     0.0039     0.0000     0.0039     0.0000     0.0000     0.0000     0.0000     0.0000 </r>
        <r>    -3.9928     0.0596     0.0033     0.0000     0.0033     0.0000     0.0000     0.0000     0.0000     0.0000 </r>
        <r>    -3.9117     0.0814     0.0049     0.0000     0.0049     0.0000     0.0000     0.0000     0.0000     0.0000 </r>
        <r>    -3.8307     0.0463     0.0028     0.0000     0.0028     0.0000     0.0000     0.0000     0.0000     0.0000 </r>
        <r>    -3.7497     0.0867     0.0056     0.0000     0.0056     0.0000     0.0000     0.0000     0.0000     0.0000 </r>
        <r>    -3.6686     0.0389     0.0025     0.0000     0.0025     0.0000     0.0000     0.0000     0.0000     0.0000 </r>
        <r>    -3.5876     0.0879     0.0060     0.0000     0.0060     0.0000     0.0000     0.0000     0.0000     0.0000 </r>
        <r>    -3.5066     0.0353     0.0025     0.0000     0.0025     0.0000     0.0000     0.0000     0.0000     0.0000 </r>
        <r>    -3.4256     0.0859     0.0063     0.0000     0.0063     0.0000     0.0000     0.0000     0.0000     0.0000 </r>
        <r>    -3.3445     0.0356     0.0026     0.0000     0.0026     0.0000     0.0000     0.0000     0.0000     0.0000 </r>
        <r>    -3.2635     0.0797     0.0062     0.0000     0.0062     0.0000     0.0000     0.0000     0.0000     0.0000 </r>
        <r>    -3.1825     0.0411     0.0032     0.0000     0.0032     0.0000     0.0000     0.0000     0.0000     0.0000 </r>
        <r>    -3.1014     0.0671     0.0056     0.0000     0.0056     0.0000     0.0000     0.0000     0.0000     0.0000 </r>
        <r>    -3.0204     0.0537     0.0045     0.0000     0.0045     0.0000     0.0000     0.0000     0.0000     0.0000 </r>
        <r>    -2.9394     0.0477     0.0042     0.0000     0.0042     0.0000     0.0000     0.0000     0.0000     0.0000 </r>
        <r>    -2.8583     0.0721     0.0064     0.0000     0.0064     0.0000     0.0000     0.0000     0.0000     0.0000 </r>
        <r>    -2.7773     0.0272     0.0025     0.0000     0.0025     0.0000     0.0000     0.0000     0.0000     0.0000 </r>
        <r>    -2.6963     0.0882     0.0083     0.0000     0.0083     0.0000     0.0000     0.0000     0.0000     0.0000 </r>
        <r>    -2.6152     0.0169     0.0016     0.0000     0.0016     0.0000     0.0000     0.0000     0.0000     0.0000 </r>
        <r>    -2.5342     0.0871     0.0087     0.0000     0.0087     0.0000     0.0000     0.0000     0.0000     0.0000 </r>
        <r>    -2.4532     0.0272     0.0027     0.0000     0.0027     0.0000     0.0000     0.0000     0.0000     0.0000 </r>
        <r>    -2.3721     0.0599     0.0063     0.0000     0.0063     0.0000     0.0000     0.0000     0.0000     0.0000 </r>
        <r>    -2.2911     0.0582     0.0062     0.0000     0.0062     0.0000     0.0000     0.0000     0.0000     0.0000 </r>
        <r>    -2.2101     0.0246     0.0027     0.0000     0.0027     0.0000     0.0000     0.0000     0.0000     0.0000 </r>
        <r>    -2.1291     0.0874     0.0098     0.0000     0.0098     0.0000     0.0000     0.0000     0.0000     0.0000 </r>
        <r>    -2.0480     0.0176     0.0020     0.0000     0.0020     0.0000     0.0000     0.0000     0.0000     0.0000 </r>
        <r>    -1.9670     0.1512     0.0179     0.0000     0.0179     0.0000     0.0000     0.0000     0.0000     0.0000 </r>
        <r>    -1.8860     0.0782     0.0092     0.0000     0.0092     0.0000     0.0000     0.0000     0.0000     0.0000 </r>
        <r>    -1.8049     0.0318     0.0040     0.0000     0.0040     0.0000     0.0000     0.0000     0.0000     0.0000 </r>
        <r>    -1.7239     0.0817     0.0102     0.0000     0.0102     0.0000     0.0000     0.0000     0.0000     0.0000 </r>
        <r>    -1.6429     0.0100     0.0013     0.0000     0.0013     0.0000     0.0000     0.0000     0.0000     0.0000 </r>
        <r>    -1.5618     0.0769     0.0101     0.0000     0.0101     0.0000     0.0000     0.0000     0.0000     0.0000 </r>
        <r>    -1.4808     0.0368     0.0048     0.0000     0.0048     0.0000     0.0000     0.0000     0.0000     0.0000 </r>
        <r>    -1.3998     0.0260     0.0036     0.0000     0.0036     0.0000     0.0000     0.0000     0.0000     0.0000 </r>
        <r>    -1.3187     0.0840     0.0116     0.0000     0.0116     0.0000     0.0000     0.0000     0.0000     0.0000 </r>
        <r>    -1.2377     0.0095     0.0013     0.0000     0.0013     0.0000     0.0000     0.0000     0.0000     0.0000 </r>
        <r>    -1.1567     0.0645     0.0094     0.0000     0.0094     0.0000     0.0000     0.0000     0.0000     0.0000 </r>
        <r>    -1.0757     0.0493     0.0072     0.0000     0.0072     0.0000     0.0000     0.0000     0.0000     0.0000 </r>
        <r>    -0.9946     0.0132     0.0020     0.0000     0.0020     0.0000     0.0000     0.0000     0.0000     0.0000 </r>
        <r>    -0.9136     0.0864     0.0132     0.0000     0.0132     0.0000     0.0000     0.0000     0.0000     0.0000 </r>
        <r>    -0.8326     0.0173     0.0027     0.0000     0.0027     0.0000     0.0000     0.0000     0.0000     0.0000 </r>
        <r>    -0.7515     0.0375     0.0060     0.0000     0.0060     0.0000     0.0000     0.0000     0.0000     0.0000 </r>
        <r>    -0.6705     0.0735     0.0118     0.0000     0.0118     0.0000     0.0000     0.0000     0.0000     0.0000 </r>
        <r>    -0.5895     0.0063     0.0010     0.0000     0.0010     0.0000     0.0000     0.0000     0.0000     0.0000 </r>
        <r>    -0.5084     0.0674     0.0114     0.0000     0.0114     0.0000     0.0000     0.0000     0.0000     0.0000 </r>
        <r>    -0.4274     0.0436     0.0074     0.0000     0.0074     0.0000     0.0000     0.0000     0.0000     0.0000 </r>
        <r>    -0.3464     0.0108     0.0019     0.0000     0.0019     0.0000     0.0000     0.0000     0.0000     0.0000 </r>
        <r>    -0.2653     0.0837     0.0149     0.0000     0.0149     0.0000     0.0000     0.0000     0.0000     0.0000 </r>
        <r>    -0.1843     0.0193     0.0034     0.0000     0.0034     0.0000     0.0000     0.0000     0.0000     0.0000 </r>
        <r>    -0.1033     0.0263     0.0049     0.0000     0.0049     0.0000     0.0000     0.0000     0.0000     0.0000 </r>
        <r>    -0.0222     0.0793     0.0148     0.0000     0.0148     0.0000     0.0000     0.0000     0.0000     0.0000 </r>
        <r>     0.0588     0.0073     0.0014     0.0000     0.0014     0.0000     0.0000     0.0000     0.0000     0.0000 </r>
        <r>     0.1398     0.0477     0.0093     0.0000     0.0093     0.0000     0.0000     0.0000     0.0000     0.0000 </r>
        <r>     0.2208     0.0608     0.0119     0.0000     0.0119     0.0000     0.0000     0.0000     0.0000     0.0000 </r>
        <r>     0.3019     0.0047     0.0010     0.0000     0.0010     0.0000     0.0000     0.0000     0.0000     0.0000 </r>
        <r>     0.3829     0.0674     0.0139     0.0000     0.0139     0.0000     0.0000     0.0000     0.0000     0.0000 </r>
        <r>     0.4639     0.0393     0.0081     0.0000     0.0081     0.0000     0.0000     0.0000     0.0000     0.0000 </r>
        <r>     0.5450     0.0083     0.0018     0.0000     0.0018     0.0000     0.0000     0.0000     0.0000     0.0000 </r>
        <r>     0.6260     0.0789     0.0170     0.0000     0.0170     0.0000     0.0000     0.0000     0.0000     0.0000 </r>
        <r>     0.7070     0.0220     0.0047     0.0000     0.0047     0.0000     0.0000     0.0000     0.0000     0.0000 </r>
        <r>     0.7881     0.0167     0.0038     0.0000     0.0038     0.0000     0.0000     0.0000     0.0000     0.0000 </r>
        <r>     0.8691     0.0800     0.0182     0.0000     0.0182     0.0000     0.0000     0.0000     0.0000     0.0000 </r>
        <r>     0.9501     0.0110     0.0025     0.0000     0.0025     0.0000     0.0000     0.0000     0.0000     0.0000 </r>
        <r>     1.0312     0.0288     0.0069     0.0000     0.0069     0.0000     0.0000     0.0000     0.0000     0.0000 </r>
        <r>     1.1122     0.0722     0.0172     0.0000     0.0172     0.0000     0.0000     0.0000     0.0000     0.0000 </r>
        <r>     1.1932     0.0055     0.0013     0.0000     0.0013     0.0000     0.0000     0.0000     0.0000     0.0000 </r>
        <r>     1.2742     0.0429     0.0108     0.0000     0.0108     0.0000     0.0000     0.0000     0.0000     0.0000 </r>
        <r>     1.3553     0.0590     0.0148     0.0000     0.0148     0.0000     0.0000     0.0000     0.0000     0.0000 </r>
        <r>     1.4363     0.0037     0.0009     0.0000     0.0009     0.0000     0.0000     0.0000     0.0000     0.0000 </r>
        <r>     1.5173     0.0564     0.0150     0.0000     0.0150     0.0000     0.0000     0.0000     0.0000     0.0000 </r>
        <r>     1.5984     0.0439     0.0117     0.0000     0.0117     0.0000     0.0000     0.0000     0.0000     0.0000 </r>
        <r>     1.6794     0.0046     0.0013     0.0000     0.0013     0.0000     0.0000     0.0000     0.0000     0.0000 </r>
        <r>     1.7604     0.0669     0.0187     0.0000     0.0187     0.0000     0.0000     0.0000     0.0000     0.0000 </r>
        <r>     1.8415     0.0299     0.0084     0.0000     0.0084     0.0000     0.0000     0.0000     0.0000     0.0000 </r>
        <r>     1.9225     0.0081     0.0024     0.0000     0.0024     0.0000     0.0000     0.0000     0.0000     0.0000 </r>
        <r>     2.0035     0.0725     0.0215     0.0000     0.0215     0.0000     0.0000     0.0000     0.0000     0.0000 </r>
        <r>     2.0846     0.0185     0.0055     0.0000     0.0055     0.0000     0.0000     0.0000     0.0000     0.0000 </r>
        <r>     2.1656     0.0143     0.0045     0.0000     0.0045     0.0000     0.0000     0.0000     0.0000     0.0000 </r>
        <r>     2.2466     0.0722     0.0227     0.0000     0.0227     0.0000     0.0000     0.0000     0.0000     0.0000 </r>
        <r>     2.3277     0.0105     0.0033     0.0000     0.0033     0.0000     0.0000     0.0000     0.0000     0.0000 </r>
        <r>     2.4087     0.0231     0.0077     0.0000     0.0077     0.0000     0.0000     0.0000     0.0000     0.0000 </r>
        <r>     2.4897     0.0661     0.0221     0.0000     0.0221     0.0000     0.0000     0.0000     0.0000     0.0000 </r>
        <r>     2.5707     0.0055     0.0019     0.0000     0.0019     0.0000     0.0000     0.0000     0.0000     0.0000 </r>
        <r>     2.6518     0.0341     0.0122     0.0000     0.0122     0.0000     0.0000     0.0000     0.0000     0.0000 </r>
        <r>     2.7328     0.0551     0.0196     0.0000     0.0196     0.0000     0.0000     0.0000     0.0000     0.0000 </r>
        <r>     2.8138     0.0034     0.0012     0.0000     0.0012     0.0000     0.0000     0.0000     0.0000     0.0000 </r>
        <r>     2.8949     0.0461     0.0211     0.0070     0.0211     0.0000     0.0000     0.0000     0.0000     0.0000 </r>
        <r>     2.9759     0.0411     0.1169     0.2024     0.1169     0.0000     0.0000     0.0000     0.0000     0.0000 </r>
        <r>     3.0569     0.0039     0.2368     0.4704     0.2368     0.0000     0.0000     0.0000     0.0000     0.0000 </r>
        <r>     3.1380     0.0563     0.1832     0.3203     0.1832     0.0000     0.0000     0.0000     0.0000     0.0000 </r>
        <r>     3.2190     0.0265     0.1242     0.2267     0.1242     0.0000     0.0000     0.0000     0.0000     0.0000 </r>
        <r>     3.3000     0.0076     0.0977     0.1886     0.0977     0.0000     0.0000     0.0000     0.0000     0.0000 </r>
        <r>     3.3811     0.0612     0.1100     0.1658     0.1100     0.0000     0.0000     0.0000     0.0000     0.0000 </r>
        <r>     3.4621     0.0142     0.0813     0.1500     0.0813     0.0000     0.0000     0.0000     0.0000     0.0000 </r>
        <r>     3.5431     0.0158     0.0767     0.1382     0.0767     0.0000     0.0000     0.0000     0.0000     0.0000 </r>
        <r>     3.6241     0.0575     0.0922     0.1290     0.0922     0.0000     0.0000     0.0000     0.0000     0.0000 </r>
        <r>     3.7052     0.0062     0.0638     0.1217     0.0638     0.0000     0.0000     0.0000     0.0000     0.0000 </r>
        <r>     3.7862     0.0287     0.0730     0.1156     0.0730     0.0000     0.0000     0.0000     0.0000     0.0000 </r>
        <r>     3.8672     0.0444     0.0786     0.1103     0.0786     0.0000     0.0000     0.0000     0.0000     0.0000 </r>
        <r>     3.9483     0.0035     0.0549     0.1059     0.0549     0.0000     0.0000     0.0000     0.0000     0.0000 </r>
        <r>     4.0293     0.0431     0.0764     0.1025     0.0764     0.0000     0.0000     0.0000     0.0000     0.0000 </r>
        <r>     4.1103     0.0257     0.0648     0.0996     0.0648     0.0000     0.0000     0.0000     0.0000     0.0000 </r>
        <r>     4.1914     0.0076     0.0531     0.0962     0.0531     0.0000     0.0000     0.0000     0.0000     0.0000 </r>
        <r>     4.2724     0.0494     0.0789     0.0932     0.0789     0.0000     0.0000     0.0000     0.0000     0.0000 </r>
        <r>     4.3534     0.0096     0.0527     0.0929     0.0527     0.0000     0.0000     0.0000     0.0000     0.0000 </r>
        <r>     4.4345     0.0215     0.0617     0.0916     0.0617     0.0000     0.0000     0.0000     0.0000     0.0000 </r>
        <r>     4.5155     0.0375     0.0712     0.0866     0.0712     0.0000     0.0000     0.0000     0.0000     0.0000 </r>
        <r>     4.5965     0.0044     0.0469     0.0867     0.0469     0.0000     0.0000     0.0000     0.0000     0.0000 </r>
        <r>     4.6776     0.0380     0.0776     0.0901     0.0776     0.0000     0.0000     0.0000     0.0000     0.0000 </r>
        <r>     4.7586     0.0145     0.0543     0.0839     0.0543     0.0000     0.0000     0.0000     0.0000     0.0000 </r>
        <r>     4.8396     0.0160     0.0575     0.0826     0.0575     0.0000     0.0000     0.0000     0.0000     0.0000 </r>
        <r>     4.9206     0.0312     0.0765     0.0899     0.0765     0.0000     0.0000     0.0000     0.0000     0.0000 </r>
        <r>     5.0017     0.0059     0.0488     0.0838     0.0488     0.0000     0.0000     0.0000     0.0000     0.0000 </r>
        <r>     5.0827     0.0312     0.0797     0.0822     0.0797     0.0000     0.0000     0.0000     0.0000     0.0000 </r>
        <r>     5.1637     0.0078     0.0557     0.0913     0.0557     0.0000     0.0000     0.0000     0.0000     0.0000 </r>
        <r>     5.2448     0.0230     0.0801     0.0881     0.0801     0.0000     0.0000     0.0000     0.0000     0.0000 </r>
        <r>     5.3258     0.0111     0.0611     0.0862     0.0611     0.0000     0.0000     0.0000     0.0000     0.0000 </r>
        <r>     5.4068     0.0175     0.0851     0.0965     0.0851     0.0000     0.0000     0.0000     0.0000     0.0000 </r>
        <r>     5.4879     0.0103     0.0736     0.1002     0.0736     0.0000     0.0000     0.0000     0.0000     0.0000 </r>
        <r>     5.5689     0.0142     0.0965     0.1054     0.0965     0.0000     0.0000     0.0000     0.0000     0.0000 </r>
        <r>     5.6499     0.0087     0.0968     0.1186     0.0968     0.0000     0.0000     0.0000     0.0000     0.0000 </r>
        <r>     5.7310     0.0083     0.1307     0.1495     0.1307     0.0000     0.0000     0.0000     0.0000     0.0000 </r>
        <r>     5.8120     0.0049     0.2101     0.2350     0.2101     0.0000     0.0000     0.0000     0.0000     0.0000 </r>
        <r>     5.8930     0.0013     0.1751     0.1912     0.1751     0.0000     0.0000     0.0000     0.0000     0.0000 </r>
        <r>     5.9740     0.0000     0.0159     0.0169     0.0159     0.0000     0.0000     0.0000     0.0000     0.0000 </r>
        <r>     6.0551     0.0000     0.0000     0.0000     0.0000     0.0000     0.0000     0.0000     0.0000     0.0000 </r>
        <r>     6.1361     0.0000     0.0000     0.0000     0.0000     0.0000     0.0000     0.0000     0.0000     0.0000 </r>
        <r>     6.2171     0.0000     0.0000     0.0000     0.0000     0.0000     0.0000     0.0000     0.0000     0.0000 </r>
        <r>     6.2982     0.0001     0.0001     0.0000     0.0001     0.0000     0.0000     0.0000     0.0000     0.0000 </r>
        <r>     6.3792     0.0349     0.0143     0.0000     0.0143     0.0000     0.0000     0.0000     0.0000     0.0000 </r>
        <r>     6.4602     0.2143     0.0887     0.0000     0.0887     0.0000     0.0000     0.0000     0.0000     0.0000 </r>
        <r>     6.5413     0.1681     0.0720     0.0000     0.0720     0.0000     0.0000     0.0000     0.0000     0.0000 </r>
        <r>     6.6223     0.1155     0.0521     0.0000     0.0521     0.0000     0.0000     0.0000     0.0000     0.0000 </r>
        <r>     6.7033     0.0889     0.0431     0.0000     0.0431     0.0000     0.0000     0.0000     0.0000     0.0000 </r>
        <r>     6.7844     0.0729     0.0380     0.0000     0.0380     0.0000     0.0000     0.0000     0.0000     0.0000 </r>
        <r>     6.8654     0.0638     0.0355     0.0000     0.0355     0.0000     0.0000     0.0000     0.0000     0.0000 </r>
        <r>     6.9464     0.0568     0.0338     0.0000     0.0338     0.0000     0.0000     0.0000     0.0000     0.0000 </r>
        <r>     7.0275     0.0516     0.0327     0.0000     0.0327     0.0000     0.0000     0.0000     0.0000     0.0000 </r>
        <r>     7.1085     0.0485     0.0324     0.0000     0.0324     0.0000     0.0000     0.0000     0.0000     0.0000 </r>
        <r>     7.1895     0.0449     0.0320     0.0000     0.0320     0.0000     0.0000     0.0000     0.0000     0.0000 </r>
        <r>     7.2705     0.0386     0.0307     0.0000     0.0307     0.0000     0.0000     0.0000     0.0000     0.0000 </r>
        <r>     7.3516     0.0380     0.0313     0.0000     0.0313     0.0000     0.0000     0.0000     0.0000     0.0000 </r>
        <r>     7.4326     0.0380     0.0322     0.0000     0.0322     0.0000     0.0000     0.0000     0.0000     0.0000 </r>
        <r>     7.5136     0.0294     0.0306     0.0000     0.0306     0.0000     0.0000     0.0000     0.0000     0.0000 </r>
        <r>     7.5947     0.0351     0.0342     0.0000     0.0342     0.0000     0.0000     0.0000     0.0000     0.0000 </r>
        <r>     7.6757     0.0283     0.0337     0.0000     0.0337     0.0000     0.0000     0.0000     0.0000     0.0000 </r>
        <r>     7.7567     0.0278     0.0350     0.0000     0.0350     0.0000     0.0000     0.0000     0.0000     0.0000 </r>
        <r>     7.8378     0.0280     0.0367     0.0000     0.0367     0.0000     0.0000     0.0000     0.0000     0.0000 </r>
        <r>     7.9188     0.0216     0.0366     0.0000     0.0366     0.0000     0.0000     0.0000     0.0000     0.0000 </r>
        <r>     7.9998     0.0269     0.0416     0.0000     0.0416     0.0000     0.0000     0.0000     0.0000     0.0000 </r>
        <r>     8.0809     0.0179     0.0425     0.0000     0.0425     0.0000     0.0000     0.0000     0.0000     0.0000 </r>
        <r>     8.1619     0.0243     0.0507     0.0000     0.0507     0.0000     0.0000     0.0000     0.0000     0.0000 </r>
        <r>     8.2429     0.0158     0.0569     0.0002     0.0569     0.0000     0.0000     0.0000     0.0000     0.0000 </r>
        <r>     8.3239     0.0203     0.0937     0.0135     0.0937     0.0000     0.0000     0.0000     0.0000     0.0000 </r>
        <r>     8.4050     0.0171     0.1507     0.0834     0.1507     0.0000     0.0000     0.0000     0.0000     0.0000 </r>
        <r>     8.4860     0.0113     0.1306     0.1572     0.1306     0.0000     0.0000     0.0000     0.0000     0.0000 </r>
        <r>     8.5670     0.0175     0.0606     0.1002     0.0606     0.0000     0.0000     0.0000     0.0000     0.0000 </r>
        <r>     8.6481     0.0061     0.0405     0.0761     0.0405     0.0000     0.0000     0.0000     0.0000     0.0000 </r>
        <r>     8.7291     0.0214     0.0384     0.0604     0.0384     0.0000     0.0000     0.0000     0.0000     0.0000 </r>
        <r>     8.8101     0.0043     0.0346     0.0661     0.0346     0.0000     0.0000     0.0000     0.0000     0.0000 </r>
        <r>     8.8912     0.0200     0.0326     0.0499     0.0326     0.0000     0.0000     0.0000     0.0000     0.0000 </r>
        <r>     8.9722     0.0091     0.0316     0.0563     0.0316     0.0000     0.0000     0.0000     0.0000     0.0000 </r>
        <r>     9.0532     0.0115     0.0286     0.0486     0.0286     0.0000     0.0000     0.0000     0.0000     0.0000 </r>
        <r>     9.1343     0.0223     0.0330     0.0510     0.0330     0.0000     0.0000     0.0000     0.0000     0.0000 </r>
        <r>     9.2153     0.1766     0.0236     0.0436     0.0236     0.0000     0.0000     0.0000     0.0000     0.0000 </r>
        <r>     9.2963     0.3968     0.0386     0.0547     0.0386     0.0000     0.0000     0.0000     0.0000     0.0000 </r>
        <r>     9.3774     0.2059     0.0215     0.0321     0.0215     0.0000     0.0000     0.0000     0.0000     0.0000 </r>
        <r>     9.4584     0.1569     0.0421     0.0640     0.0422     0.0000     0.0000     0.0000     0.0000     0.0000 </r>
        <r>     9.5394     0.1718     0.0225     0.0201     0.0225     0.0000     0.0000     0.0000     0.0000     0.0000 </r>
        <r>     9.6204     0.1024     0.0421     0.0685     0.0421     0.0000     0.0000     0.0000     0.0000     0.0000 </r>
        <r>     9.7015     0.1488     0.0286     0.0225     0.0286     0.0000     0.0000     0.0000     0.0000     0.0000 </r>
        <r>     9.7825     0.1097     0.0361     0.0522     0.0361     0.0000     0.0000     0.0000     0.0000     0.0000 </r>
        <r>     9.8635     0.1228     0.0412     0.0454     0.0412     0.0000     0.0000     0.0000     0.0000     0.0000 </r>
        <r>     9.9446     0.1295     0.0275     0.0236     0.0275     0.0000     0.0000     0.0000     0.0000     0.0000 </r>
        <r>    10.0256     0.1158     0.0548     0.0682     0.0548     0.0000     0.0000     0.0000     0.0000     0.0000 </r>
        <r>    10.1066     0.1565     0.0338     0.0184     0.0338     0.0000     0.0000     0.0000     0.0000     0.0000 </r>
        <r>    10.1877     0.1467     0.0490     0.0445     0.0490     0.0000     0.0000     0.0000     0.0000     0.0000 </r>
        <r>    10.2687     0.2522     0.0749     0.0503     0.0749     0.0000     0.0000     0.0000     0.0000     0.0000 </r>
        <r>    10.3497     0.1393     0.0362     0.0156     0.0362     0.0000     0.0000     0.0000     0.0000     0.0000 </r>
        <r>    10.4308     0.0038     0.0375     0.0734     0.0375     0.0000     0.0000     0.0000     0.0000     0.0000 </r>
        <r>    10.5118     0.0000     0.0081     0.0162     0.0081     0.0000     0.0000     0.0000     0.0000     0.0000 </r>
        <r>    10.5928     0.0000     0.0197     0.0394     0.0197     0.0000     0.0000     0.0000     0.0000     0.0000 </r>
        <r>    10.6738     0.0000     0.0297     0.0595     0.0297     0.0000     0.0000     0.0000     0.0000     0.0000 </r>
        <r>    10.7549     0.0000     0.0038     0.0076     0.0038     0.0000     0.0000     0.0000     0.0000     0.0000 </r>
        <r>    10.8359     0.0000     0.0326     0.0651     0.0326     0.0000     0.0000     0.0000     0.0000     0.0000 </r>
        <r>    10.9169     0.0000     0.0164     0.0329     0.0164     0.0000     0.0000     0.0000     0.0000     0.0000 </r>
        <r>    10.9980     0.0000     0.0077     0.0155     0.0078     0.0000     0.0000     0.0000     0.0000     0.0000 </r>
        <r>    11.0790     0.0000     0.0372     0.0744     0.0372     0.0000     0.0000     0.0000     0.0000     0.0000 </r>
        <r>    11.1600     0.0000     0.0069     0.0138     0.0069     0.0000     0.0000     0.0000     0.0000     0.0000 </r>
        <r>    11.2411     0.0000     0.0163     0.0325     0.0163     0.0000     0.0000     0.0000     0.0000     0.0000 </r>
        <r>    11.3221     0.0000     0.0328     0.0657     0.0328     0.0000     0.0000     0.0000     0.0000     0.0000 </r>
        <r>    11.4031     0.0000     0.0030     0.0060     0.0030     0.0000     0.0000     0.0000     0.0000     0.0000 </r>
        <r>    11.4842     0.0000     0.0262     0.0523     0.0262     0.0000     0.0000     0.0000     0.0000     0.0000 </r>
        <r>    11.5652     0.0000     0.0239     0.0477     0.0239     0.0000     0.0000     0.0000     0.0000     0.0000 </r>
        <r>    11.6462     0.0000     0.0029     0.0058     0.0029     0.0000     0.0000     0.0000     0.0000     0.0000 </r>
        <r>    11.7273     0.0000     0.0337     0.0674     0.0337     0.0000     0.0000     0.0000     0.0000     0.0000 </r>
        <r>    11.8083     0.0000     0.0152     0.0305     0.0152     0.0000     0.0000     0.0000     0.0000     0.0000 </r>
        <r>    11.8893     0.0000     0.0051     0.0101     0.0051     0.0000     0.0000     0.0000     0.0000     0.0000 </r>
        <r>    11.9703     0.0000     0.0374     0.0747     0.0374     0.0000     0.0000     0.0000     0.0000     0.0000 </r>
        <r>    12.0514     0.0000     0.0091     0.0182     0.0091     0.0000     0.0000     0.0000     0.0000     0.0000 </r>
        <r>    12.1324     0.0000     0.0086     0.0172     0.0086     0.0000     0.0000     0.0000     0.0000     0.0000 </r>
        <r>    12.2134     0.0000     0.0376     0.0752     0.0376     0.0000     0.0000     0.0000     0.0000     0.0000 </r>
        <r>    12.2945     0.0000     0.0052     0.0104     0.0052     0.0000     0.0000     0.0000     0.0000     0.0000 </r>
        <r>    12.3755     0.0000     0.0129     0.0257     0.0129     0.0000     0.0000     0.0000     0.0000     0.0000 </r>
        <r>    12.4565     0.0000     0.0355     0.0709     0.0355     0.0000     0.0000     0.0000     0.0000     0.0000 </r>
        <r>    12.5376     0.0000     0.0031     0.0061     0.0031     0.0000     0.0000     0.0000     0.0000     0.0000 </r>
        <r>    12.6186     0.0000     0.0173     0.0345     0.0173     0.0000     0.0000     0.0000     0.0000     0.0000 </r>
        <r>    12.6996     0.0000     0.0321     0.0643     0.0321     0.0000     0.0000     0.0000     0.0000     0.0000 </r>
        <r>    12.7807     0.0000     0.0020     0.0039     0.0020     0.0000     0.0000     0.0000     0.0000     0.0000 </r>
        <r>    12.8617     0.0000     0.0214     0.0429     0.0215     0.0000     0.0000     0.0000     0.0000     0.0000 </r>
        <r>    12.9427     0.0000     0.0284     0.0567     0.0284     0.0000     0.0000     0.0000     0.0000     0.0000 </r>
        <r>    13.0237     0.0000     0.0015     0.0030     0.0015     0.0000     0.0000     0.0000     0.0000     0.0000 </r>
        <r>    13.1048     0.0000     0.0251     0.0501     0.0250     0.0000     0.0000     0.0000     0.0000     0.0000 </r>
        <r>    13.1858     0.0000     0.0248     0.0497     0.0248     0.0000     0.0000     0.0000     0.0000     0.0000 </r>
        <r>    13.2668     0.0000     0.0014     0.0028     0.0014     0.0000     0.0000     0.0000     0.0000     0.0000 </r>
        <r>    13.3479     0.0000     0.0277     0.0554     0.0277     0.0000     0.0000     0.0000     0.0000     0.0000 </r>
        <r>    13.4289     0.0000     0.0220     0.0440     0.0220     0.0000     0.0000     0.0000     0.0000     0.0000 </r>
        <r>    13.5099     0.0000     0.0015     0.0029     0.0015     0.0000     0.0000     0.0000     0.0000     0.0000 </r>
        <r>    13.5910     0.0000     0.0296     0.0592     0.0296     0.0000     0.0000     0.0000     0.0000     0.0000 </r>
        <r>    13.6720     0.0000     0.0199     0.0398     0.0199     0.0000     0.0000     0.0000     0.0000     0.0000 </r>
        <r>    13.7530     0.0000     0.0016     0.0032     0.0016     0.0000     0.0000     0.0000     0.0000     0.0000 </r>
        <r>    13.8341     0.0000     0.0310     0.0619     0.0310     0.0000     0.0000     0.0000     0.0000     0.0000 </r>
        <r>    13.9151     0.0000     0.0185     0.0369     0.0185     0.0000     0.0000     0.0000     0.0000     0.0000 </r>
        <r>    13.9961     0.0000     0.0017     0.0034     0.0017     0.0000     0.0000     0.0000     0.0000     0.0000 </r>
        <r>    14.0772     0.0000     0.0320     0.0640     0.0320     0.0000     0.0000     0.0000     0.0000     0.0000 </r>
        <r>    14.1582     0.0000     0.0174     0.0348     0.0174     0.0000     0.0000     0.0000     0.0000     0.0000 </r>
        <r>    14.2392     0.0000     0.0017     0.0035     0.0018     0.0000     0.0000     0.0000     0.0000     0.0000 </r>
        <r>    14.3202     0.0000     0.0324     0.0647     0.0325     0.0000     0.0000     0.0000     0.0000     0.0000 </r>
        <r>    14.4013     0.0000     0.0172     0.0344     0.0171     0.0000     0.0000     0.0000     0.0000     0.0000 </r>
        <r>    14.4823     0.0000     0.0018     0.0035     0.0018     0.0000     0.0000     0.0000     0.0000     0.0000 </r>
        <r>    14.5633     0.0000     0.0326     0.0652     0.0326     0.0000     0.0000     0.0000     0.0000     0.0000 </r>
        <r>    14.6444     0.0000     0.0173     0.0347     0.0173     0.0000     0.0000     0.0000     0.0000     0.0000 </r>
        <r>    14.7254     0.0000     0.0019     0.0038     0.0019     0.0000     0.0000     0.0000     0.0000     0.0000 </r>
        <r>    14.8064     0.0000     0.0333     0.0666     0.0333     0.0000     0.0000     0.0000     0.0000     0.0000 </r>
        <r>    14.8875     0.0000     0.0172     0.0344     0.0172     0.0000     0.0000     0.0000     0.0000     0.0000 </r>
        <r>    14.9685     0.0000     0.0021     0.0042     0.0021     0.0000     0.0000     0.0000     0.0000     0.0000 </r>
        <r>    15.0495     0.0000     0.0346     0.0691     0.0346     0.0000     0.0000     0.0000     0.0000     0.0000 </r>
        <r>    15.1306     0.0000     0.0168     0.0336     0.0168     0.0000     0.0000     0.0000     0.0000     0.0000 </r>
        <r>    15.2116     0.0000     0.0030     0.0060     0.0030     0.0000     0.0000     0.0000     0.0000     0.0000 </r>
        <r>    15.2926     0.0000     0.0377     0.0754     0.0377     0.0000     0.0000     0.0000     0.0000     0.0000 </r>
        <r>    15.3736     0.0000     0.0146     0.0292     0.0146     0.0000     0.0000     0.0000     0.0000     0.0000 </r>
        <r>    15.4547     0.0000     0.0061     0.0122     0.0061     0.0000     0.0000     0.0000     0.0000     0.0000 </r>
        <r>    15.5357     0.0000     0.0425     0.0853     0.0426     0.0000     0.0000     0.0000     0.0000     0.0000 </r>
        <r>    15.6167     0.0000     0.0097     0.0195     0.0097     0.0000     0.0000     0.0000     0.0000     0.0000 </r>
        <r>    15.6978     0.0000     0.0213     0.0422     0.0213     0.0000     0.0000     0.0000     0.0000     0.0000 </r>
        <r>    15.7788     0.0000     0.0390     0.0779     0.0391     0.0000     0.0000     0.0000     0.0000     0.0000 </r>
        <r>    15.8598     0.0000     0.0196     0.0403     0.0198     0.0000     0.0000     0.0000     0.0000     0.0000 </r>
        <r>    15.9409     0.0000     0.0736     0.1457     0.0704     0.0000     0.0000     0.0000     0.0000     0.0000 </r>
        <r>    16.0219     0.0000     0.0512     0.0986     0.0508     0.0000     0.0000     0.0000     0.0000     0.0000 </r>
        <r>    16.1029     0.0000     0.0028     0.0055     0.0034     0.0000     0.0000     0.0000     0.0000     0.0000 </r>
        <r>    16.1840     0.0000     0.0000     0.0000     0.0000     0.0000     0.0000     0.0000     0.0000     0.0000 </r>
        <r>    16.2650     0.0000     0.0000     0.0000     0.0000     0.0000     0.0000     0.0000     0.0000     0.0000 </r>
        <r>    16.3460     0.0000     0.0000     0.0000     0.0000     0.0000     0.0000     0.0000     0.0000     0.0000 </r>
        <r>    16.4271     0.0000     0.0000     0.0000     0.0000     0.0000     0.0000     0.0000     0.0000     0.0000 </r>
        <r>    16.5081     0.0000     0.0000     0.0000     0.0000     0.0000     0.0000     0.0000     0.0000     0.0000 </r>
        <r>    16.5891     0.0000     0.0000     0.0000     0.0000     0.0000     0.0000     0.0000     0.0000     0.0000 </r>
        <r>    16.6701     0.0000     0.0000     0.0000     0.0000     0.0000     0.0000     0.0000     0.0000     0.0000 </r>
        <r>    16.7512     0.0000     0.0000     0.0000     0.0000     0.0000     0.0000     0.0000     0.0000     0.0000 </r>
        <r>    16.8322     0.0000     0.0000     0.0000     0.0000     0.0000     0.0000     0.0000     0.0000     0.0000 </r>
        <r>    16.9132     0.0000     0.0000     0.0000     0.0000     0.0000     0.0000     0.0000     0.0000     0.0000 </r>
        <r>    16.9943     0.0000     0.0000     0.0000     0.0000     0.0000     0.0000     0.0000     0.0000     0.0000 </r>
        <r>    17.0753     0.0000     0.0000     0.0000     0.0000     0.0000     0.0000     0.0000     0.0000     0.0000 </r>
       </set>
      </set>
     </set>
    </array>
   </partial>
  </dos>
  <projected>
   <eigenvalues>
    <array>
     <dimension dim="1">band</dimension>
     <dimension dim="2">kpoint</dimension>
     <dimension dim="3">spin</dimension>
     <field>eigene</field>
     <field>occ</field>
     <set>
      <set comment="spin 1">
       <set comment="kpoint 1">
        <r>   -1.9902    1.0000 </r>
        <r>   -1.9754    1.0000 </r>
        <r>    2.9555    1.0000 </r>
        <r>    3.0076    1.0000 </r>
        <r>    6.5146    0.0000 </r>
        <r>    6.5736    0.0000 </r>
        <r>   15.9423    0.0000 </r>
        <r>   15.9675    0.0000 </r>
       </set>
       <set comment="kpoint 2">
        <r>   -2.1797    1.0000 </r>
        <r>   -1.7825    1.0000 </r>
        <r>    2.9582    1.0000 </r>
        <r>    3.0102    1.0000 </r>
        <r>    6.4936    0.0000 </r>
        <r>    6.6024    0.0000 </r>
        <r>   15.8717    0.0000 </r>
        <r>   15.9020    0.0000 </r>
       </set>
       <set comment="kpoint 3">
        <r>   -2.3728    1.0000 </r>
        <r>   -1.5790    1.0000 </r>
        <r>    2.9660    1.0000 </r>
        <r>    3.0180    1.0000 </r>
        <r>    6.4635    0.0000 </r>
        <r>    6.6559    0.0000 </r>
        <r>   15.7032    0.0000 </r>
        <r>   15.7222    0.0000 </r>
       </set>
       <set comment="kpoint 4">
        <r>   -2.5623    1.0000 </r>
        <r>   -1.3725    1.0000 </r>
        <r>    2.9790    1.0000 </r>
        <r>    3.0310    1.0000 </r>
        <r>    6.4385    0.0000 </r>
        <r>    6.7200    0.0000 </r>
        <r>   15.4933    0.0000 </r>
        <r>   15.5076    0.0000 </r>
       </set>
       <set comment="kpoint 5">
        <r>   -2.7478    1.0000 </r>
        <r>   -1.1630    1.0000 </r>
        <r>    2.9972    1.0000 </r>
        <r>    3.0492    1.0000 </r>
        <r>    6.4201    0.0000 </r>
        <r>    6.7929    0.0000 </r>
        <r>   15.2642    0.0000 </r>
        <r>   15.2763    0.0000 </r>
       </set>
       <set comment="kpoint 6">
        <r>   -2.9293    1.0000 </r>
        <r>   -0.9507    1.0000 </r>
        <r>    3.0206    1.0000 </r>
        <r>    3.0725    1.0000 </r>
        <r>    6.4087    0.0000 </r>
        <r>    6.8742    0.0000 </r>
        <r>   15.0278    0.0000 </r>
        <r>   15.0373    0.0000 </r>
       </set>
       <set comment="kpoint 7">
        <r>   -3.1068    1.0000 </r>
        <r>   -0.7358    1.0000 </r>
        <r>    3.0491    1.0000 </r>
        <r>    3.1010    1.0000 </r>
        <r>    6.4043    0.0000 </r>
        <r>    6.9639    0.0000 </r>
        <r>   14.7874    0.0000 </r>
        <r>   14.7945    0.0000 </r>
       </set>
       <set comment="kpoint 8">
        <r>   -3.2799    1.0000 </r>
        <r>   -0.5186    1.0000 </r>
        <r>    3.0828    1.0000 </r>
        <r>    3.1345    1.0000 </r>
        <r>    6.4069    0.0000 </r>
        <r>    7.0620    0.0000 </r>
        <r>   14.5461    0.0000 </r>
        <r>   14.5511    0.0000 </r>
       </set>
       <set comment="kpoint 9">
        <r>   -3.4488    1.0000 </r>
        <r>   -0.2992    1.0000 </r>
        <r>    3.1216    1.0000 </r>
        <r>    3.1732    1.0000 </r>
        <r>    6.4163    0.0000 </r>
        <r>    7.1685    0.0000 </r>
        <r>   14.3041    0.0000 </r>
        <r>   14.3071    0.0000 </r>
       </set>
       <set comment="kpoint 10">
        <r>   -3.6132    1.0000 </r>
        <r>   -0.0777    1.0000 </r>
        <r>    3.1654    1.0000 </r>
        <r>    3.2170    1.0000 </r>
        <r>    6.4323    0.0000 </r>
        <r>    7.2833    0.0000 </r>
        <r>   14.0625    0.0000 </r>
        <r>   14.0635    0.0000 </r>
       </set>
       <set comment="kpoint 11">
        <r>   -3.7729    1.0000 </r>
        <r>    0.1455    1.0000 </r>
        <r>    3.2143    1.0000 </r>
        <r>    3.2658    1.0000 </r>
        <r>    6.4554    0.0000 </r>
        <r>    7.4068    0.0000 </r>
        <r>   13.8210    0.0000 </r>
        <r>   13.8230    0.0000 </r>
       </set>
       <set comment="kpoint 12">
        <r>   -3.9280    1.0000 </r>
        <r>    0.3703    1.0000 </r>
        <r>    3.2682    1.0000 </r>
        <r>    3.3195    1.0000 </r>
        <r>    6.4847    0.0000 </r>
        <r>    7.5386    0.0000 </r>
        <r>   13.5801    0.0000 </r>
        <r>   13.5833    0.0000 </r>
       </set>
       <set comment="kpoint 13">
        <r>   -4.0783    1.0000 </r>
        <r>    0.5965    1.0000 </r>
        <r>    3.3271    1.0000 </r>
        <r>    3.3782    1.0000 </r>
        <r>    6.5201    0.0000 </r>
        <r>    7.6788    0.0000 </r>
        <r>   13.3399    0.0000 </r>
        <r>   13.3450    0.0000 </r>
       </set>
       <set comment="kpoint 14">
        <r>   -4.2238    1.0000 </r>
        <r>    0.8240    1.0000 </r>
        <r>    3.3909    1.0000 </r>
        <r>    3.4418    1.0000 </r>
        <r>    6.5617    0.0000 </r>
        <r>    7.8272    0.0000 </r>
        <r>   13.1011    0.0000 </r>
        <r>   13.1081    0.0000 </r>
       </set>
       <set comment="kpoint 15">
        <r>   -4.3644    1.0000 </r>
        <r>    1.0524    1.0000 </r>
        <r>    3.4595    1.0000 </r>
        <r>    3.5102    1.0000 </r>
        <r>    6.6093    0.0000 </r>
        <r>    7.9837    0.0000 </r>
        <r>   12.8640    0.0000 </r>
        <r>   12.8725    0.0000 </r>
       </set>
       <set comment="kpoint 16">
        <r>   -4.5000    1.0000 </r>
        <r>    1.2817    1.0000 </r>
        <r>    3.5329    1.0000 </r>
        <r>    3.5833    1.0000 </r>
        <r>    6.6624    0.0000 </r>
        <r>    8.1478    0.0000 </r>
        <r>   12.6280    0.0000 </r>
        <r>   12.6384    0.0000 </r>
       </set>
       <set comment="kpoint 17">
        <r>   -4.6305    1.0000 </r>
        <r>    1.5115    1.0000 </r>
        <r>    3.6109    1.0000 </r>
        <r>    3.6611    1.0000 </r>
        <r>    6.7210    0.0000 </r>
        <r>    8.3194    0.0000 </r>
        <r>   12.3931    0.0000 </r>
        <r>   12.4059    0.0000 </r>
       </set>
       <set comment="kpoint 18">
        <r>   -4.7559    1.0000 </r>
        <r>    1.7418    1.0000 </r>
        <r>    3.6935    1.0000 </r>
        <r>    3.7435    1.0000 </r>
        <r>    6.7848    0.0000 </r>
        <r>    8.4978    0.0000 </r>
        <r>   12.1600    0.0000 </r>
        <r>   12.1744    0.0000 </r>
       </set>
       <set comment="kpoint 19">
        <r>   -4.8761    1.0000 </r>
        <r>    1.9722    1.0000 </r>
        <r>    3.7806    1.0000 </r>
        <r>    3.8302    1.0000 </r>
        <r>    6.8535    0.0000 </r>
        <r>    8.6823    0.0000 </r>
        <r>   11.9284    0.0000 </r>
        <r>   11.9450    0.0000 </r>
       </set>
       <set comment="kpoint 20">
        <r>   -4.9911    1.0000 </r>
        <r>    2.2027    1.0000 </r>
        <r>    3.8720    1.0000 </r>
        <r>    3.9213    1.0000 </r>
        <r>    6.9269    0.0000 </r>
        <r>    8.8723    0.0000 </r>
        <r>   11.6990    0.0000 </r>
        <r>   11.7169    0.0000 </r>
       </set>
       <set comment="kpoint 21">
        <r>   -5.1007    1.0000 </r>
        <r>    2.4330    1.0000 </r>
        <r>    3.9677    1.0000 </r>
        <r>    4.0166    1.0000 </r>
        <r>    7.0048    0.0000 </r>
        <r>    9.0663    0.0000 </r>
        <r>   11.4720    0.0000 </r>
        <r>   11.4917    0.0000 </r>
       </set>
       <set comment="kpoint 22">
        <r>   -5.2050    1.0000 </r>
        <r>    2.6629    1.0000 </r>
        <r>    4.0674    1.0000 </r>
        <r>    4.1159    1.0000 </r>
        <r>    7.0869    0.0000 </r>
        <r>    9.2627    0.0000 </r>
        <r>   11.2476    0.0000 </r>
        <r>   11.2692    0.0000 </r>
       </set>
       <set comment="kpoint 23">
        <r>   -5.3039    1.0000 </r>
        <r>    2.8922    1.0000 </r>
        <r>    4.1709    1.0000 </r>
        <r>    4.2190    1.0000 </r>
        <r>    7.1725    0.0000 </r>
        <r>    9.4589    0.0000 </r>
        <r>   11.0254    0.0000 </r>
        <r>   11.0487    0.0000 </r>
       </set>
       <set comment="kpoint 24">
        <r>   -5.3973    1.0000 </r>
        <r>    3.1205    1.0000 </r>
        <r>    4.2781    1.0000 </r>
        <r>    4.3257    1.0000 </r>
        <r>    7.2613    0.0000 </r>
        <r>    9.6512    0.0000 </r>
        <r>   10.8064    0.0000 </r>
        <r>   10.8308    0.0000 </r>
       </set>
       <set comment="kpoint 25">
        <r>   -5.4853    1.0000 </r>
        <r>    3.3475    1.0000 </r>
        <r>    4.3885    1.0000 </r>
        <r>    4.4356    1.0000 </r>
        <r>    7.3526    0.0000 </r>
        <r>    9.8342    0.0000 </r>
        <r>   10.5905    0.0000 </r>
        <r>   10.6160    0.0000 </r>
       </set>
       <set comment="kpoint 26">
        <r>   -5.5678    1.0000 </r>
        <r>    3.5729    1.0000 </r>
        <r>    4.5019    1.0000 </r>
        <r>    4.5484    1.0000 </r>
        <r>    7.4460    0.0000 </r>
        <r>    9.9990    0.0000 </r>
        <r>   10.3793    0.0000 </r>
        <r>   10.4047    0.0000 </r>
       </set>
       <set comment="kpoint 27">
        <r>   -5.6447    1.0000 </r>
        <r>    3.7964    1.0000 </r>
        <r>    4.6178    1.0000 </r>
        <r>    4.6637    1.0000 </r>
        <r>    7.5406    0.0000 </r>
        <r>   10.1150    0.0000 </r>
        <r>   10.1934    0.0000 </r>
        <r>   10.1971    0.0000 </r>
       </set>
       <set comment="kpoint 28">
        <r>   -5.7160    1.0000 </r>
        <r>    4.0172    1.0000 </r>
        <r>    4.7358    1.0000 </r>
        <r>    4.7810    1.0000 </r>
        <r>    7.6360    0.0000 </r>
        <r>    9.9571    0.0000 </r>
        <r>    9.9945    0.0000 </r>
        <r>   10.2439    0.0000 </r>
       </set>
       <set comment="kpoint 29">
        <r>   -5.7817    1.0000 </r>
        <r>    4.2345    1.0000 </r>
        <r>    4.8553    1.0000 </r>
        <r>    4.8997    1.0000 </r>
        <r>    7.7309    0.0000 </r>
        <r>    9.7601    0.0000 </r>
        <r>    9.7967    0.0000 </r>
        <r>   10.2815    0.0000 </r>
       </set>
       <set comment="kpoint 30">
        <r>   -5.8418    1.0000 </r>
        <r>    4.4475    1.0000 </r>
        <r>    4.9754    1.0000 </r>
        <r>    5.0189    1.0000 </r>
        <r>    7.8245    0.0000 </r>
        <r>    9.5671    0.0000 </r>
        <r>    9.6046    0.0000 </r>
        <r>   10.2588    0.0000 </r>
       </set>
       <set comment="kpoint 31">
        <r>   -5.8963    1.0000 </r>
        <r>    4.6549    1.0000 </r>
        <r>    5.0951    1.0000 </r>
        <r>    5.1377    1.0000 </r>
        <r>    7.9156    0.0000 </r>
        <r>    9.3809    0.0000 </r>
        <r>    9.4195    0.0000 </r>
        <r>   10.1817    0.0000 </r>
       </set>
       <set comment="kpoint 32">
        <r>   -5.9450    1.0000 </r>
        <r>    4.8553    1.0000 </r>
        <r>    5.2134    1.0000 </r>
        <r>    5.2549    1.0000 </r>
        <r>    8.0031    0.0000 </r>
        <r>    9.2034    0.0000 </r>
        <r>    9.2432    0.0000 </r>
        <r>   10.0654    0.0000 </r>
       </set>
       <set comment="kpoint 33">
        <r>   -5.9881    1.0000 </r>
        <r>    5.0464    1.0000 </r>
        <r>    5.3287    1.0000 </r>
        <r>    5.3688    1.0000 </r>
        <r>    8.0855    0.0000 </r>
        <r>    9.0359    0.0000 </r>
        <r>    9.0770    0.0000 </r>
        <r>    9.9262    0.0000 </r>
       </set>
       <set comment="kpoint 34">
        <r>   -6.0255    1.0000 </r>
        <r>    5.2256    1.0000 </r>
        <r>    5.4391    1.0000 </r>
        <r>    5.4775    1.0000 </r>
        <r>    8.1611    0.0000 </r>
        <r>    8.8807    0.0000 </r>
        <r>    8.9228    0.0000 </r>
        <r>    9.7781    0.0000 </r>
       </set>
       <set comment="kpoint 35">
        <r>   -6.0571    1.0000 </r>
        <r>    5.3894    1.0000 </r>
        <r>    5.5424    1.0000 </r>
        <r>    5.5785    1.0000 </r>
        <r>    8.2284    0.0000 </r>
        <r>    8.7404    0.0000 </r>
        <r>    8.7832    0.0000 </r>
        <r>    9.6319    0.0000 </r>
       </set>
       <set comment="kpoint 36">
        <r>   -6.0830    1.0000 </r>
        <r>    5.5327    1.0000 </r>
        <r>    5.6361    1.0000 </r>
        <r>    5.6687    1.0000 </r>
        <r>    8.2854    0.0000 </r>
        <r>    8.6185    0.0000 </r>
        <r>    8.6614    0.0000 </r>
        <r>    9.4968    0.0000 </r>
       </set>
       <set comment="kpoint 37">
        <r>   -6.1031    1.0000 </r>
        <r>    5.6494    1.0000 </r>
        <r>    5.7182    1.0000 </r>
        <r>    5.7447    1.0000 </r>
        <r>    8.3298    0.0000 </r>
        <r>    8.5194    0.0000 </r>
        <r>    8.5607    0.0000 </r>
        <r>    9.3810    0.0000 </r>
       </set>
       <set comment="kpoint 38">
        <r>   -6.1175    1.0000 </r>
        <r>    5.7323    1.0000 </r>
        <r>    5.7866    1.0000 </r>
        <r>    5.8027    1.0000 </r>
        <r>    8.3564    0.0000 </r>
        <r>    8.4508    0.0000 </r>
        <r>    8.4851    0.0000 </r>
        <r>    9.2916    0.0000 </r>
       </set>
       <set comment="kpoint 39">
        <r>   -6.1262    1.0000 </r>
        <r>    5.7795    1.0000 </r>
        <r>    5.8344    1.0000 </r>
        <r>    5.8392    1.0000 </r>
        <r>    8.3566    0.0000 </r>
        <r>    8.4241    0.0000 </r>
        <r>    8.4380    0.0000 </r>
        <r>    9.2351    0.0000 </r>
       </set>
       <set comment="kpoint 40">
        <r>   -6.1290    1.0000 </r>
        <r>    5.7948    1.0000 </r>
        <r>    5.8517    1.0000 </r>
        <r>    5.8517    1.0000 </r>
        <r>    8.3497    0.0000 </r>
        <r>    8.4220    0.0000 </r>
        <r>    8.4220    0.0000 </r>
        <r>    9.2157    0.0000 </r>
       </set>
       <set comment="kpoint 41">
        <r>   -6.1290    1.0000 </r>
        <r>    5.7948    1.0000 </r>
        <r>    5.8517    1.0000 </r>
        <r>    5.8517    1.0000 </r>
        <r>    8.3497    0.0000 </r>
        <r>    8.4220    0.0000 </r>
        <r>    8.4220    0.0000 </r>
        <r>    9.2157    0.0000 </r>
       </set>
       <set comment="kpoint 42">
        <r>   -6.1262    1.0000 </r>
        <r>    5.7795    1.0000 </r>
        <r>    5.8344    1.0000 </r>
        <r>    5.8392    1.0000 </r>
        <r>    8.3566    0.0000 </r>
        <r>    8.4241    0.0000 </r>
        <r>    8.4380    0.0000 </r>
        <r>    9.2351    0.0000 </r>
       </set>
       <set comment="kpoint 43">
        <r>   -6.1175    1.0000 </r>
        <r>    5.7323    1.0000 </r>
        <r>    5.7866    1.0000 </r>
        <r>    5.8027    1.0000 </r>
        <r>    8.3564    0.0000 </r>
        <r>    8.4508    0.0000 </r>
        <r>    8.4851    0.0000 </r>
        <r>    9.2916    0.0000 </r>
       </set>
       <set comment="kpoint 44">
        <r>   -6.1031    1.0000 </r>
        <r>    5.6494    1.0000 </r>
        <r>    5.7182    1.0000 </r>
        <r>    5.7447    1.0000 </r>
        <r>    8.3298    0.0000 </r>
        <r>    8.5194    0.0000 </r>
        <r>    8.5607    0.0000 </r>
        <r>    9.3810    0.0000 </r>
       </set>
       <set comment="kpoint 45">
        <r>   -6.0830    1.0000 </r>
        <r>    5.5327    1.0000 </r>
        <r>    5.6361    1.0000 </r>
        <r>    5.6687    1.0000 </r>
        <r>    8.2854    0.0000 </r>
        <r>    8.6185    0.0000 </r>
        <r>    8.6614    0.0000 </r>
        <r>    9.4968    0.0000 </r>
       </set>
       <set comment="kpoint 46">
        <r>   -6.0571    1.0000 </r>
        <r>    5.3894    1.0000 </r>
        <r>    5.5424    1.0000 </r>
        <r>    5.5784    1.0000 </r>
        <r>    8.2284    0.0000 </r>
        <r>    8.7404    0.0000 </r>
        <r>    8.7832    0.0000 </r>
        <r>    9.6319    0.0000 </r>
       </set>
       <set comment="kpoint 47">
        <r>   -6.0255    1.0000 </r>
        <r>    5.2256    1.0000 </r>
        <r>    5.4391    1.0000 </r>
        <r>    5.4775    1.0000 </r>
        <r>    8.1611    0.0000 </r>
        <r>    8.8807    0.0000 </r>
        <r>    8.9228    0.0000 </r>
        <r>    9.7781    0.0000 </r>
       </set>
       <set comment="kpoint 48">
        <r>   -5.9881    1.0000 </r>
        <r>    5.0464    1.0000 </r>
        <r>    5.3287    1.0000 </r>
        <r>    5.3688    1.0000 </r>
        <r>    8.0855    0.0000 </r>
        <r>    9.0359    0.0000 </r>
        <r>    9.0770    0.0000 </r>
        <r>    9.9262    0.0000 </r>
       </set>
       <set comment="kpoint 49">
        <r>   -5.9450    1.0000 </r>
        <r>    4.8553    1.0000 </r>
        <r>    5.2134    1.0000 </r>
        <r>    5.2549    1.0000 </r>
        <r>    8.0031    0.0000 </r>
        <r>    9.2034    0.0000 </r>
        <r>    9.2432    0.0000 </r>
        <r>   10.0654    0.0000 </r>
       </set>
       <set comment="kpoint 50">
        <r>   -5.8963    1.0000 </r>
        <r>    4.6549    1.0000 </r>
        <r>    5.0951    1.0000 </r>
        <r>    5.1377    1.0000 </r>
        <r>    7.9156    0.0000 </r>
        <r>    9.3809    0.0000 </r>
        <r>    9.4195    0.0000 </r>
        <r>   10.1817    0.0000 </r>
       </set>
       <set comment="kpoint 51">
        <r>   -5.8418    1.0000 </r>
        <r>    4.4475    1.0000 </r>
        <r>    4.9754    1.0000 </r>
        <r>    5.0189    1.0000 </r>
        <r>    7.8245    0.0000 </r>
        <r>    9.5671    0.0000 </r>
        <r>    9.6046    0.0000 </r>
        <r>   10.2588    0.0000 </r>
       </set>
       <set comment="kpoint 52">
        <r>   -5.7817    1.0000 </r>
        <r>    4.2345    1.0000 </r>
        <r>    4.8553    1.0000 </r>
        <r>    4.8997    1.0000 </r>
        <r>    7.7309    0.0000 </r>
        <r>    9.7601    0.0000 </r>
        <r>    9.7967    0.0000 </r>
        <r>   10.2815    0.0000 </r>
       </set>
       <set comment="kpoint 53">
        <r>   -5.7160    1.0000 </r>
        <r>    4.0172    1.0000 </r>
        <r>    4.7358    1.0000 </r>
        <r>    4.7810    1.0000 </r>
        <r>    7.6360    0.0000 </r>
        <r>    9.9571    0.0000 </r>
        <r>    9.9945    0.0000 </r>
        <r>   10.2439    0.0000 </r>
       </set>
       <set comment="kpoint 54">
        <r>   -5.6447    1.0000 </r>
        <r>    3.7964    1.0000 </r>
        <r>    4.6178    1.0000 </r>
        <r>    4.6637    1.0000 </r>
        <r>    7.5406    0.0000 </r>
        <r>   10.1150    0.0000 </r>
        <r>   10.1934    0.0000 </r>
        <r>   10.1971    0.0000 </r>
       </set>
       <set comment="kpoint 55">
        <r>   -5.5678    1.0000 </r>
        <r>    3.5729    1.0000 </r>
        <r>    4.5019    1.0000 </r>
        <r>    4.5484    1.0000 </r>
        <r>    7.4460    0.0000 </r>
        <r>    9.9990    0.0000 </r>
        <r>   10.3793    0.0000 </r>
        <r>   10.4047    0.0000 </r>
       </set>
       <set comment="kpoint 56">
        <r>   -5.4853    1.0000 </r>
        <r>    3.3475    1.0000 </r>
        <r>    4.3885    1.0000 </r>
        <r>    4.4356    1.0000 </r>
        <r>    7.3526    0.0000 </r>
        <r>    9.8342    0.0000 </r>
        <r>   10.5905    0.0000 </r>
        <r>   10.6160    0.0000 </r>
       </set>
       <set comment="kpoint 57">
        <r>   -5.3973    1.0000 </r>
        <r>    3.1205    1.0000 </r>
        <r>    4.2781    1.0000 </r>
        <r>    4.3257    1.0000 </r>
        <r>    7.2613    0.0000 </r>
        <r>    9.6512    0.0000 </r>
        <r>   10.8064    0.0000 </r>
        <r>   10.8309    0.0000 </r>
       </set>
       <set comment="kpoint 58">
        <r>   -5.3039    1.0000 </r>
        <r>    2.8922    1.0000 </r>
        <r>    4.1709    1.0000 </r>
        <r>    4.2190    1.0000 </r>
        <r>    7.1725    0.0000 </r>
        <r>    9.4589    0.0000 </r>
        <r>   11.0254    0.0000 </r>
        <r>   11.0487    0.0000 </r>
       </set>
       <set comment="kpoint 59">
        <r>   -5.2050    1.0000 </r>
        <r>    2.6629    1.0000 </r>
        <r>    4.0674    1.0000 </r>
        <r>    4.1159    1.0000 </r>
        <r>    7.0869    0.0000 </r>
        <r>    9.2627    0.0000 </r>
        <r>   11.2476    0.0000 </r>
        <r>   11.2692    0.0000 </r>
       </set>
       <set comment="kpoint 60">
        <r>   -5.1007    1.0000 </r>
        <r>    2.4330    1.0000 </r>
        <r>    3.9677    1.0000 </r>
        <r>    4.0166    1.0000 </r>
        <r>    7.0048    0.0000 </r>
        <r>    9.0663    0.0000 </r>
        <r>   11.4720    0.0000 </r>
        <r>   11.4917    0.0000 </r>
       </set>
       <set comment="kpoint 61">
        <r>   -4.9911    1.0000 </r>
        <r>    2.2027    1.0000 </r>
        <r>    3.8720    1.0000 </r>
        <r>    3.9213    1.0000 </r>
        <r>    6.9269    0.0000 </r>
        <r>    8.8723    0.0000 </r>
        <r>   11.6990    0.0000 </r>
        <r>   11.7169    0.0000 </r>
       </set>
       <set comment="kpoint 62">
        <r>   -4.8761    1.0000 </r>
        <r>    1.9722    1.0000 </r>
        <r>    3.7806    1.0000 </r>
        <r>    3.8302    1.0000 </r>
        <r>    6.8535    0.0000 </r>
        <r>    8.6823    0.0000 </r>
        <r>   11.9284    0.0000 </r>
        <r>   11.9450    0.0000 </r>
       </set>
       <set comment="kpoint 63">
        <r>   -4.7559    1.0000 </r>
        <r>    1.7418    1.0000 </r>
        <r>    3.6935    1.0000 </r>
        <r>    3.7435    1.0000 </r>
        <r>    6.7848    0.0000 </r>
        <r>    8.4978    0.0000 </r>
        <r>   12.1600    0.0000 </r>
        <r>   12.1744    0.0000 </r>
       </set>
       <set comment="kpoint 64">
        <r>   -4.6305    1.0000 </r>
        <r>    1.5115    1.0000 </r>
        <r>    3.6109    1.0000 </r>
        <r>    3.6611    1.0000 </r>
        <r>    6.7210    0.0000 </r>
        <r>    8.3194    0.0000 </r>
        <r>   12.3931    0.0000 </r>
        <r>   12.4059    0.0000 </r>
       </set>
       <set comment="kpoint 65">
        <r>   -4.5000    1.0000 </r>
        <r>    1.2817    1.0000 </r>
        <r>    3.5329    1.0000 </r>
        <r>    3.5833    1.0000 </r>
        <r>    6.6624    0.0000 </r>
        <r>    8.1478    0.0000 </r>
        <r>   12.6280    0.0000 </r>
        <r>   12.6384    0.0000 </r>
       </set>
       <set comment="kpoint 66">
        <r>   -4.3644    1.0000 </r>
        <r>    1.0524    1.0000 </r>
        <r>    3.4595    1.0000 </r>
        <r>    3.5102    1.0000 </r>
        <r>    6.6093    0.0000 </r>
        <r>    7.9837    0.0000 </r>
        <r>   12.8640    0.0000 </r>
        <r>   12.8725    0.0000 </r>
       </set>
       <set comment="kpoint 67">
        <r>   -4.2238    1.0000 </r>
        <r>    0.8240    1.0000 </r>
        <r>    3.3909    1.0000 </r>
        <r>    3.4418    1.0000 </r>
        <r>    6.5617    0.0000 </r>
        <r>    7.8272    0.0000 </r>
        <r>   13.1011    0.0000 </r>
        <r>   13.1081    0.0000 </r>
       </set>
       <set comment="kpoint 68">
        <r>   -4.0783    1.0000 </r>
        <r>    0.5965    1.0000 </r>
        <r>    3.3271    1.0000 </r>
        <r>    3.3782    1.0000 </r>
        <r>    6.5201    0.0000 </r>
        <r>    7.6788    0.0000 </r>
        <r>   13.3399    0.0000 </r>
        <r>   13.3450    0.0000 </r>
       </set>
       <set comment="kpoint 69">
        <r>   -3.9280    1.0000 </r>
        <r>    0.3703    1.0000 </r>
        <r>    3.2682    1.0000 </r>
        <r>    3.3195    1.0000 </r>
        <r>    6.4847    0.0000 </r>
        <r>    7.5386    0.0000 </r>
        <r>   13.5801    0.0000 </r>
        <r>   13.5833    0.0000 </r>
       </set>
       <set comment="kpoint 70">
        <r>   -3.7729    1.0000 </r>
        <r>    0.1455    1.0000 </r>
        <r>    3.2143    1.0000 </r>
        <r>    3.2658    1.0000 </r>
        <r>    6.4554    0.0000 </r>
        <r>    7.4068    0.0000 </r>
        <r>   13.8210    0.0000 </r>
        <r>   13.8230    0.0000 </r>
       </set>
       <set comment="kpoint 71">
        <r>   -3.6132    1.0000 </r>
        <r>   -0.0777    1.0000 </r>
        <r>    3.1654    1.0000 </r>
        <r>    3.2170    1.0000 </r>
        <r>    6.4323    0.0000 </r>
        <r>    7.2833    0.0000 </r>
        <r>   14.0625    0.0000 </r>
        <r>   14.0635    0.0000 </r>
       </set>
       <set comment="kpoint 72">
        <r>   -3.4488    1.0000 </r>
        <r>   -0.2992    1.0000 </r>
        <r>    3.1216    1.0000 </r>
        <r>    3.1732    1.0000 </r>
        <r>    6.4163    0.0000 </r>
        <r>    7.1685    0.0000 </r>
        <r>   14.3039    0.0000 </r>
        <r>   14.3067    0.0000 </r>
       </set>
       <set comment="kpoint 73">
        <r>   -3.2799    1.0000 </r>
        <r>   -0.5186    1.0000 </r>
        <r>    3.0828    1.0000 </r>
        <r>    3.1345    1.0000 </r>
        <r>    6.4069    0.0000 </r>
        <r>    7.0620    0.0000 </r>
        <r>   14.5461    0.0000 </r>
        <r>   14.5511    0.0000 </r>
       </set>
       <set comment="kpoint 74">
        <r>   -3.1068    1.0000 </r>
        <r>   -0.7358    1.0000 </r>
        <r>    3.0491    1.0000 </r>
        <r>    3.1010    1.0000 </r>
        <r>    6.4043    0.0000 </r>
        <r>    6.9639    0.0000 </r>
        <r>   14.7874    0.0000 </r>
        <r>   14.7945    0.0000 </r>
       </set>
       <set comment="kpoint 75">
        <r>   -2.9293    1.0000 </r>
        <r>   -0.9507    1.0000 </r>
        <r>    3.0206    1.0000 </r>
        <r>    3.0725    1.0000 </r>
        <r>    6.4087    0.0000 </r>
        <r>    6.8742    0.0000 </r>
        <r>   15.0278    0.0000 </r>
        <r>   15.0373    0.0000 </r>
       </set>
       <set comment="kpoint 76">
        <r>   -2.7478    1.0000 </r>
        <r>   -1.1630    1.0000 </r>
        <r>    2.9972    1.0000 </r>
        <r>    3.0492    1.0000 </r>
        <r>    6.4201    0.0000 </r>
        <r>    6.7929    0.0000 </r>
        <r>   15.2642    0.0000 </r>
        <r>   15.2763    0.0000 </r>
       </set>
       <set comment="kpoint 77">
        <r>   -2.5623    1.0000 </r>
        <r>   -1.3725    1.0000 </r>
        <r>    2.9790    1.0000 </r>
        <r>    3.0310    1.0000 </r>
        <r>    6.4385    0.0000 </r>
        <r>    6.7200    0.0000 </r>
        <r>   15.4926    0.0000 </r>
        <r>   15.5077    0.0000 </r>
       </set>
       <set comment="kpoint 78">
        <r>   -2.3728    1.0000 </r>
        <r>   -1.5790    1.0000 </r>
        <r>    2.9660    1.0000 </r>
        <r>    3.0180    1.0000 </r>
        <r>    6.4635    0.0000 </r>
        <r>    6.6559    0.0000 </r>
        <r>   15.7032    0.0000 </r>
        <r>   15.7219    0.0000 </r>
       </set>
       <set comment="kpoint 79">
        <r>   -2.1797    1.0000 </r>
        <r>   -1.7825    1.0000 </r>
        <r>    2.9582    1.0000 </r>
        <r>    3.0102    1.0000 </r>
        <r>    6.4936    0.0000 </r>
        <r>    6.6024    0.0000 </r>
        <r>   15.8727    0.0000 </r>
        <r>   15.8946    0.0000 </r>
       </set>
       <set comment="kpoint 80">
        <r>   -1.9902    1.0000 </r>
        <r>   -1.9754    1.0000 </r>
        <r>    2.9555    1.0000 </r>
        <r>    3.0076    1.0000 </r>
        <r>    6.5146    0.0000 </r>
        <r>    6.5736    0.0000 </r>
        <r>   15.9422    0.0000 </r>
        <r>   15.9703    0.0000 </r>
       </set>
      </set>
     </set>
    </array>
   </eigenvalues>
   <array>
    <dimension dim="1">ion</dimension>
    <dimension dim="2">band</dimension>
    <dimension dim="3">kpoint</dimension>
    <dimension dim="4">spin</dimension>
    <field>    s</field>
    <field>   py</field>
    <field>   pz</field>
    <field>   px</field>
    <field>  dxy</field>
    <field>  dyz</field>
    <field>  dz2</field>
    <field>  dxz</field>
    <field>x2-y2</field>
    <set>
     <set comment="spin1">
      <set comment="kpoint 1">
       <set comment="band 1">
        <r>  0.1935  0.0000  0.0000  0.0457  0.0000  0.0000  0.0000  0.0000  0.0000 </r>
        <r>  0.1936  0.0000  0.0000  0.0457  0.0000  0.0000  0.0000  0.0000  0.0000 </r>
       </set>
       <set comment="band 2">
        <r>  0.1932  0.0000  0.0000  0.0456  0.0000  0.0000  0.0000  0.0000  0.0000 </r>
        <r>  0.1931  0.0000  0.0000  0.0456  0.0000  0.0000  0.0000  0.0000  0.0000 </r>
       </set>
       <set comment="band 3">
        <r>  0.0000  0.0988  0.0988  0.0000  0.0000  0.0000  0.0000  0.0000  0.0000 </r>
        <r>  0.0000  0.0988  0.0988  0.0000  0.0000  0.0000  0.0000  0.0000  0.0000 </r>
       </set>
       <set comment="band 4">
        <r>  0.0000  0.0992  0.0992  0.0000  0.0000  0.0000  0.0000  0.0000  0.0000 </r>
        <r>  0.0000  0.0992  0.0992  0.0000  0.0000  0.0000  0.0000  0.0000  0.0000 </r>
       </set>
       <set comment="band 5">
        <r>  0.0517  0.0000  0.0000  0.0354  0.0000  0.0000  0.0000  0.0000  0.0000 </r>
        <r>  0.0517  0.0000  0.0000  0.0354  0.0000  0.0000  0.0000  0.0000  0.0000 </r>
       </set>
       <set comment="band 6">
        <r>  0.0519  0.0000  0.0000  0.0347  0.0000  0.0000  0.0000  0.0000  0.0000 </r>
        <r>  0.0519  0.0000  0.0000  0.0347  0.0000  0.0000  0.0000  0.0000  0.0000 </r>
       </set>
       <set comment="band 7">
        <r>  0.0000  0.1253  0.1163  0.0000  0.0000  0.0000  0.0000  0.0000  0.0000 </r>
        <r>  0.0000  0.1162  0.1223  0.0000  0.0000  0.0000  0.0000  0.0000  0.0000 </r>
       </set>
       <set comment="band 8">
        <r>  0.0001  0.1163  0.1234  0.0002  0.0000  0.0000  0.0000  0.0000  0.0000 </r>
        <r>  0.0001  0.1246  0.1161  0.0002  0.0000  0.0000  0.0000  0.0000  0.0000 </r>
       </set>
      </set>
      <set comment="kpoint 2">
       <set comment="band 1">
        <r>  0.1944  0.0000  0.0000  0.0435  0.0000  0.0000  0.0000  0.0000  0.0000 </r>
        <r>  0.1944  0.0000  0.0000  0.0435  0.0000  0.0000  0.0000  0.0000  0.0000 </r>
       </set>
       <set comment="band 2">
        <r>  0.1923  0.0000  0.0000  0.0479  0.0000  0.0000  0.0000  0.0000  0.0000 </r>
        <r>  0.1923  0.0000  0.0000  0.0479  0.0000  0.0000  0.0000  0.0000  0.0000 </r>
       </set>
       <set comment="band 3">
        <r>  0.0000  0.0988  0.0988  0.0000  0.0000  0.0000  0.0000  0.0000  0.0000 </r>
        <r>  0.0000  0.0988  0.0988  0.0000  0.0000  0.0000  0.0000  0.0000  0.0000 </r>
       </set>
       <set comment="band 4">
        <r>  0.0000  0.0992  0.0992  0.0000  0.0000  0.0000  0.0000  0.0000  0.0000 </r>
        <r>  0.0000  0.0992  0.0992  0.0000  0.0000  0.0000  0.0000  0.0000  0.0000 </r>
       </set>
       <set comment="band 5">
        <r>  0.0521  0.0000  0.0000  0.0362  0.0000  0.0000  0.0000  0.0000  0.0000 </r>
        <r>  0.0521  0.0000  0.0000  0.0362  0.0000  0.0000  0.0000  0.0000  0.0000 </r>
       </set>
       <set comment="band 6">
        <r>  0.0514  0.0000  0.0000  0.0341  0.0000  0.0000  0.0000  0.0000  0.0000 </r>
        <r>  0.0514  0.0000  0.0000  0.0341  0.0000  0.0000  0.0000  0.0000  0.0000 </r>
       </set>
       <set comment="band 7">
        <r>  0.0000  0.1186  0.1091  0.0000  0.0000  0.0000  0.0000  0.0000  0.0000 </r>
        <r>  0.0000  0.1140  0.1130  0.0000  0.0000  0.0000  0.0000  0.0000  0.0000 </r>
       </set>
       <set comment="band 8">
        <r>  0.0001  0.1100  0.1223  0.0002  0.0000  0.0000  0.0000  0.0000  0.0000 </r>
        <r>  0.0000  0.1157  0.1089  0.0002  0.0000  0.0000  0.0000  0.0000  0.0000 </r>
       </set>
      </set>
      <set comment="kpoint 3">
       <set comment="band 1">
        <r>  0.1953  0.0000  0.0000  0.0413  0.0000  0.0000  0.0000  0.0000  0.0000 </r>
        <r>  0.1953  0.0000  0.0000  0.0413  0.0000  0.0000  0.0000  0.0000  0.0000 </r>
       </set>
       <set comment="band 2">
        <r>  0.1913  0.0000  0.0000  0.0502  0.0000  0.0000  0.0000  0.0000  0.0000 </r>
        <r>  0.1913  0.0000  0.0000  0.0502  0.0000  0.0000  0.0000  0.0000  0.0000 </r>
       </set>
       <set comment="band 3">
        <r>  0.0000  0.0988  0.0988  0.0000  0.0000  0.0000  0.0000  0.0000  0.0000 </r>
        <r>  0.0000  0.0988  0.0988  0.0000  0.0000  0.0000  0.0000  0.0000  0.0000 </r>
       </set>
       <set comment="band 4">
        <r>  0.0000  0.0992  0.0992  0.0000  0.0000  0.0000  0.0000  0.0000  0.0000 </r>
        <r>  0.0000  0.0992  0.0992  0.0000  0.0000  0.0000  0.0000  0.0000  0.0000 </r>
       </set>
       <set comment="band 5">
        <r>  0.0526  0.0000  0.0000  0.0373  0.0000  0.0000  0.0000  0.0000  0.0000 </r>
        <r>  0.0526  0.0000  0.0000  0.0373  0.0000  0.0000  0.0000  0.0000  0.0000 </r>
       </set>
       <set comment="band 6">
        <r>  0.0507  0.0000  0.0000  0.0332  0.0000  0.0000  0.0000  0.0000  0.0000 </r>
        <r>  0.0507  0.0000  0.0000  0.0332  0.0000  0.0000  0.0000  0.0000  0.0000 </r>
       </set>
       <set comment="band 7">
        <r>  0.0000  0.1002  0.1034  0.0000  0.0000  0.0000  0.0000  0.0000  0.0000 </r>
        <r>  0.0000  0.1035  0.1002  0.0000  0.0000  0.0000  0.0000  0.0000  0.0000 </r>
       </set>
       <set comment="band 8">
        <r>  0.0001  0.1015  0.0995  0.0002  0.0000  0.0000  0.0000  0.0000  0.0000 </r>
        <r>  0.0001  0.0991  0.1012  0.0001  0.0000  0.0000  0.0000  0.0000  0.0000 </r>
       </set>
      </set>
      <set comment="kpoint 4">
       <set comment="band 1">
        <r>  0.1962  0.0000  0.0000  0.0392  0.0000  0.0000  0.0000  0.0000  0.0000 </r>
        <r>  0.1962  0.0000  0.0000  0.0392  0.0000  0.0000  0.0000  0.0000  0.0000 </r>
       </set>
       <set comment="band 2">
        <r>  0.1901  0.0000  0.0000  0.0526  0.0000  0.0000  0.0000  0.0000  0.0000 </r>
        <r>  0.1901  0.0000  0.0000  0.0526  0.0000  0.0000  0.0000  0.0000  0.0000 </r>
       </set>
       <set comment="band 3">
        <r>  0.0000  0.0988  0.0988  0.0000  0.0000  0.0000  0.0000  0.0000  0.0000 </r>
        <r>  0.0000  0.0988  0.0988  0.0000  0.0000  0.0000  0.0000  0.0000  0.0000 </r>
       </set>
       <set comment="band 4">
        <r>  0.0000  0.0992  0.0992  0.0000  0.0000  0.0000  0.0000  0.0000  0.0000 </r>
        <r>  0.0000  0.0992  0.0992  0.0000  0.0000  0.0000  0.0000  0.0000  0.0000 </r>
       </set>
       <set comment="band 5">
        <r>  0.0529  0.0000  0.0000  0.0386  0.0000  0.0000  0.0000  0.0000  0.0000 </r>
        <r>  0.0529  0.0000  0.0000  0.0386  0.0000  0.0000  0.0000  0.0000  0.0000 </r>
       </set>
       <set comment="band 6">
        <r>  0.0501  0.0000  0.0000  0.0324  0.0000  0.0000  0.0000  0.0000  0.0000 </r>
        <r>  0.0501  0.0000  0.0000  0.0324  0.0000  0.0000  0.0000  0.0000  0.0000 </r>
       </set>
       <set comment="band 7">
        <r>  0.0000  0.0948  0.0947  0.0000  0.0000  0.0000  0.0000  0.0000  0.0000 </r>
        <r>  0.0000  0.0955  0.0942  0.0000  0.0000  0.0000  0.0000  0.0000  0.0000 </r>
       </set>
       <set comment="band 8">
        <r>  0.0001  0.0944  0.0926  0.0001  0.0000  0.0000  0.0000  0.0000  0.0000 </r>
        <r>  0.0001  0.0922  0.0953  0.0001  0.0000  0.0000  0.0000  0.0000  0.0000 </r>
       </set>
      </set>
      <set comment="kpoint 5">
       <set comment="band 1">
        <r>  0.1971  0.0000  0.0000  0.0372  0.0000  0.0000  0.0000  0.0000  0.0000 </r>
        <r>  0.1971  0.0000  0.0000  0.0372  0.0000  0.0000  0.0000  0.0000  0.0000 </r>
       </set>
       <set comment="band 2">
        <r>  0.1890  0.0000  0.0000  0.0550  0.0000  0.0000  0.0000  0.0000  0.0000 </r>
        <r>  0.1890  0.0000  0.0000  0.0550  0.0000  0.0000  0.0000  0.0000  0.0000 </r>
       </set>
       <set comment="band 3">
        <r>  0.0000  0.0988  0.0988  0.0000  0.0000  0.0000  0.0000  0.0000  0.0000 </r>
        <r>  0.0000  0.0988  0.0988  0.0000  0.0000  0.0000  0.0000  0.0000  0.0000 </r>
       </set>
       <set comment="band 4">
        <r>  0.0000  0.0992  0.0992  0.0000  0.0000  0.0000  0.0000  0.0000  0.0000 </r>
        <r>  0.0000  0.0992  0.0992  0.0000  0.0000  0.0000  0.0000  0.0000  0.0000 </r>
       </set>
       <set comment="band 5">
        <r>  0.0531  0.0000  0.0000  0.0400  0.0000  0.0000  0.0000  0.0000  0.0000 </r>
        <r>  0.0531  0.0000  0.0000  0.0400  0.0000  0.0000  0.0000  0.0000  0.0000 </r>
       </set>
       <set comment="band 6">
        <r>  0.0494  0.0000  0.0000  0.0318  0.0000  0.0000  0.0000  0.0000  0.0000 </r>
        <r>  0.0494  0.0000  0.0000  0.0318  0.0000  0.0000  0.0000  0.0000  0.0000 </r>
       </set>
       <set comment="band 7">
        <r>  0.0000  0.0898  0.0898  0.0000  0.0000  0.0000  0.0000  0.0000  0.0000 </r>
        <r>  0.0000  0.0899  0.0899  0.0000  0.0000  0.0000  0.0000  0.0000  0.0000 </r>
       </set>
       <set comment="band 8">
        <r>  0.0001  0.0889  0.0890  0.0001  0.0000  0.0000  0.0000  0.0000  0.0000 </r>
        <r>  0.0001  0.0890  0.0889  0.0001  0.0000  0.0000  0.0000  0.0000  0.0000 </r>
       </set>
      </set>
      <set comment="kpoint 6">
       <set comment="band 1">
        <r>  0.1980  0.0000  0.0000  0.0352  0.0000  0.0000  0.0000  0.0000  0.0000 </r>
        <r>  0.1980  0.0000  0.0000  0.0352  0.0000  0.0000  0.0000  0.0000  0.0000 </r>
       </set>
       <set comment="band 2">
        <r>  0.1877  0.0000  0.0000  0.0574  0.0000  0.0000  0.0000  0.0000  0.0000 </r>
        <r>  0.1877  0.0000  0.0000  0.0574  0.0000  0.0000  0.0000  0.0000  0.0000 </r>
       </set>
       <set comment="band 3">
        <r>  0.0000  0.0988  0.0988  0.0000  0.0000  0.0000  0.0000  0.0000  0.0000 </r>
        <r>  0.0000  0.0988  0.0988  0.0000  0.0000  0.0000  0.0000  0.0000  0.0000 </r>
       </set>
       <set comment="band 4">
        <r>  0.0000  0.0992  0.0992  0.0000  0.0000  0.0000  0.0000  0.0000  0.0000 </r>
        <r>  0.0000  0.0992  0.0992  0.0000  0.0000  0.0000  0.0000  0.0000  0.0000 </r>
       </set>
       <set comment="band 5">
        <r>  0.0533  0.0000  0.0000  0.0416  0.0000  0.0000  0.0000  0.0000  0.0000 </r>
        <r>  0.0533  0.0000  0.0000  0.0416  0.0000  0.0000  0.0000  0.0000  0.0000 </r>
       </set>
       <set comment="band 6">
        <r>  0.0486  0.0000  0.0000  0.0312  0.0000  0.0000  0.0000  0.0000  0.0000 </r>
        <r>  0.0486  0.0000  0.0000  0.0312  0.0000  0.0000  0.0000  0.0000  0.0000 </r>
       </set>
       <set comment="band 7">
        <r>  0.0000  0.0869  0.0870  0.0000  0.0000  0.0000  0.0000  0.0000  0.0000 </r>
        <r>  0.0000  0.0870  0.0869  0.0000  0.0000  0.0000  0.0000  0.0000  0.0000 </r>
       </set>
       <set comment="band 8">
        <r>  0.0001  0.0863  0.0862  0.0001  0.0000  0.0000  0.0000  0.0000  0.0000 </r>
        <r>  0.0001  0.0862  0.0863  0.0001  0.0000  0.0000  0.0000  0.0000  0.0000 </r>
       </set>
      </set>
      <set comment="kpoint 7">
       <set comment="band 1">
        <r>  0.1988  0.0000  0.0000  0.0332  0.0000  0.0000  0.0000  0.0000  0.0000 </r>
        <r>  0.1988  0.0000  0.0000  0.0332  0.0000  0.0000  0.0000  0.0000  0.0000 </r>
       </set>
       <set comment="band 2">
        <r>  0.1864  0.0000  0.0000  0.0599  0.0000  0.0000  0.0000  0.0000  0.0000 </r>
        <r>  0.1864  0.0000  0.0000  0.0599  0.0000  0.0000  0.0000  0.0000  0.0000 </r>
       </set>
       <set comment="band 3">
        <r>  0.0000  0.0988  0.0988  0.0000  0.0000  0.0000  0.0000  0.0000  0.0000 </r>
        <r>  0.0000  0.0988  0.0988  0.0000  0.0000  0.0000  0.0000  0.0000  0.0000 </r>
       </set>
       <set comment="band 4">
        <r>  0.0000  0.0992  0.0992  0.0000  0.0000  0.0000  0.0000  0.0000  0.0000 </r>
        <r>  0.0000  0.0992  0.0992  0.0000  0.0000  0.0000  0.0000  0.0000  0.0000 </r>
       </set>
       <set comment="band 5">
        <r>  0.0533  0.0000  0.0000  0.0432  0.0000  0.0000  0.0000  0.0000  0.0000 </r>
        <r>  0.0533  0.0000  0.0000  0.0432  0.0000  0.0000  0.0000  0.0000  0.0000 </r>
       </set>
       <set comment="band 6">
        <r>  0.0479  0.0000  0.0000  0.0308  0.0000  0.0000  0.0000  0.0000  0.0000 </r>
        <r>  0.0479  0.0000  0.0000  0.0308  0.0000  0.0000  0.0000  0.0000  0.0000 </r>
       </set>
       <set comment="band 7">
        <r>  0.0000  0.0852  0.0851  0.0000  0.0000  0.0000  0.0000  0.0000  0.0000 </r>
        <r>  0.0000  0.0851  0.0851  0.0000  0.0000  0.0000  0.0000  0.0000  0.0000 </r>
       </set>
       <set comment="band 8">
        <r>  0.0001  0.0845  0.0846  0.0001  0.0000  0.0000  0.0000  0.0000  0.0000 </r>
        <r>  0.0001  0.0845  0.0845  0.0001  0.0000  0.0000  0.0000  0.0000  0.0000 </r>
       </set>
      </set>
      <set comment="kpoint 8">
       <set comment="band 1">
        <r>  0.1996  0.0000  0.0000  0.0313  0.0000  0.0000  0.0000  0.0000  0.0000 </r>
        <r>  0.1996  0.0000  0.0000  0.0313  0.0000  0.0000  0.0000  0.0000  0.0000 </r>
       </set>
       <set comment="band 2">
        <r>  0.1850  0.0000  0.0000  0.0625  0.0000  0.0000  0.0000  0.0000  0.0000 </r>
        <r>  0.1850  0.0000  0.0000  0.0625  0.0000  0.0000  0.0000  0.0000  0.0000 </r>
       </set>
       <set comment="band 3">
        <r>  0.0000  0.0988  0.0988  0.0000  0.0000  0.0000  0.0000  0.0000  0.0000 </r>
        <r>  0.0000  0.0988  0.0988  0.0000  0.0000  0.0000  0.0000  0.0000  0.0000 </r>
       </set>
       <set comment="band 4">
        <r>  0.0000  0.0992  0.0992  0.0000  0.0000  0.0000  0.0000  0.0000  0.0000 </r>
        <r>  0.0000  0.0992  0.0992  0.0000  0.0000  0.0000  0.0000  0.0000  0.0000 </r>
       </set>
       <set comment="band 5">
        <r>  0.0532  0.0000  0.0000  0.0450  0.0000  0.0000  0.0000  0.0000  0.0000 </r>
        <r>  0.0532  0.0000  0.0000  0.0450  0.0000  0.0000  0.0000  0.0000  0.0000 </r>
       </set>
       <set comment="band 6">
        <r>  0.0472  0.0000  0.0000  0.0304  0.0000  0.0000  0.0000  0.0000  0.0000 </r>
        <r>  0.0472  0.0000  0.0000  0.0304  0.0000  0.0000  0.0000  0.0000  0.0000 </r>
       </set>
       <set comment="band 7">
        <r>  0.0000  0.0840  0.0841  0.0000  0.0000  0.0000  0.0000  0.0000  0.0000 </r>
        <r>  0.0000  0.0841  0.0840  0.0000  0.0000  0.0000  0.0000  0.0000  0.0000 </r>
       </set>
       <set comment="band 8">
        <r>  0.0001  0.0835  0.0835  0.0001  0.0000  0.0000  0.0000  0.0000  0.0000 </r>
        <r>  0.0001  0.0835  0.0835  0.0001  0.0000  0.0000  0.0000  0.0000  0.0000 </r>
       </set>
      </set>
      <set comment="kpoint 9">
       <set comment="band 1">
        <r>  0.2004  0.0000  0.0000  0.0294  0.0000  0.0000  0.0000  0.0000  0.0000 </r>
        <r>  0.2004  0.0000  0.0000  0.0294  0.0000  0.0000  0.0000  0.0000  0.0000 </r>
       </set>
       <set comment="band 2">
        <r>  0.1835  0.0000  0.0000  0.0651  0.0000  0.0000  0.0000  0.0000  0.0000 </r>
        <r>  0.1835  0.0000  0.0000  0.0651  0.0000  0.0000  0.0000  0.0000  0.0000 </r>
       </set>
       <set comment="band 3">
        <r>  0.0000  0.0989  0.0989  0.0000  0.0000  0.0000  0.0000  0.0000  0.0000 </r>
        <r>  0.0000  0.0989  0.0989  0.0000  0.0000  0.0000  0.0000  0.0000  0.0000 </r>
       </set>
       <set comment="band 4">
        <r>  0.0000  0.0992  0.0992  0.0000  0.0000  0.0000  0.0000  0.0000  0.0000 </r>
        <r>  0.0000  0.0992  0.0992  0.0000  0.0000  0.0000  0.0000  0.0000  0.0000 </r>
       </set>
       <set comment="band 5">
        <r>  0.0531  0.0000  0.0000  0.0468  0.0000  0.0000  0.0000  0.0000  0.0000 </r>
        <r>  0.0531  0.0000  0.0000  0.0468  0.0000  0.0000  0.0000  0.0000  0.0000 </r>
       </set>
       <set comment="band 6">
        <r>  0.0465  0.0000  0.0000  0.0302  0.0000  0.0000  0.0000  0.0000  0.0000 </r>
        <r>  0.0465  0.0000  0.0000  0.0302  0.0000  0.0000  0.0000  0.0000  0.0000 </r>
       </set>
       <set comment="band 7">
        <r>  0.0000  0.0848  0.0820  0.0000  0.0000  0.0000  0.0000  0.0000  0.0000 </r>
        <r>  0.0000  0.0897  0.0771  0.0000  0.0000  0.0000  0.0000  0.0000  0.0000 </r>
       </set>
       <set comment="band 8">
        <r>  0.0001  0.0815  0.0844  0.0001  0.0000  0.0000  0.0000  0.0000  0.0000 </r>
        <r>  0.0001  0.0767  0.0891  0.0001  0.0000  0.0000  0.0000  0.0000  0.0000 </r>
       </set>
      </set>
      <set comment="kpoint 10">
       <set comment="band 1">
        <r>  0.2011  0.0000  0.0000  0.0276  0.0000  0.0000  0.0000  0.0000  0.0000 </r>
        <r>  0.2011  0.0000  0.0000  0.0276  0.0000  0.0000  0.0000  0.0000  0.0000 </r>
       </set>
       <set comment="band 2">
        <r>  0.1819  0.0000  0.0000  0.0678  0.0000  0.0000  0.0000  0.0000  0.0000 </r>
        <r>  0.1819  0.0000  0.0000  0.0678  0.0000  0.0000  0.0000  0.0000  0.0000 </r>
       </set>
       <set comment="band 3">
        <r>  0.0000  0.0989  0.0989  0.0000  0.0000  0.0000  0.0000  0.0000  0.0000 </r>
        <r>  0.0000  0.0989  0.0989  0.0000  0.0000  0.0000  0.0000  0.0000  0.0000 </r>
       </set>
       <set comment="band 4">
        <r>  0.0000  0.0993  0.0993  0.0000  0.0000  0.0000  0.0000  0.0000  0.0000 </r>
        <r>  0.0000  0.0993  0.0993  0.0000  0.0000  0.0000  0.0000  0.0000  0.0000 </r>
       </set>
       <set comment="band 5">
        <r>  0.0528  0.0000  0.0000  0.0487  0.0000  0.0000  0.0000  0.0000  0.0000 </r>
        <r>  0.0528  0.0000  0.0000  0.0487  0.0000  0.0000  0.0000  0.0000  0.0000 </r>
       </set>
       <set comment="band 6">
        <r>  0.0458  0.0000  0.0000  0.0301  0.0000  0.0000  0.0000  0.0000  0.0000 </r>
        <r>  0.0458  0.0000  0.0000  0.0301  0.0000  0.0000  0.0000  0.0000  0.0000 </r>
       </set>
       <set comment="band 7">
        <r>  0.0000  0.0810  0.0851  0.0000  0.0000  0.0000  0.0000  0.0000  0.0000 </r>
        <r>  0.0000  0.0844  0.0817  0.0000  0.0000  0.0000  0.0000  0.0000  0.0000 </r>
       </set>
       <set comment="band 8">
        <r>  0.0001  0.0846  0.0804  0.0001  0.0000  0.0000  0.0000  0.0000  0.0000 </r>
        <r>  0.0001  0.0811  0.0839  0.0001  0.0000  0.0000  0.0000  0.0000  0.0000 </r>
       </set>
      </set>
      <set comment="kpoint 11">
       <set comment="band 1">
        <r>  0.2019  0.0000  0.0000  0.0259  0.0000  0.0000  0.0000  0.0000  0.0000 </r>
        <r>  0.2019  0.0000  0.0000  0.0259  0.0000  0.0000  0.0000  0.0000  0.0000 </r>
       </set>
       <set comment="band 2">
        <r>  0.1802  0.0000  0.0000  0.0705  0.0000  0.0000  0.0000  0.0000  0.0000 </r>
        <r>  0.1802  0.0000  0.0000  0.0705  0.0000  0.0000  0.0000  0.0000  0.0000 </r>
       </set>
       <set comment="band 3">
        <r>  0.0000  0.0989  0.0989  0.0000  0.0000  0.0000  0.0000  0.0000  0.0000 </r>
        <r>  0.0000  0.0989  0.0989  0.0000  0.0000  0.0000  0.0000  0.0000  0.0000 </r>
       </set>
       <set comment="band 4">
        <r>  0.0000  0.0993  0.0993  0.0000  0.0000  0.0000  0.0000  0.0000  0.0000 </r>
        <r>  0.0000  0.0993  0.0993  0.0000  0.0000  0.0000  0.0000  0.0000  0.0000 </r>
       </set>
       <set comment="band 5">
        <r>  0.0525  0.0000  0.0000  0.0508  0.0000  0.0000  0.0000  0.0000  0.0000 </r>
        <r>  0.0525  0.0000  0.0000  0.0508  0.0000  0.0000  0.0000  0.0000  0.0000 </r>
       </set>
       <set comment="band 6">
        <r>  0.0451  0.0000  0.0000  0.0301  0.0000  0.0000  0.0000  0.0000  0.0000 </r>
        <r>  0.0451  0.0000  0.0000  0.0301  0.0000  0.0000  0.0000  0.0000  0.0000 </r>
       </set>
       <set comment="band 7">
        <r>  0.0001  0.0823  0.0823  0.0001  0.0000  0.0000  0.0000  0.0000  0.0000 </r>
        <r>  0.0001  0.0823  0.0823  0.0001  0.0000  0.0000  0.0000  0.0000  0.0000 </r>
       </set>
       <set comment="band 8">
        <r>  0.0000  0.0827  0.0828  0.0000  0.0000  0.0000  0.0000  0.0000  0.0000 </r>
        <r>  0.0000  0.0828  0.0827  0.0000  0.0000  0.0000  0.0000  0.0000  0.0000 </r>
       </set>
      </set>
      <set comment="kpoint 12">
       <set comment="band 1">
        <r>  0.2026  0.0000  0.0000  0.0242  0.0000  0.0000  0.0000  0.0000  0.0000 </r>
        <r>  0.2026  0.0000  0.0000  0.0242  0.0000  0.0000  0.0000  0.0000  0.0000 </r>
       </set>
       <set comment="band 2">
        <r>  0.1783  0.0000  0.0000  0.0733  0.0000  0.0000  0.0000  0.0000  0.0000 </r>
        <r>  0.1783  0.0000  0.0000  0.0733  0.0000  0.0000  0.0000  0.0000  0.0000 </r>
       </set>
       <set comment="band 3">
        <r>  0.0000  0.0989  0.0989  0.0000  0.0000  0.0000  0.0000  0.0000  0.0000 </r>
        <r>  0.0000  0.0989  0.0989  0.0000  0.0000  0.0000  0.0000  0.0000  0.0000 </r>
       </set>
       <set comment="band 4">
        <r>  0.0000  0.0993  0.0993  0.0000  0.0000  0.0000  0.0000  0.0000  0.0000 </r>
        <r>  0.0000  0.0993  0.0993  0.0000  0.0000  0.0000  0.0000  0.0000  0.0000 </r>
       </set>
       <set comment="band 5">
        <r>  0.0520  0.0000  0.0000  0.0530  0.0000  0.0000  0.0000  0.0000  0.0000 </r>
        <r>  0.0520  0.0000  0.0000  0.0530  0.0000  0.0000  0.0000  0.0000  0.0000 </r>
       </set>
       <set comment="band 6">
        <r>  0.0446  0.0000  0.0000  0.0302  0.0000  0.0000  0.0000  0.0000  0.0000 </r>
        <r>  0.0446  0.0000  0.0000  0.0302  0.0000  0.0000  0.0000  0.0000  0.0000 </r>
       </set>
       <set comment="band 7">
        <r>  0.0001  0.0821  0.0824  0.0001  0.0000  0.0000  0.0000  0.0000  0.0000 </r>
        <r>  0.0001  0.0824  0.0821  0.0001  0.0000  0.0000  0.0000  0.0000  0.0000 </r>
       </set>
       <set comment="band 8">
        <r>  0.0000  0.0829  0.0825  0.0000  0.0000  0.0000  0.0000  0.0000  0.0000 </r>
        <r>  0.0000  0.0826  0.0828  0.0000  0.0000  0.0000  0.0000  0.0000  0.0000 </r>
       </set>
      </set>
      <set comment="kpoint 13">
       <set comment="band 1">
        <r>  0.2033  0.0000  0.0000  0.0225  0.0000  0.0000  0.0000  0.0000  0.0000 </r>
        <r>  0.2033  0.0000  0.0000  0.0225  0.0000  0.0000  0.0000  0.0000  0.0000 </r>
       </set>
       <set comment="band 2">
        <r>  0.1763  0.0000  0.0000  0.0762  0.0000  0.0000  0.0000  0.0000  0.0000 </r>
        <r>  0.1763  0.0000  0.0000  0.0762  0.0000  0.0000  0.0000  0.0000  0.0000 </r>
       </set>
       <set comment="band 3">
        <r>  0.0000  0.0989  0.0989  0.0000  0.0000  0.0000  0.0000  0.0000  0.0000 </r>
        <r>  0.0000  0.0989  0.0989  0.0000  0.0000  0.0000  0.0000  0.0000  0.0000 </r>
       </set>
       <set comment="band 4">
        <r>  0.0000  0.0994  0.0994  0.0000  0.0000  0.0000  0.0000  0.0000  0.0000 </r>
        <r>  0.0000  0.0994  0.0994  0.0000  0.0000  0.0000  0.0000  0.0000  0.0000 </r>
       </set>
       <set comment="band 5">
        <r>  0.0514  0.0000  0.0000  0.0553  0.0000  0.0000  0.0000  0.0000  0.0000 </r>
        <r>  0.0514  0.0000  0.0000  0.0553  0.0000  0.0000  0.0000  0.0000  0.0000 </r>
       </set>
       <set comment="band 6">
        <r>  0.0441  0.0000  0.0000  0.0305  0.0000  0.0000  0.0000  0.0000  0.0000 </r>
        <r>  0.0441  0.0000  0.0000  0.0305  0.0000  0.0000  0.0000  0.0000  0.0000 </r>
       </set>
       <set comment="band 7">
        <r>  0.0001  0.0823  0.0823  0.0001  0.0000  0.0000  0.0000  0.0000  0.0000 </r>
        <r>  0.0001  0.0823  0.0823  0.0001  0.0000  0.0000  0.0000  0.0000  0.0000 </r>
       </set>
       <set comment="band 8">
        <r>  0.0000  0.0828  0.0827  0.0000  0.0000  0.0000  0.0000  0.0000  0.0000 </r>
        <r>  0.0000  0.0828  0.0828  0.0000  0.0000  0.0000  0.0000  0.0000  0.0000 </r>
       </set>
      </set>
      <set comment="kpoint 14">
       <set comment="band 1">
        <r>  0.2040  0.0000  0.0000  0.0209  0.0000  0.0000  0.0000  0.0000  0.0000 </r>
        <r>  0.2040  0.0000  0.0000  0.0209  0.0000  0.0000  0.0000  0.0000  0.0000 </r>
       </set>
       <set comment="band 2">
        <r>  0.1742  0.0000  0.0000  0.0791  0.0000  0.0000  0.0000  0.0000  0.0000 </r>
        <r>  0.1742  0.0000  0.0000  0.0791  0.0000  0.0000  0.0000  0.0000  0.0000 </r>
       </set>
       <set comment="band 3">
        <r>  0.0000  0.0989  0.0989  0.0000  0.0000  0.0000  0.0000  0.0000  0.0000 </r>
        <r>  0.0000  0.0989  0.0989  0.0000  0.0000  0.0000  0.0000  0.0000  0.0000 </r>
       </set>
       <set comment="band 4">
        <r>  0.0000  0.0994  0.0994  0.0000  0.0000  0.0000  0.0000  0.0000  0.0000 </r>
        <r>  0.0000  0.0994  0.0994  0.0000  0.0000  0.0000  0.0000  0.0000  0.0000 </r>
       </set>
       <set comment="band 5">
        <r>  0.0507  0.0000  0.0000  0.0578  0.0000  0.0000  0.0000  0.0000  0.0000 </r>
        <r>  0.0507  0.0000  0.0000  0.0578  0.0000  0.0000  0.0000  0.0000  0.0000 </r>
       </set>
       <set comment="band 6">
        <r>  0.0438  0.0000  0.0000  0.0308  0.0000  0.0000  0.0000  0.0000  0.0000 </r>
        <r>  0.0438  0.0000  0.0000  0.0308  0.0000  0.0000  0.0000  0.0000  0.0000 </r>
       </set>
       <set comment="band 7">
        <r>  0.0001  0.0825  0.0824  0.0001  0.0000  0.0000  0.0000  0.0000  0.0000 </r>
        <r>  0.0001  0.0824  0.0825  0.0001  0.0000  0.0000  0.0000  0.0000  0.0000 </r>
       </set>
       <set comment="band 8">
        <r>  0.0000  0.0829  0.0829  0.0000  0.0000  0.0000  0.0000  0.0000  0.0000 </r>
        <r>  0.0000  0.0829  0.0829  0.0000  0.0000  0.0000  0.0000  0.0000  0.0000 </r>
       </set>
      </set>
      <set comment="kpoint 15">
       <set comment="band 1">
        <r>  0.2047  0.0000  0.0000  0.0194  0.0000  0.0000  0.0000  0.0000  0.0000 </r>
        <r>  0.2047  0.0000  0.0000  0.0194  0.0000  0.0000  0.0000  0.0000  0.0000 </r>
       </set>
       <set comment="band 2">
        <r>  0.1718  0.0000  0.0000  0.0821  0.0000  0.0000  0.0000  0.0000  0.0000 </r>
        <r>  0.1718  0.0000  0.0000  0.0821  0.0000  0.0000  0.0000  0.0000  0.0000 </r>
       </set>
       <set comment="band 3">
        <r>  0.0000  0.0990  0.0990  0.0000  0.0000  0.0000  0.0000  0.0000  0.0000 </r>
        <r>  0.0000  0.0990  0.0990  0.0000  0.0000  0.0000  0.0000  0.0000  0.0000 </r>
       </set>
       <set comment="band 4">
        <r>  0.0000  0.0994  0.0994  0.0000  0.0000  0.0000  0.0000  0.0000  0.0000 </r>
        <r>  0.0000  0.0994  0.0994  0.0000  0.0000  0.0000  0.0000  0.0000  0.0000 </r>
       </set>
       <set comment="band 5">
        <r>  0.0498  0.0000  0.0000  0.0604  0.0000  0.0000  0.0000  0.0000  0.0000 </r>
        <r>  0.0498  0.0000  0.0000  0.0604  0.0000  0.0000  0.0000  0.0000  0.0000 </r>
       </set>
       <set comment="band 6">
        <r>  0.0436  0.0000  0.0000  0.0314  0.0000  0.0000  0.0000  0.0000  0.0000 </r>
        <r>  0.0436  0.0000  0.0000  0.0314  0.0000  0.0000  0.0000  0.0000  0.0000 </r>
       </set>
       <set comment="band 7">
        <r>  0.0001  0.0827  0.0824  0.0001  0.0000  0.0000  0.0000  0.0000  0.0000 </r>
        <r>  0.0001  0.0825  0.0826  0.0001  0.0000  0.0000  0.0000  0.0000  0.0000 </r>
       </set>
       <set comment="band 8">
        <r>  0.0000  0.0830  0.0832  0.0000  0.0000  0.0000  0.0000  0.0000  0.0000 </r>
        <r>  0.0000  0.0831  0.0830  0.0000  0.0000  0.0000  0.0000  0.0000  0.0000 </r>
       </set>
      </set>
      <set comment="kpoint 16">
       <set comment="band 1">
        <r>  0.2053  0.0000  0.0000  0.0179  0.0000  0.0000  0.0000  0.0000  0.0000 </r>
        <r>  0.2053  0.0000  0.0000  0.0179  0.0000  0.0000  0.0000  0.0000  0.0000 </r>
       </set>
       <set comment="band 2">
        <r>  0.1693  0.0000  0.0000  0.0852  0.0000  0.0000  0.0000  0.0000  0.0000 </r>
        <r>  0.1693  0.0000  0.0000  0.0852  0.0000  0.0000  0.0000  0.0000  0.0000 </r>
       </set>
       <set comment="band 3">
        <r>  0.0000  0.0990  0.0990  0.0000  0.0000  0.0000  0.0000  0.0000  0.0000 </r>
        <r>  0.0000  0.0990  0.0990  0.0000  0.0000  0.0000  0.0000  0.0000  0.0000 </r>
       </set>
       <set comment="band 4">
        <r>  0.0000  0.0994  0.0994  0.0000  0.0000  0.0000  0.0000  0.0000  0.0000 </r>
        <r>  0.0000  0.0994  0.0994  0.0000  0.0000  0.0000  0.0000  0.0000  0.0000 </r>
       </set>
       <set comment="band 5">
        <r>  0.0488  0.0000  0.0000  0.0631  0.0000  0.0000  0.0000  0.0000  0.0000 </r>
        <r>  0.0488  0.0000  0.0000  0.0631  0.0000  0.0000  0.0000  0.0000  0.0000 </r>
       </set>
       <set comment="band 6">
        <r>  0.0437  0.0000  0.0000  0.0320  0.0000  0.0000  0.0000  0.0000  0.0000 </r>
        <r>  0.0437  0.0000  0.0000  0.0320  0.0000  0.0000  0.0000  0.0000  0.0000 </r>
       </set>
       <set comment="band 7">
        <r>  0.0001  0.0828  0.0827  0.0001  0.0000  0.0000  0.0000  0.0000  0.0000 </r>
        <r>  0.0001  0.0827  0.0828  0.0001  0.0000  0.0000  0.0000  0.0000  0.0000 </r>
       </set>
       <set comment="band 8">
        <r>  0.0000  0.0832  0.0833  0.0000  0.0000  0.0000  0.0000  0.0000  0.0000 </r>
        <r>  0.0000  0.0833  0.0832  0.0000  0.0000  0.0000  0.0000  0.0000  0.0000 </r>
       </set>
      </set>
      <set comment="kpoint 17">
       <set comment="band 1">
        <r>  0.2060  0.0000  0.0000  0.0165  0.0000  0.0000  0.0000  0.0000  0.0000 </r>
        <r>  0.2060  0.0000  0.0000  0.0165  0.0000  0.0000  0.0000  0.0000  0.0000 </r>
       </set>
       <set comment="band 2">
        <r>  0.1666  0.0000  0.0000  0.0884  0.0000  0.0000  0.0000  0.0000  0.0000 </r>
        <r>  0.1666  0.0000  0.0000  0.0884  0.0000  0.0000  0.0000  0.0000  0.0000 </r>
       </set>
       <set comment="band 3">
        <r>  0.0000  0.0991  0.0991  0.0000  0.0000  0.0000  0.0000  0.0000  0.0000 </r>
        <r>  0.0000  0.0991  0.0991  0.0000  0.0000  0.0000  0.0000  0.0000  0.0000 </r>
       </set>
       <set comment="band 4">
        <r>  0.0000  0.0995  0.0995  0.0000  0.0000  0.0000  0.0000  0.0000  0.0000 </r>
        <r>  0.0000  0.0995  0.0995  0.0000  0.0000  0.0000  0.0000  0.0000  0.0000 </r>
       </set>
       <set comment="band 5">
        <r>  0.0477  0.0000  0.0000  0.0660  0.0000  0.0000  0.0000  0.0000  0.0000 </r>
        <r>  0.0477  0.0000  0.0000  0.0660  0.0000  0.0000  0.0000  0.0000  0.0000 </r>
       </set>
       <set comment="band 6">
        <r>  0.0440  0.0000  0.0000  0.0329  0.0000  0.0000  0.0000  0.0000  0.0000 </r>
        <r>  0.0440  0.0000  0.0000  0.0329  0.0000  0.0000  0.0000  0.0000  0.0000 </r>
       </set>
       <set comment="band 7">
        <r>  0.0001  0.0828  0.0828  0.0001  0.0000  0.0000  0.0000  0.0000  0.0000 </r>
        <r>  0.0001  0.0828  0.0828  0.0001  0.0000  0.0000  0.0000  0.0000  0.0000 </r>
       </set>
       <set comment="band 8">
        <r>  0.0000  0.0834  0.0834  0.0000  0.0000  0.0000  0.0000  0.0000  0.0000 </r>
        <r>  0.0000  0.0834  0.0834  0.0000  0.0000  0.0000  0.0000  0.0000  0.0000 </r>
       </set>
      </set>
      <set comment="kpoint 18">
       <set comment="band 1">
        <r>  0.2066  0.0000  0.0000  0.0151  0.0000  0.0000  0.0000  0.0000  0.0000 </r>
        <r>  0.2066  0.0000  0.0000  0.0151  0.0000  0.0000  0.0000  0.0000  0.0000 </r>
       </set>
       <set comment="band 2">
        <r>  0.1636  0.0000  0.0000  0.0916  0.0000  0.0000  0.0000  0.0000  0.0000 </r>
        <r>  0.1636  0.0000  0.0000  0.0916  0.0000  0.0000  0.0000  0.0000  0.0000 </r>
       </set>
       <set comment="band 3">
        <r>  0.0000  0.0991  0.0991  0.0000  0.0000  0.0000  0.0000  0.0000  0.0000 </r>
        <r>  0.0000  0.0991  0.0991  0.0000  0.0000  0.0000  0.0000  0.0000  0.0000 </r>
       </set>
       <set comment="band 4">
        <r>  0.0000  0.0996  0.0996  0.0000  0.0000  0.0000  0.0000  0.0000  0.0000 </r>
        <r>  0.0000  0.0996  0.0996  0.0000  0.0000  0.0000  0.0000  0.0000  0.0000 </r>
       </set>
       <set comment="band 5">
        <r>  0.0465  0.0000  0.0000  0.0689  0.0000  0.0000  0.0000  0.0000  0.0000 </r>
        <r>  0.0465  0.0000  0.0000  0.0689  0.0000  0.0000  0.0000  0.0000  0.0000 </r>
       </set>
       <set comment="band 6">
        <r>  0.0447  0.0000  0.0000  0.0340  0.0000  0.0000  0.0000  0.0000  0.0000 </r>
        <r>  0.0447  0.0000  0.0000  0.0340  0.0000  0.0000  0.0000  0.0000  0.0000 </r>
       </set>
       <set comment="band 7">
        <r>  0.0001  0.0829  0.0829  0.0001  0.0000  0.0000  0.0000  0.0000  0.0000 </r>
        <r>  0.0001  0.0829  0.0829  0.0001  0.0000  0.0000  0.0000  0.0000  0.0000 </r>
       </set>
       <set comment="band 8">
        <r>  0.0000  0.0835  0.0835  0.0000  0.0000  0.0000  0.0000  0.0000  0.0000 </r>
        <r>  0.0000  0.0835  0.0835  0.0000  0.0000  0.0000  0.0000  0.0000  0.0000 </r>
       </set>
      </set>
      <set comment="kpoint 19">
       <set comment="band 1">
        <r>  0.2071  0.0000  0.0000  0.0138  0.0000  0.0000  0.0000  0.0000  0.0000 </r>
        <r>  0.2071  0.0000  0.0000  0.0138  0.0000  0.0000  0.0000  0.0000  0.0000 </r>
       </set>
       <set comment="band 2">
        <r>  0.1604  0.0000  0.0000  0.0951  0.0000  0.0000  0.0000  0.0000  0.0000 </r>
        <r>  0.1604  0.0000  0.0000  0.0951  0.0000  0.0000  0.0000  0.0000  0.0000 </r>
       </set>
       <set comment="band 3">
        <r>  0.0000  0.0992  0.0992  0.0000  0.0000  0.0000  0.0000  0.0000  0.0000 </r>
        <r>  0.0000  0.0992  0.0992  0.0000  0.0000  0.0000  0.0000  0.0000  0.0000 </r>
       </set>
       <set comment="band 4">
        <r>  0.0000  0.0996  0.0996  0.0000  0.0000  0.0000  0.0000  0.0000  0.0000 </r>
        <r>  0.0000  0.0996  0.0996  0.0000  0.0000  0.0000  0.0000  0.0000  0.0000 </r>
       </set>
       <set comment="band 5">
        <r>  0.0452  0.0000  0.0000  0.0721  0.0000  0.0000  0.0000  0.0000  0.0000 </r>
        <r>  0.0452  0.0000  0.0000  0.0721  0.0000  0.0000  0.0000  0.0000  0.0000 </r>
       </set>
       <set comment="band 6">
        <r>  0.0459  0.0000  0.0000  0.0353  0.0000  0.0000  0.0000  0.0000  0.0000 </r>
        <r>  0.0459  0.0000  0.0000  0.0353  0.0000  0.0000  0.0000  0.0000  0.0000 </r>
       </set>
       <set comment="band 7">
        <r>  0.0001  0.0830  0.0830  0.0001  0.0000  0.0000  0.0000  0.0000  0.0000 </r>
        <r>  0.0001  0.0830  0.0830  0.0001  0.0000  0.0000  0.0000  0.0000  0.0000 </r>
       </set>
       <set comment="band 8">
        <r>  0.0000  0.0835  0.0836  0.0000  0.0000  0.0000  0.0000  0.0000  0.0000 </r>
        <r>  0.0000  0.0836  0.0836  0.0000  0.0000  0.0000  0.0000  0.0000  0.0000 </r>
       </set>
      </set>
      <set comment="kpoint 20">
       <set comment="band 1">
        <r>  0.2077  0.0000  0.0000  0.0125  0.0000  0.0000  0.0000  0.0000  0.0000 </r>
        <r>  0.2077  0.0000  0.0000  0.0125  0.0000  0.0000  0.0000  0.0000  0.0000 </r>
       </set>
       <set comment="band 2">
        <r>  0.1569  0.0000  0.0000  0.0986  0.0000  0.0000  0.0000  0.0000  0.0000 </r>
        <r>  0.1569  0.0000  0.0000  0.0986  0.0000  0.0000  0.0000  0.0000  0.0000 </r>
       </set>
       <set comment="band 3">
        <r>  0.0000  0.0993  0.0993  0.0000  0.0000  0.0000  0.0000  0.0000  0.0000 </r>
        <r>  0.0000  0.0993  0.0993  0.0000  0.0000  0.0000  0.0000  0.0000  0.0000 </r>
       </set>
       <set comment="band 4">
        <r>  0.0000  0.0997  0.0997  0.0000  0.0000  0.0000  0.0000  0.0000  0.0000 </r>
        <r>  0.0000  0.0997  0.0997  0.0000  0.0000  0.0000  0.0000  0.0000  0.0000 </r>
       </set>
       <set comment="band 5">
        <r>  0.0437  0.0000  0.0000  0.0753  0.0000  0.0000  0.0000  0.0000  0.0000 </r>
        <r>  0.0437  0.0000  0.0000  0.0753  0.0000  0.0000  0.0000  0.0000  0.0000 </r>
       </set>
       <set comment="band 6">
        <r>  0.0477  0.0000  0.0000  0.0369  0.0000  0.0000  0.0000  0.0000  0.0000 </r>
        <r>  0.0477  0.0000  0.0000  0.0369  0.0000  0.0000  0.0000  0.0000  0.0000 </r>
       </set>
       <set comment="band 7">
        <r>  0.0001  0.0830  0.0830  0.0000  0.0000  0.0000  0.0000  0.0000  0.0000 </r>
        <r>  0.0001  0.0830  0.0830  0.0000  0.0000  0.0000  0.0000  0.0000  0.0000 </r>
       </set>
       <set comment="band 8">
        <r>  0.0000  0.0835  0.0836  0.0000  0.0000  0.0000  0.0000  0.0000  0.0000 </r>
        <r>  0.0000  0.0836  0.0835  0.0000  0.0000  0.0000  0.0000  0.0000  0.0000 </r>
       </set>
      </set>
      <set comment="kpoint 21">
       <set comment="band 1">
        <r>  0.2082  0.0000  0.0000  0.0113  0.0000  0.0000  0.0000  0.0000  0.0000 </r>
        <r>  0.2082  0.0000  0.0000  0.0113  0.0000  0.0000  0.0000  0.0000  0.0000 </r>
       </set>
       <set comment="band 2">
        <r>  0.1531  0.0000  0.0000  0.1022  0.0000  0.0000  0.0000  0.0000  0.0000 </r>
        <r>  0.1531  0.0000  0.0000  0.1022  0.0000  0.0000  0.0000  0.0000  0.0000 </r>
       </set>
       <set comment="band 3">
        <r>  0.0000  0.0994  0.0994  0.0000  0.0000  0.0000  0.0000  0.0000  0.0000 </r>
        <r>  0.0000  0.0994  0.0994  0.0000  0.0000  0.0000  0.0000  0.0000  0.0000 </r>
       </set>
       <set comment="band 4">
        <r>  0.0000  0.0998  0.0998  0.0000  0.0000  0.0000  0.0000  0.0000  0.0000 </r>
        <r>  0.0000  0.0998  0.0998  0.0000  0.0000  0.0000  0.0000  0.0000  0.0000 </r>
       </set>
       <set comment="band 5">
        <r>  0.0421  0.0000  0.0000  0.0788  0.0000  0.0000  0.0000  0.0000  0.0000 </r>
        <r>  0.0421  0.0000  0.0000  0.0788  0.0000  0.0000  0.0000  0.0000  0.0000 </r>
       </set>
       <set comment="band 6">
        <r>  0.0504  0.0000  0.0000  0.0389  0.0000  0.0000  0.0000  0.0000  0.0000 </r>
        <r>  0.0504  0.0000  0.0000  0.0389  0.0000  0.0000  0.0000  0.0000  0.0000 </r>
       </set>
       <set comment="band 7">
        <r>  0.0001  0.0831  0.0831  0.0000  0.0000  0.0000  0.0000  0.0000  0.0000 </r>
        <r>  0.0001  0.0831  0.0831  0.0000  0.0000  0.0000  0.0000  0.0000  0.0000 </r>
       </set>
       <set comment="band 8">
        <r>  0.0000  0.0836  0.0836  0.0000  0.0000  0.0000  0.0000  0.0000  0.0000 </r>
        <r>  0.0000  0.0836  0.0836  0.0000  0.0000  0.0000  0.0000  0.0000  0.0000 </r>
       </set>
      </set>
      <set comment="kpoint 22">
       <set comment="band 1">
        <r>  0.2087  0.0000  0.0000  0.0102  0.0000  0.0000  0.0000  0.0000  0.0000 </r>
        <r>  0.2087  0.0000  0.0000  0.0102  0.0000  0.0000  0.0000  0.0000  0.0000 </r>
       </set>
       <set comment="band 2">
        <r>  0.1489  0.0000  0.0000  0.1061  0.0000  0.0000  0.0000  0.0000  0.0000 </r>
        <r>  0.1489  0.0000  0.0000  0.1061  0.0000  0.0000  0.0000  0.0000  0.0000 </r>
       </set>
       <set comment="band 3">
        <r>  0.0000  0.0995  0.0995  0.0000  0.0000  0.0000  0.0000  0.0000  0.0000 </r>
        <r>  0.0000  0.0995  0.0995  0.0000  0.0000  0.0000  0.0000  0.0000  0.0000 </r>
       </set>
       <set comment="band 4">
        <r>  0.0000  0.1000  0.1000  0.0000  0.0000  0.0000  0.0000  0.0000  0.0000 </r>
        <r>  0.0000  0.1000  0.1000  0.0000  0.0000  0.0000  0.0000  0.0000  0.0000 </r>
       </set>
       <set comment="band 5">
        <r>  0.0403  0.0000  0.0000  0.0824  0.0000  0.0000  0.0000  0.0000  0.0000 </r>
        <r>  0.0403  0.0000  0.0000  0.0824  0.0000  0.0000  0.0000  0.0000  0.0000 </r>
       </set>
       <set comment="band 6">
        <r>  0.0543  0.0000  0.0000  0.0414  0.0000  0.0000  0.0000  0.0000  0.0000 </r>
        <r>  0.0543  0.0000  0.0000  0.0414  0.0000  0.0000  0.0000  0.0000  0.0000 </r>
       </set>
       <set comment="band 7">
        <r>  0.0001  0.0831  0.0831  0.0000  0.0000  0.0000  0.0000  0.0000  0.0000 </r>
        <r>  0.0001  0.0831  0.0831  0.0000  0.0000  0.0000  0.0000  0.0000  0.0000 </r>
       </set>
       <set comment="band 8">
        <r>  0.0000  0.0836  0.0836  0.0000  0.0000  0.0000  0.0000  0.0000  0.0000 </r>
        <r>  0.0000  0.0836  0.0836  0.0000  0.0000  0.0000  0.0000  0.0000  0.0000 </r>
       </set>
      </set>
      <set comment="kpoint 23">
       <set comment="band 1">
        <r>  0.2092  0.0000  0.0000  0.0091  0.0000  0.0000  0.0000  0.0000  0.0000 </r>
        <r>  0.2092  0.0000  0.0000  0.0091  0.0000  0.0000  0.0000  0.0000  0.0000 </r>
       </set>
       <set comment="band 2">
        <r>  0.1444  0.0000  0.0000  0.1101  0.0000  0.0000  0.0000  0.0000  0.0000 </r>
        <r>  0.1444  0.0000  0.0000  0.1101  0.0000  0.0000  0.0000  0.0000  0.0000 </r>
       </set>
       <set comment="band 3">
        <r>  0.0000  0.0997  0.0997  0.0000  0.0000  0.0000  0.0000  0.0000  0.0000 </r>
        <r>  0.0000  0.0997  0.0997  0.0000  0.0000  0.0000  0.0000  0.0000  0.0000 </r>
       </set>
       <set comment="band 4">
        <r>  0.0000  0.1001  0.1001  0.0000  0.0000  0.0000  0.0000  0.0000  0.0000 </r>
        <r>  0.0000  0.1001  0.1001  0.0000  0.0000  0.0000  0.0000  0.0000  0.0000 </r>
       </set>
       <set comment="band 5">
        <r>  0.0384  0.0000  0.0000  0.0862  0.0000  0.0000  0.0000  0.0000  0.0000 </r>
        <r>  0.0384  0.0000  0.0000  0.0862  0.0000  0.0000  0.0000  0.0000  0.0000 </r>
       </set>
       <set comment="band 6">
        <r>  0.0598  0.0000  0.0000  0.0444  0.0000  0.0000  0.0000  0.0000  0.0000 </r>
        <r>  0.0598  0.0000  0.0000  0.0444  0.0000  0.0000  0.0000  0.0000  0.0000 </r>
       </set>
       <set comment="band 7">
        <r>  0.0001  0.0832  0.0831  0.0000  0.0000  0.0000  0.0000  0.0000  0.0000 </r>
        <r>  0.0001  0.0831  0.0831  0.0000  0.0000  0.0000  0.0000  0.0000  0.0000 </r>
       </set>
       <set comment="band 8">
        <r>  0.0000  0.0836  0.0836  0.0000  0.0000  0.0000  0.0000  0.0000  0.0000 </r>
        <r>  0.0000  0.0836  0.0836  0.0000  0.0000  0.0000  0.0000  0.0000  0.0000 </r>
       </set>
      </set>
      <set comment="kpoint 24">
       <set comment="band 1">
        <r>  0.2097  0.0000  0.0000  0.0081  0.0000  0.0000  0.0000  0.0000  0.0000 </r>
        <r>  0.2097  0.0000  0.0000  0.0081  0.0000  0.0000  0.0000  0.0000  0.0000 </r>
       </set>
       <set comment="band 2">
        <r>  0.1395  0.0000  0.0000  0.1144  0.0000  0.0000  0.0000  0.0000  0.0000 </r>
        <r>  0.1395  0.0000  0.0000  0.1144  0.0000  0.0000  0.0000  0.0000  0.0000 </r>
       </set>
       <set comment="band 3">
        <r>  0.0000  0.0999  0.0999  0.0000  0.0000  0.0000  0.0000  0.0000  0.0000 </r>
        <r>  0.0000  0.0999  0.0999  0.0000  0.0000  0.0000  0.0000  0.0000  0.0000 </r>
       </set>
       <set comment="band 4">
        <r>  0.0000  0.1003  0.1003  0.0000  0.0000  0.0000  0.0000  0.0000  0.0000 </r>
        <r>  0.0000  0.1003  0.1003  0.0000  0.0000  0.0000  0.0000  0.0000  0.0000 </r>
       </set>
       <set comment="band 5">
        <r>  0.0363  0.0000  0.0000  0.0902  0.0000  0.0000  0.0000  0.0000  0.0000 </r>
        <r>  0.0363  0.0000  0.0000  0.0902  0.0000  0.0000  0.0000  0.0000  0.0000 </r>
       </set>
       <set comment="band 6">
        <r>  0.0676  0.0000  0.0000  0.0481  0.0000  0.0000  0.0000  0.0000  0.0000 </r>
        <r>  0.0676  0.0000  0.0000  0.0481  0.0000  0.0000  0.0000  0.0000  0.0000 </r>
       </set>
       <set comment="band 7">
        <r>  0.0000  0.0831  0.0831  0.0000  0.0000  0.0000  0.0000  0.0000  0.0000 </r>
        <r>  0.0000  0.0831  0.0831  0.0000  0.0000  0.0000  0.0000  0.0000  0.0000 </r>
       </set>
       <set comment="band 8">
        <r>  0.0000  0.0836  0.0836  0.0000  0.0000  0.0000  0.0000  0.0000  0.0000 </r>
        <r>  0.0000  0.0836  0.0836  0.0000  0.0000  0.0000  0.0000  0.0000  0.0000 </r>
       </set>
      </set>
      <set comment="kpoint 25">
       <set comment="band 1">
        <r>  0.2101  0.0000  0.0000  0.0071  0.0000  0.0000  0.0000  0.0000  0.0000 </r>
        <r>  0.2101  0.0000  0.0000  0.0071  0.0000  0.0000  0.0000  0.0000  0.0000 </r>
       </set>
       <set comment="band 2">
        <r>  0.1341  0.0000  0.0000  0.1189  0.0000  0.0000  0.0000  0.0000  0.0000 </r>
        <r>  0.1341  0.0000  0.0000  0.1189  0.0000  0.0000  0.0000  0.0000  0.0000 </r>
       </set>
       <set comment="band 3">
        <r>  0.0000  0.1001  0.1001  0.0000  0.0000  0.0000  0.0000  0.0000  0.0000 </r>
        <r>  0.0000  0.1001  0.1001  0.0000  0.0000  0.0000  0.0000  0.0000  0.0000 </r>
       </set>
       <set comment="band 4">
        <r>  0.0000  0.1005  0.1005  0.0000  0.0000  0.0000  0.0000  0.0000  0.0000 </r>
        <r>  0.0000  0.1005  0.1005  0.0000  0.0000  0.0000  0.0000  0.0000  0.0000 </r>
       </set>
       <set comment="band 5">
        <r>  0.0341  0.0000  0.0000  0.0943  0.0000  0.0000  0.0000  0.0000  0.0000 </r>
        <r>  0.0341  0.0000  0.0000  0.0943  0.0000  0.0000  0.0000  0.0000  0.0000 </r>
       </set>
       <set comment="band 6">
        <r>  0.0788  0.0001  0.0001  0.0527  0.0000  0.0000  0.0000  0.0000  0.0000 </r>
        <r>  0.0788  0.0001  0.0001  0.0527  0.0000  0.0000  0.0000  0.0000  0.0000 </r>
       </set>
       <set comment="band 7">
        <r>  0.0000  0.0829  0.0829  0.0000  0.0000  0.0000  0.0000  0.0000  0.0000 </r>
        <r>  0.0000  0.0829  0.0829  0.0000  0.0000  0.0000  0.0000  0.0000  0.0000 </r>
       </set>
       <set comment="band 8">
        <r>  0.0000  0.0835  0.0835  0.0000  0.0000  0.0000  0.0000  0.0000  0.0000 </r>
        <r>  0.0000  0.0835  0.0835  0.0000  0.0000  0.0000  0.0000  0.0000  0.0000 </r>
       </set>
      </set>
      <set comment="kpoint 26">
       <set comment="band 1">
        <r>  0.2105  0.0000  0.0000  0.0062  0.0000  0.0000  0.0000  0.0000  0.0000 </r>
        <r>  0.2105  0.0000  0.0000  0.0062  0.0000  0.0000  0.0000  0.0000  0.0000 </r>
       </set>
       <set comment="band 2">
        <r>  0.1283  0.0000  0.0000  0.1236  0.0000  0.0000  0.0000  0.0000  0.0000 </r>
        <r>  0.1283  0.0000  0.0000  0.1236  0.0000  0.0000  0.0000  0.0000  0.0000 </r>
       </set>
       <set comment="band 3">
        <r>  0.0000  0.1003  0.1003  0.0001  0.0000  0.0000  0.0000  0.0000  0.0000 </r>
        <r>  0.0000  0.1003  0.1003  0.0001  0.0000  0.0000  0.0000  0.0000  0.0000 </r>
       </set>
       <set comment="band 4">
        <r>  0.0000  0.1008  0.1008  0.0000  0.0000  0.0000  0.0000  0.0000  0.0000 </r>
        <r>  0.0000  0.1008  0.1008  0.0000  0.0000  0.0000  0.0000  0.0000  0.0000 </r>
       </set>
       <set comment="band 5">
        <r>  0.0317  0.0000  0.0000  0.0986  0.0000  0.0000  0.0000  0.0000  0.0000 </r>
        <r>  0.0317  0.0000  0.0000  0.0986  0.0000  0.0000  0.0000  0.0000  0.0000 </r>
       </set>
       <set comment="band 6">
        <r>  0.0943  0.0006  0.0006  0.0579  0.0000  0.0000  0.0000  0.0000  0.0000 </r>
        <r>  0.0943  0.0006  0.0006  0.0579  0.0000  0.0000  0.0000  0.0000  0.0000 </r>
       </set>
       <set comment="band 7">
        <r>  0.0003  0.0823  0.0823  0.0003  0.0000  0.0000  0.0000  0.0000  0.0000 </r>
        <r>  0.0003  0.0823  0.0823  0.0003  0.0000  0.0000  0.0000  0.0000  0.0000 </r>
       </set>
       <set comment="band 8">
        <r>  0.0000  0.0834  0.0834  0.0000  0.0000  0.0000  0.0000  0.0000  0.0000 </r>
        <r>  0.0000  0.0834  0.0834  0.0000  0.0000  0.0000  0.0000  0.0000  0.0000 </r>
       </set>
      </set>
      <set comment="kpoint 27">
       <set comment="band 1">
        <r>  0.2109  0.0000  0.0000  0.0053  0.0000  0.0000  0.0000  0.0000  0.0000 </r>
        <r>  0.2109  0.0000  0.0000  0.0053  0.0000  0.0000  0.0000  0.0000  0.0000 </r>
       </set>
       <set comment="band 2">
        <r>  0.1218  0.0001  0.0001  0.1288  0.0000  0.0000  0.0000  0.0000  0.0000 </r>
        <r>  0.1218  0.0001  0.0001  0.1288  0.0000  0.0000  0.0000  0.0000  0.0000 </r>
       </set>
       <set comment="band 3">
        <r>  0.0001  0.1006  0.1006  0.0001  0.0000  0.0000  0.0000  0.0000  0.0000 </r>
        <r>  0.0001  0.1006  0.1006  0.0001  0.0000  0.0000  0.0000  0.0000  0.0000 </r>
       </set>
       <set comment="band 4">
        <r>  0.0000  0.1011  0.1011  0.0000  0.0000  0.0000  0.0000  0.0000  0.0000 </r>
        <r>  0.0000  0.1011  0.1011  0.0000  0.0000  0.0000  0.0000  0.0000  0.0000 </r>
       </set>
       <set comment="band 5">
        <r>  0.0293  0.0000  0.0000  0.1031  0.0000  0.0000  0.0000  0.0000  0.0000 </r>
        <r>  0.0293  0.0000  0.0000  0.1031  0.0000  0.0000  0.0000  0.0000  0.0000 </r>
       </set>
       <set comment="band 6">
        <r>  0.0805  0.0272  0.0272  0.0442  0.0000  0.0000  0.0000  0.0000  0.0000 </r>
        <r>  0.0805  0.0272  0.0272  0.0442  0.0000  0.0000  0.0000  0.0000  0.0000 </r>
       </set>
       <set comment="band 7">
        <r>  0.0362  0.0555  0.0555  0.0205  0.0000  0.0000  0.0000  0.0000  0.0000 </r>
        <r>  0.0362  0.0555  0.0555  0.0205  0.0000  0.0000  0.0000  0.0000  0.0000 </r>
       </set>
       <set comment="band 8">
        <r>  0.0000  0.0832  0.0832  0.0000  0.0000  0.0000  0.0000  0.0000  0.0000 </r>
        <r>  0.0000  0.0832  0.0831  0.0000  0.0000  0.0000  0.0000  0.0000  0.0000 </r>
       </set>
      </set>
      <set comment="kpoint 28">
       <set comment="band 1">
        <r>  0.2113  0.0000  0.0000  0.0046  0.0000  0.0000  0.0000  0.0000  0.0000 </r>
        <r>  0.2113  0.0000  0.0000  0.0046  0.0000  0.0000  0.0000  0.0000  0.0000 </r>
       </set>
       <set comment="band 2">
        <r>  0.1148  0.0001  0.0001  0.1343  0.0000  0.0000  0.0000  0.0000  0.0000 </r>
        <r>  0.1148  0.0001  0.0001  0.1343  0.0000  0.0000  0.0000  0.0000  0.0000 </r>
       </set>
       <set comment="band 3">
        <r>  0.0001  0.1009  0.1009  0.0001  0.0000  0.0000  0.0000  0.0000  0.0000 </r>
        <r>  0.0001  0.1009  0.1009  0.0001  0.0000  0.0000  0.0000  0.0000  0.0000 </r>
       </set>
       <set comment="band 4">
        <r>  0.0000  0.1014  0.1014  0.0000  0.0000  0.0000  0.0000  0.0000  0.0000 </r>
        <r>  0.0000  0.1014  0.1014  0.0000  0.0000  0.0000  0.0000  0.0000  0.0000 </r>
       </set>
       <set comment="band 5">
        <r>  0.0266  0.0000  0.0000  0.1076  0.0000  0.0000  0.0000  0.0000  0.0000 </r>
        <r>  0.0266  0.0000  0.0000  0.1076  0.0000  0.0000  0.0000  0.0000  0.0000 </r>
       </set>
       <set comment="band 6">
        <r>  0.0039  0.0805  0.0805  0.0018  0.0000  0.0000  0.0000  0.0000  0.0000 </r>
        <r>  0.0039  0.0805  0.0805  0.0018  0.0000  0.0000  0.0000  0.0000  0.0000 </r>
       </set>
       <set comment="band 7">
        <r>  0.0000  0.0829  0.0829  0.0000  0.0000  0.0000  0.0000  0.0000  0.0000 </r>
        <r>  0.0000  0.0829  0.0829  0.0000  0.0000  0.0000  0.0000  0.0000  0.0000 </r>
       </set>
       <set comment="band 8">
        <r>  0.1415  0.0019  0.0019  0.0693  0.0000  0.0000  0.0000  0.0000  0.0000 </r>
        <r>  0.1415  0.0019  0.0019  0.0693  0.0000  0.0000  0.0000  0.0000  0.0000 </r>
       </set>
      </set>
      <set comment="kpoint 29">
       <set comment="band 1">
        <r>  0.2116  0.0000  0.0000  0.0038  0.0000  0.0000  0.0000  0.0000  0.0000 </r>
        <r>  0.2116  0.0000  0.0000  0.0038  0.0000  0.0000  0.0000  0.0000  0.0000 </r>
       </set>
       <set comment="band 2">
        <r>  0.1071  0.0001  0.0001  0.1401  0.0000  0.0000  0.0000  0.0000  0.0000 </r>
        <r>  0.1071  0.0001  0.0001  0.1401  0.0000  0.0000  0.0000  0.0000  0.0000 </r>
       </set>
       <set comment="band 3">
        <r>  0.0001  0.1013  0.1013  0.0002  0.0000  0.0000  0.0000  0.0000  0.0000 </r>
        <r>  0.0001  0.1013  0.1013  0.0002  0.0000  0.0000  0.0000  0.0000  0.0000 </r>
       </set>
       <set comment="band 4">
        <r>  0.0000  0.1018  0.1018  0.0000  0.0000  0.0000  0.0000  0.0000  0.0000 </r>
        <r>  0.0000  0.1018  0.1018  0.0000  0.0000  0.0000  0.0000  0.0000  0.0000 </r>
       </set>
       <set comment="band 5">
        <r>  0.0239  0.0000  0.0000  0.1123  0.0000  0.0000  0.0000  0.0000  0.0000 </r>
        <r>  0.0239  0.0000  0.0000  0.1123  0.0000  0.0000  0.0000  0.0000  0.0000 </r>
       </set>
       <set comment="band 6">
        <r>  0.0018  0.0814  0.0814  0.0007  0.0000  0.0000  0.0000  0.0000  0.0000 </r>
        <r>  0.0018  0.0814  0.0814  0.0007  0.0000  0.0000  0.0000  0.0000  0.0000 </r>
       </set>
       <set comment="band 7">
        <r>  0.0000  0.0825  0.0825  0.0000  0.0000  0.0000  0.0000  0.0000  0.0000 </r>
        <r>  0.0000  0.0825  0.0825  0.0000  0.0000  0.0000  0.0000  0.0000  0.0000 </r>
       </set>
       <set comment="band 8">
        <r>  0.1770  0.0007  0.0007  0.0744  0.0000  0.0000  0.0000  0.0000  0.0000 </r>
        <r>  0.1769  0.0007  0.0007  0.0744  0.0000  0.0000  0.0000  0.0000  0.0000 </r>
       </set>
      </set>
      <set comment="kpoint 30">
       <set comment="band 1">
        <r>  0.2119  0.0000  0.0000  0.0032  0.0000  0.0000  0.0000  0.0000  0.0000 </r>
        <r>  0.2119  0.0000  0.0000  0.0032  0.0000  0.0000  0.0000  0.0000  0.0000 </r>
       </set>
       <set comment="band 2">
        <r>  0.0986  0.0002  0.0002  0.1463  0.0000  0.0000  0.0000  0.0000  0.0000 </r>
        <r>  0.0986  0.0002  0.0002  0.1463  0.0000  0.0000  0.0000  0.0000  0.0000 </r>
       </set>
       <set comment="band 3">
        <r>  0.0002  0.1017  0.1017  0.0003  0.0000  0.0000  0.0000  0.0000  0.0000 </r>
        <r>  0.0002  0.1017  0.1017  0.0003  0.0000  0.0000  0.0000  0.0000  0.0000 </r>
       </set>
       <set comment="band 4">
        <r>  0.0000  0.1023  0.1023  0.0000  0.0000  0.0000  0.0000  0.0000  0.0000 </r>
        <r>  0.0000  0.1023  0.1023  0.0000  0.0000  0.0000  0.0000  0.0000  0.0000 </r>
       </set>
       <set comment="band 5">
        <r>  0.0211  0.0000  0.0000  0.1171  0.0000  0.0000  0.0000  0.0000  0.0000 </r>
        <r>  0.0211  0.0000  0.0000  0.1171  0.0000  0.0000  0.0000  0.0000  0.0000 </r>
       </set>
       <set comment="band 6">
        <r>  0.0014  0.0812  0.0812  0.0004  0.0000  0.0000  0.0000  0.0000  0.0000 </r>
        <r>  0.0014  0.0812  0.0812  0.0004  0.0000  0.0000  0.0000  0.0000  0.0000 </r>
       </set>
       <set comment="band 7">
        <r>  0.0000  0.0821  0.0821  0.0000  0.0000  0.0000  0.0000  0.0000  0.0000 </r>
        <r>  0.0000  0.0821  0.0821  0.0000  0.0000  0.0000  0.0000  0.0000  0.0000 </r>
       </set>
       <set comment="band 8">
        <r>  0.2101  0.0005  0.0005  0.0747  0.0000  0.0000  0.0000  0.0000  0.0000 </r>
        <r>  0.2101  0.0005  0.0005  0.0747  0.0000  0.0000  0.0000  0.0000  0.0000 </r>
       </set>
      </set>
      <set comment="kpoint 31">
       <set comment="band 1">
        <r>  0.2122  0.0000  0.0000  0.0026  0.0000  0.0000  0.0000  0.0000  0.0000 </r>
        <r>  0.2122  0.0000  0.0000  0.0026  0.0000  0.0000  0.0000  0.0000  0.0000 </r>
       </set>
       <set comment="band 2">
        <r>  0.0892  0.0003  0.0003  0.1530  0.0000  0.0000  0.0000  0.0000  0.0000 </r>
        <r>  0.0892  0.0003  0.0003  0.1530  0.0000  0.0000  0.0000  0.0000  0.0000 </r>
       </set>
       <set comment="band 3">
        <r>  0.0002  0.1021  0.1021  0.0005  0.0000  0.0000  0.0000  0.0000  0.0000 </r>
        <r>  0.0002  0.1021  0.1021  0.0005  0.0000  0.0000  0.0000  0.0000  0.0000 </r>
       </set>
       <set comment="band 4">
        <r>  0.0000  0.1028  0.1028  0.0000  0.0000  0.0000  0.0000  0.0000  0.0000 </r>
        <r>  0.0000  0.1028  0.1028  0.0000  0.0000  0.0000  0.0000  0.0000  0.0000 </r>
       </set>
       <set comment="band 5">
        <r>  0.0182  0.0000  0.0000  0.1218  0.0000  0.0000  0.0000  0.0000  0.0000 </r>
        <r>  0.0182  0.0000  0.0000  0.1218  0.0000  0.0000  0.0000  0.0000  0.0000 </r>
       </set>
       <set comment="band 6">
        <r>  0.0012  0.0807  0.0807  0.0003  0.0000  0.0000  0.0000  0.0000  0.0000 </r>
        <r>  0.0012  0.0807  0.0807  0.0003  0.0000  0.0000  0.0000  0.0000  0.0000 </r>
       </set>
       <set comment="band 7">
        <r>  0.0000  0.0816  0.0816  0.0000  0.0000  0.0000  0.0000  0.0000  0.0000 </r>
        <r>  0.0000  0.0816  0.0816  0.0000  0.0000  0.0000  0.0000  0.0000  0.0000 </r>
       </set>
       <set comment="band 8">
        <r>  0.2383  0.0004  0.0004  0.0706  0.0000  0.0000  0.0000  0.0000  0.0000 </r>
        <r>  0.2383  0.0004  0.0004  0.0706  0.0000  0.0000  0.0000  0.0000  0.0000 </r>
       </set>
      </set>
      <set comment="kpoint 32">
       <set comment="band 1">
        <r>  0.2125  0.0000  0.0000  0.0020  0.0000  0.0000  0.0000  0.0000  0.0000 </r>
        <r>  0.2125  0.0000  0.0000  0.0020  0.0000  0.0000  0.0000  0.0000  0.0000 </r>
       </set>
       <set comment="band 2">
        <r>  0.0790  0.0005  0.0005  0.1600  0.0000  0.0000  0.0000  0.0000  0.0000 </r>
        <r>  0.0790  0.0005  0.0005  0.1600  0.0000  0.0000  0.0000  0.0000  0.0000 </r>
       </set>
       <set comment="band 3">
        <r>  0.0003  0.1025  0.1025  0.0008  0.0000  0.0000  0.0000  0.0000  0.0000 </r>
        <r>  0.0003  0.1025  0.1025  0.0008  0.0000  0.0000  0.0000  0.0000  0.0000 </r>
       </set>
       <set comment="band 4">
        <r>  0.0000  0.1034  0.1034  0.0000  0.0000  0.0000  0.0000  0.0000  0.0000 </r>
        <r>  0.0000  0.1034  0.1034  0.0000  0.0000  0.0000  0.0000  0.0000  0.0000 </r>
       </set>
       <set comment="band 5">
        <r>  0.0153  0.0000  0.0000  0.1267  0.0000  0.0000  0.0000  0.0000  0.0000 </r>
        <r>  0.0153  0.0000  0.0000  0.1267  0.0000  0.0000  0.0000  0.0000  0.0000 </r>
       </set>
       <set comment="band 6">
        <r>  0.0012  0.0802  0.0802  0.0003  0.0000  0.0000  0.0000  0.0000  0.0000 </r>
        <r>  0.0012  0.0802  0.0802  0.0003  0.0000  0.0000  0.0000  0.0000  0.0000 </r>
       </set>
       <set comment="band 7">
        <r>  0.0000  0.0810  0.0810  0.0000  0.0000  0.0000  0.0000  0.0000  0.0000 </r>
        <r>  0.0000  0.0810  0.0810  0.0000  0.0000  0.0000  0.0000  0.0000  0.0000 </r>
       </set>
       <set comment="band 8">
        <r>  0.2608  0.0004  0.0004  0.0634  0.0000  0.0000  0.0000  0.0000  0.0000 </r>
        <r>  0.2608  0.0004  0.0004  0.0634  0.0000  0.0000  0.0000  0.0000  0.0000 </r>
       </set>
      </set>
      <set comment="kpoint 33">
       <set comment="band 1">
        <r>  0.2127  0.0000  0.0000  0.0016  0.0000  0.0000  0.0000  0.0000  0.0000 </r>
        <r>  0.2127  0.0000  0.0000  0.0016  0.0000  0.0000  0.0000  0.0000  0.0000 </r>
       </set>
       <set comment="band 2">
        <r>  0.0677  0.0008  0.0008  0.1673  0.0000  0.0000  0.0000  0.0000  0.0000 </r>
        <r>  0.0677  0.0008  0.0008  0.1674  0.0000  0.0000  0.0000  0.0000  0.0000 </r>
       </set>
       <set comment="band 3">
        <r>  0.0005  0.1028  0.1028  0.0014  0.0000  0.0000  0.0000  0.0000  0.0000 </r>
        <r>  0.0005  0.1028  0.1028  0.0014  0.0000  0.0000  0.0000  0.0000  0.0000 </r>
       </set>
       <set comment="band 4">
        <r>  0.0000  0.1041  0.1041  0.0000  0.0000  0.0000  0.0000  0.0000  0.0000 </r>
        <r>  0.0000  0.1041  0.1041  0.0000  0.0000  0.0000  0.0000  0.0000  0.0000 </r>
       </set>
       <set comment="band 5">
        <r>  0.0125  0.0000  0.0000  0.1314  0.0000  0.0000  0.0000  0.0000  0.0000 </r>
        <r>  0.0125  0.0000  0.0000  0.1314  0.0000  0.0000  0.0000  0.0000  0.0000 </r>
       </set>
       <set comment="band 6">
        <r>  0.0012  0.0795  0.0795  0.0003  0.0000  0.0000  0.0000  0.0000  0.0000 </r>
        <r>  0.0012  0.0795  0.0795  0.0003  0.0000  0.0000  0.0000  0.0000  0.0000 </r>
       </set>
       <set comment="band 7">
        <r>  0.0000  0.0803  0.0803  0.0000  0.0000  0.0000  0.0000  0.0000  0.0000 </r>
        <r>  0.0000  0.0803  0.0803  0.0000  0.0000  0.0000  0.0000  0.0000  0.0000 </r>
       </set>
       <set comment="band 8">
        <r>  0.2793  0.0003  0.0003  0.0543  0.0000  0.0000  0.0000  0.0000  0.0000 </r>
        <r>  0.2793  0.0003  0.0003  0.0543  0.0000  0.0000  0.0000  0.0000  0.0000 </r>
       </set>
      </set>
      <set comment="kpoint 34">
       <set comment="band 1">
        <r>  0.2129  0.0000  0.0000  0.0011  0.0000  0.0000  0.0000  0.0000  0.0000 </r>
        <r>  0.2129  0.0000  0.0000  0.0011  0.0000  0.0000  0.0000  0.0000  0.0000 </r>
       </set>
       <set comment="band 2">
        <r>  0.0556  0.0015  0.0015  0.1745  0.0000  0.0000  0.0000  0.0000  0.0000 </r>
        <r>  0.0556  0.0015  0.0015  0.1745  0.0000  0.0000  0.0000  0.0000  0.0000 </r>
       </set>
       <set comment="band 3">
        <r>  0.0008  0.1029  0.1029  0.0027  0.0000  0.0000  0.0000  0.0000  0.0000 </r>
        <r>  0.0008  0.1029  0.1029  0.0027  0.0000  0.0000  0.0000  0.0000  0.0000 </r>
       </set>
       <set comment="band 4">
        <r>  0.0000  0.1048  0.1048  0.0000  0.0000  0.0000  0.0000  0.0000  0.0000 </r>
        <r>  0.0000  0.1048  0.1048  0.0000  0.0000  0.0000  0.0000  0.0000  0.0000 </r>
       </set>
       <set comment="band 5">
        <r>  0.0097  0.0001  0.0001  0.1358  0.0000  0.0000  0.0000  0.0000  0.0000 </r>
        <r>  0.0097  0.0001  0.0001  0.1358  0.0000  0.0000  0.0000  0.0000  0.0000 </r>
       </set>
       <set comment="band 6">
        <r>  0.0012  0.0788  0.0788  0.0003  0.0000  0.0000  0.0000  0.0000  0.0000 </r>
        <r>  0.0012  0.0788  0.0788  0.0003  0.0000  0.0000  0.0000  0.0000  0.0000 </r>
       </set>
       <set comment="band 7">
        <r>  0.0000  0.0796  0.0796  0.0000  0.0000  0.0000  0.0000  0.0000  0.0000 </r>
        <r>  0.0000  0.0796  0.0796  0.0000  0.0000  0.0000  0.0000  0.0000  0.0000 </r>
       </set>
       <set comment="band 8">
        <r>  0.2955  0.0003  0.0003  0.0444  0.0000  0.0000  0.0000  0.0000  0.0000 </r>
        <r>  0.2955  0.0003  0.0003  0.0444  0.0000  0.0000  0.0000  0.0000  0.0000 </r>
       </set>
      </set>
      <set comment="kpoint 35">
       <set comment="band 1">
        <r>  0.2131  0.0000  0.0000  0.0008  0.0000  0.0000  0.0000  0.0000  0.0000 </r>
        <r>  0.2131  0.0000  0.0000  0.0008  0.0000  0.0000  0.0000  0.0000  0.0000 </r>
       </set>
       <set comment="band 2">
        <r>  0.0426  0.0031  0.0031  0.1803  0.0000  0.0000  0.0000  0.0000  0.0000 </r>
        <r>  0.0426  0.0031  0.0031  0.1803  0.0000  0.0000  0.0000  0.0000  0.0000 </r>
       </set>
       <set comment="band 3">
        <r>  0.0012  0.1020  0.1020  0.0057  0.0000  0.0000  0.0000  0.0000  0.0000 </r>
        <r>  0.0012  0.1020  0.1020  0.0057  0.0000  0.0000  0.0000  0.0000  0.0000 </r>
       </set>
       <set comment="band 4">
        <r>  0.0000  0.1056  0.1056  0.0000  0.0000  0.0000  0.0000  0.0000  0.0000 </r>
        <r>  0.0000  0.1056  0.1056  0.0000  0.0000  0.0000  0.0000  0.0000  0.0000 </r>
       </set>
       <set comment="band 5">
        <r>  0.0072  0.0002  0.0002  0.1397  0.0000  0.0000  0.0000  0.0000  0.0000 </r>
        <r>  0.0072  0.0002  0.0002  0.1397  0.0000  0.0000  0.0000  0.0000  0.0000 </r>
       </set>
       <set comment="band 6">
        <r>  0.0013  0.0778  0.0778  0.0006  0.0000  0.0000  0.0000  0.0000  0.0000 </r>
        <r>  0.0013  0.0778  0.0778  0.0006  0.0000  0.0000  0.0000  0.0000  0.0000 </r>
       </set>
       <set comment="band 7">
        <r>  0.0000  0.0788  0.0788  0.0000  0.0000  0.0000  0.0000  0.0000  0.0000 </r>
        <r>  0.0000  0.0788  0.0788  0.0000  0.0000  0.0000  0.0000  0.0000  0.0000 </r>
       </set>
       <set comment="band 8">
        <r>  0.3104  0.0003  0.0003  0.0341  0.0000  0.0000  0.0000  0.0000  0.0000 </r>
        <r>  0.3104  0.0003  0.0003  0.0341  0.0000  0.0000  0.0000  0.0000  0.0000 </r>
       </set>
      </set>
      <set comment="kpoint 36">
       <set comment="band 1">
        <r>  0.2132  0.0000  0.0000  0.0005  0.0000  0.0000  0.0000  0.0000  0.0000 </r>
        <r>  0.2132  0.0000  0.0000  0.0005  0.0000  0.0000  0.0000  0.0000  0.0000 </r>
       </set>
       <set comment="band 2">
        <r>  0.0291  0.0074  0.0074  0.1809  0.0000  0.0000  0.0000  0.0000  0.0000 </r>
        <r>  0.0291  0.0074  0.0074  0.1809  0.0000  0.0000  0.0000  0.0000  0.0000 </r>
       </set>
       <set comment="band 3">
        <r>  0.0021  0.0986  0.0986  0.0139  0.0000  0.0000  0.0000  0.0000  0.0000 </r>
        <r>  0.0021  0.0986  0.0986  0.0139  0.0000  0.0000  0.0000  0.0000  0.0000 </r>
       </set>
       <set comment="band 4">
        <r>  0.0000  0.1064  0.1064  0.0000  0.0000  0.0000  0.0000  0.0000  0.0000 </r>
        <r>  0.0000  0.1064  0.1064  0.0000  0.0000  0.0000  0.0000  0.0000  0.0000 </r>
       </set>
       <set comment="band 5">
        <r>  0.0050  0.0006  0.0006  0.1427  0.0000  0.0000  0.0000  0.0000  0.0000 </r>
        <r>  0.0050  0.0006  0.0006  0.1427  0.0000  0.0000  0.0000  0.0000  0.0000 </r>
       </set>
       <set comment="band 6">
        <r>  0.0013  0.0767  0.0767  0.0013  0.0000  0.0000  0.0000  0.0000  0.0000 </r>
        <r>  0.0013  0.0767  0.0767  0.0013  0.0000  0.0000  0.0000  0.0000  0.0000 </r>
       </set>
       <set comment="band 7">
        <r>  0.0000  0.0780  0.0780  0.0000  0.0000  0.0000  0.0000  0.0000  0.0000 </r>
        <r>  0.0000  0.0780  0.0780  0.0000  0.0000  0.0000  0.0000  0.0000  0.0000 </r>
       </set>
       <set comment="band 8">
        <r>  0.3243  0.0003  0.0003  0.0241  0.0000  0.0000  0.0000  0.0000  0.0000 </r>
        <r>  0.3243  0.0003  0.0003  0.0241  0.0000  0.0000  0.0000  0.0000  0.0000 </r>
       </set>
      </set>
      <set comment="kpoint 37">
       <set comment="band 1">
        <r>  0.2133  0.0000  0.0000  0.0003  0.0000  0.0000  0.0000  0.0000  0.0000 </r>
        <r>  0.2133  0.0000  0.0000  0.0003  0.0000  0.0000  0.0000  0.0000  0.0000 </r>
       </set>
       <set comment="band 2">
        <r>  0.0159  0.0195  0.0195  0.1655  0.0000  0.0000  0.0000  0.0000  0.0000 </r>
        <r>  0.0159  0.0195  0.0195  0.1655  0.0000  0.0000  0.0000  0.0000  0.0000 </r>
       </set>
       <set comment="band 3">
        <r>  0.0035  0.0872  0.0873  0.0376  0.0000  0.0000  0.0000  0.0000  0.0000 </r>
        <r>  0.0035  0.0872  0.0873  0.0376  0.0000  0.0000  0.0000  0.0000  0.0000 </r>
       </set>
       <set comment="band 4">
        <r>  0.0000  0.1072  0.1072  0.0000  0.0000  0.0000  0.0000  0.0000  0.0000 </r>
        <r>  0.0000  0.1072  0.1072  0.0000  0.0000  0.0000  0.0000  0.0000  0.0000 </r>
       </set>
       <set comment="band 5">
        <r>  0.0033  0.0020  0.0020  0.1427  0.0000  0.0000  0.0000  0.0000  0.0000 </r>
        <r>  0.0033  0.0020  0.0020  0.1427  0.0000  0.0000  0.0000  0.0000  0.0000 </r>
       </set>
       <set comment="band 6">
        <r>  0.0013  0.0744  0.0744  0.0043  0.0000  0.0000  0.0000  0.0000  0.0000 </r>
        <r>  0.0013  0.0744  0.0744  0.0043  0.0000  0.0000  0.0000  0.0000  0.0000 </r>
       </set>
       <set comment="band 7">
        <r>  0.0000  0.0772  0.0772  0.0000  0.0000  0.0000  0.0000  0.0000  0.0000 </r>
        <r>  0.0000  0.0772  0.0772  0.0000  0.0000  0.0000  0.0000  0.0000  0.0000 </r>
       </set>
       <set comment="band 8">
        <r>  0.3368  0.0003  0.0003  0.0148  0.0000  0.0000  0.0000  0.0000  0.0000 </r>
        <r>  0.3368  0.0003  0.0003  0.0148  0.0000  0.0000  0.0000  0.0000  0.0000 </r>
       </set>
      </set>
      <set comment="kpoint 38">
       <set comment="band 1">
        <r>  0.2134  0.0000  0.0000  0.0001  0.0000  0.0000  0.0000  0.0000  0.0000 </r>
        <r>  0.2134  0.0000  0.0000  0.0001  0.0000  0.0000  0.0000  0.0000  0.0000 </r>
       </set>
       <set comment="band 2">
        <r>  0.0055  0.0442  0.0442  0.1230  0.0000  0.0000  0.0000  0.0000  0.0000 </r>
        <r>  0.0055  0.0442  0.0442  0.1230  0.0000  0.0000  0.0000  0.0000  0.0000 </r>
       </set>
       <set comment="band 3">
        <r>  0.0038  0.0632  0.0632  0.0871  0.0000  0.0000  0.0000  0.0000  0.0000 </r>
        <r>  0.0038  0.0632  0.0632  0.0871  0.0000  0.0000  0.0000  0.0000  0.0000 </r>
       </set>
       <set comment="band 4">
        <r>  0.0000  0.1079  0.1079  0.0000  0.0000  0.0000  0.0000  0.0000  0.0000 </r>
        <r>  0.0000  0.1079  0.1079  0.0000  0.0000  0.0000  0.0000  0.0000  0.0000 </r>
       </set>
       <set comment="band 5">
        <r>  0.0025  0.0104  0.0104  0.1280  0.0000  0.0000  0.0000  0.0000  0.0000 </r>
        <r>  0.0025  0.0104  0.0104  0.1280  0.0000  0.0000  0.0000  0.0000  0.0000 </r>
       </set>
       <set comment="band 6">
        <r>  0.0010  0.0654  0.0654  0.0212  0.0000  0.0000  0.0000  0.0000  0.0000 </r>
        <r>  0.0010  0.0654  0.0654  0.0212  0.0000  0.0000  0.0000  0.0000  0.0000 </r>
       </set>
       <set comment="band 7">
        <r>  0.0000  0.0766  0.0766  0.0000  0.0000  0.0000  0.0000  0.0000  0.0000 </r>
        <r>  0.0000  0.0766  0.0766  0.0000  0.0000  0.0000  0.0000  0.0000  0.0000 </r>
       </set>
       <set comment="band 8">
        <r>  0.3471  0.0004  0.0004  0.0072  0.0000  0.0000  0.0000  0.0000  0.0000 </r>
        <r>  0.3471  0.0004  0.0004  0.0072  0.0000  0.0000  0.0000  0.0000  0.0000 </r>
       </set>
      </set>
      <set comment="kpoint 39">
       <set comment="band 1">
        <r>  0.2134  0.0000  0.0000  0.0000  0.0000  0.0000  0.0000  0.0000  0.0000 </r>
        <r>  0.2134  0.0000  0.0000  0.0000  0.0000  0.0000  0.0000  0.0000  0.0000 </r>
       </set>
       <set comment="band 2">
        <r>  0.0010  0.0654  0.0654  0.0841  0.0000  0.0000  0.0000  0.0000  0.0000 </r>
        <r>  0.0010  0.0654  0.0654  0.0841  0.0000  0.0000  0.0000  0.0000  0.0000 </r>
       </set>
       <set comment="band 3">
        <r>  0.0015  0.0425  0.0426  0.1307  0.0000  0.0000  0.0000  0.0000  0.0000 </r>
        <r>  0.0015  0.0425  0.0426  0.1307  0.0000  0.0000  0.0000  0.0000  0.0000 </r>
       </set>
       <set comment="band 4">
        <r>  0.0000  0.1083  0.1083  0.0000  0.0000  0.0000  0.0000  0.0000  0.0000 </r>
        <r>  0.0000  0.1083  0.1083  0.0000  0.0000  0.0000  0.0000  0.0000  0.0000 </r>
       </set>
       <set comment="band 5">
        <r>  0.0025  0.0378  0.0378  0.0739  0.0000  0.0000  0.0000  0.0000  0.0000 </r>
        <r>  0.0025  0.0378  0.0378  0.0739  0.0000  0.0000  0.0000  0.0000  0.0000 </r>
       </set>
       <set comment="band 6">
        <r>  0.0002  0.0375  0.0375  0.0767  0.0000  0.0000  0.0000  0.0000  0.0000 </r>
        <r>  0.0002  0.0375  0.0375  0.0767  0.0000  0.0000  0.0000  0.0000  0.0000 </r>
       </set>
       <set comment="band 7">
        <r>  0.0000  0.0761  0.0761  0.0000  0.0000  0.0000  0.0000  0.0000  0.0000 </r>
        <r>  0.0000  0.0761  0.0761  0.0000  0.0000  0.0000  0.0000  0.0000  0.0000 </r>
       </set>
       <set comment="band 8">
        <r>  0.3540  0.0004  0.0004  0.0021  0.0000  0.0000  0.0000  0.0000  0.0000 </r>
        <r>  0.3540  0.0004  0.0004  0.0021  0.0000  0.0000  0.0000  0.0000  0.0000 </r>
       </set>
      </set>
      <set comment="kpoint 40">
       <set comment="band 1">
        <r>  0.2134  0.0000  0.0000  0.0000  0.0000  0.0000  0.0000  0.0000  0.0000 </r>
        <r>  0.2134  0.0000  0.0000  0.0000  0.0000  0.0000  0.0000  0.0000  0.0000 </r>
       </set>
       <set comment="band 2">
        <r>  0.0000  0.0719  0.0719  0.0719  0.0000  0.0000  0.0000  0.0000  0.0000 </r>
        <r>  0.0000  0.0719  0.0719  0.0719  0.0000  0.0000  0.0000  0.0000  0.0000 </r>
       </set>
       <set comment="band 3">
        <r>  0.0000  0.0036  0.1256  0.0877  0.0000  0.0000  0.0000  0.0000  0.0000 </r>
        <r>  0.0000  0.0036  0.1256  0.0877  0.0000  0.0000  0.0000  0.0000  0.0000 </r>
       </set>
       <set comment="band 4">
        <r>  0.0000  0.1410  0.0190  0.0569  0.0000  0.0000  0.0000  0.0000  0.0000 </r>
        <r>  0.0000  0.1410  0.0190  0.0569  0.0000  0.0000  0.0000  0.0000  0.0000 </r>
       </set>
       <set comment="band 5">
        <r>  0.0025  0.0498  0.0498  0.0498  0.0000  0.0000  0.0000  0.0000  0.0000 </r>
        <r>  0.0025  0.0498  0.0498  0.0498  0.0000  0.0000  0.0000  0.0000  0.0000 </r>
       </set>
       <set comment="band 6">
        <r>  0.0000  0.0627  0.0704  0.0188  0.0000  0.0000  0.0000  0.0000  0.0000 </r>
        <r>  0.0000  0.0627  0.0704  0.0188  0.0000  0.0000  0.0000  0.0000  0.0000 </r>
       </set>
       <set comment="band 7">
        <r>  0.0000  0.0385  0.0309  0.0825  0.0000  0.0000  0.0000  0.0000  0.0000 </r>
        <r>  0.0000  0.0385  0.0308  0.0825  0.0000  0.0000  0.0000  0.0000  0.0000 </r>
       </set>
       <set comment="band 8">
        <r>  0.3564  0.0004  0.0004  0.0004  0.0000  0.0000  0.0000  0.0000  0.0000 </r>
        <r>  0.3564  0.0004  0.0004  0.0004  0.0000  0.0000  0.0000  0.0000  0.0000 </r>
       </set>
      </set>
      <set comment="kpoint 41">
       <set comment="band 1">
        <r>  0.2134  0.0000  0.0000  0.0000  0.0000  0.0000  0.0000  0.0000  0.0000 </r>
        <r>  0.2134  0.0000  0.0000  0.0000  0.0000  0.0000  0.0000  0.0000  0.0000 </r>
       </set>
       <set comment="band 2">
        <r>  0.0000  0.0719  0.0719  0.0719  0.0000  0.0000  0.0000  0.0000  0.0000 </r>
        <r>  0.0000  0.0719  0.0719  0.0719  0.0000  0.0000  0.0000  0.0000  0.0000 </r>
       </set>
       <set comment="band 3">
        <r>  0.0000  0.0043  0.1275  0.0852  0.0000  0.0000  0.0000  0.0000  0.0000 </r>
        <r>  0.0000  0.0043  0.1275  0.0852  0.0000  0.0000  0.0000  0.0000  0.0000 </r>
       </set>
       <set comment="band 4">
        <r>  0.0000  0.1404  0.0171  0.0595  0.0000  0.0000  0.0000  0.0000  0.0000 </r>
        <r>  0.0000  0.1404  0.0171  0.0595  0.0000  0.0000  0.0000  0.0000  0.0000 </r>
       </set>
       <set comment="band 5">
        <r>  0.0025  0.0498  0.0498  0.0498  0.0000  0.0000  0.0000  0.0000  0.0000 </r>
        <r>  0.0025  0.0498  0.0498  0.0498  0.0000  0.0000  0.0000  0.0000  0.0000 </r>
       </set>
       <set comment="band 6">
        <r>  0.0000  0.0962  0.0088  0.0469  0.0000  0.0000  0.0000  0.0000  0.0000 </r>
        <r>  0.0000  0.0962  0.0088  0.0469  0.0000  0.0000  0.0000  0.0000  0.0000 </r>
       </set>
       <set comment="band 7">
        <r>  0.0000  0.0051  0.0925  0.0544  0.0000  0.0000  0.0000  0.0000  0.0000 </r>
        <r>  0.0000  0.0051  0.0925  0.0544  0.0000  0.0000  0.0000  0.0000  0.0000 </r>
       </set>
       <set comment="band 8">
        <r>  0.3564  0.0004  0.0004  0.0004  0.0000  0.0000  0.0000  0.0000  0.0000 </r>
        <r>  0.3564  0.0004  0.0004  0.0004  0.0000  0.0000  0.0000  0.0000  0.0000 </r>
       </set>
      </set>
      <set comment="kpoint 42">
       <set comment="band 1">
        <r>  0.2134  0.0000  0.0000  0.0000  0.0000  0.0000  0.0000  0.0000  0.0000 </r>
        <r>  0.2134  0.0000  0.0000  0.0000  0.0000  0.0000  0.0000  0.0000  0.0000 </r>
       </set>
       <set comment="band 2">
        <r>  0.0010  0.0841  0.0654  0.0654  0.0000  0.0000  0.0000  0.0000  0.0000 </r>
        <r>  0.0010  0.0841  0.0654  0.0654  0.0000  0.0000  0.0000  0.0000  0.0000 </r>
       </set>
       <set comment="band 3">
        <r>  0.0015  0.1307  0.0426  0.0425  0.0000  0.0000  0.0000  0.0000  0.0000 </r>
        <r>  0.0015  0.1307  0.0426  0.0425  0.0000  0.0000  0.0000  0.0000  0.0000 </r>
       </set>
       <set comment="band 4">
        <r>  0.0000  0.0000  0.1083  0.1083  0.0000  0.0000  0.0000  0.0000  0.0000 </r>
        <r>  0.0000  0.0000  0.1083  0.1083  0.0000  0.0000  0.0000  0.0000  0.0000 </r>
       </set>
       <set comment="band 5">
        <r>  0.0025  0.0739  0.0378  0.0378  0.0000  0.0000  0.0000  0.0000  0.0000 </r>
        <r>  0.0025  0.0739  0.0378  0.0378  0.0000  0.0000  0.0000  0.0000  0.0000 </r>
       </set>
       <set comment="band 6">
        <r>  0.0002  0.0767  0.0375  0.0375  0.0000  0.0000  0.0000  0.0000  0.0000 </r>
        <r>  0.0002  0.0767  0.0375  0.0375  0.0000  0.0000  0.0000  0.0000  0.0000 </r>
       </set>
       <set comment="band 7">
        <r>  0.0000  0.0000  0.0761  0.0761  0.0000  0.0000  0.0000  0.0000  0.0000 </r>
        <r>  0.0000  0.0000  0.0761  0.0761  0.0000  0.0000  0.0000  0.0000  0.0000 </r>
       </set>
       <set comment="band 8">
        <r>  0.3540  0.0021  0.0004  0.0004  0.0000  0.0000  0.0000  0.0000  0.0000 </r>
        <r>  0.3540  0.0021  0.0004  0.0004  0.0000  0.0000  0.0000  0.0000  0.0000 </r>
       </set>
      </set>
      <set comment="kpoint 43">
       <set comment="band 1">
        <r>  0.2134  0.0001  0.0000  0.0000  0.0000  0.0000  0.0000  0.0000  0.0000 </r>
        <r>  0.2134  0.0001  0.0000  0.0000  0.0000  0.0000  0.0000  0.0000  0.0000 </r>
       </set>
       <set comment="band 2">
        <r>  0.0055  0.1230  0.0442  0.0442  0.0000  0.0000  0.0000  0.0000  0.0000 </r>
        <r>  0.0055  0.1230  0.0442  0.0442  0.0000  0.0000  0.0000  0.0000  0.0000 </r>
       </set>
       <set comment="band 3">
        <r>  0.0038  0.0871  0.0632  0.0632  0.0000  0.0000  0.0000  0.0000  0.0000 </r>
        <r>  0.0038  0.0871  0.0632  0.0632  0.0000  0.0000  0.0000  0.0000  0.0000 </r>
       </set>
       <set comment="band 4">
        <r>  0.0000  0.0000  0.1079  0.1079  0.0000  0.0000  0.0000  0.0000  0.0000 </r>
        <r>  0.0000  0.0000  0.1079  0.1079  0.0000  0.0000  0.0000  0.0000  0.0000 </r>
       </set>
       <set comment="band 5">
        <r>  0.0025  0.1280  0.0104  0.0104  0.0000  0.0000  0.0000  0.0000  0.0000 </r>
        <r>  0.0025  0.1280  0.0104  0.0104  0.0000  0.0000  0.0000  0.0000  0.0000 </r>
       </set>
       <set comment="band 6">
        <r>  0.0010  0.0212  0.0654  0.0654  0.0000  0.0000  0.0000  0.0000  0.0000 </r>
        <r>  0.0010  0.0212  0.0654  0.0654  0.0000  0.0000  0.0000  0.0000  0.0000 </r>
       </set>
       <set comment="band 7">
        <r>  0.0000  0.0000  0.0766  0.0766  0.0000  0.0000  0.0000  0.0000  0.0000 </r>
        <r>  0.0000  0.0000  0.0766  0.0766  0.0000  0.0000  0.0000  0.0000  0.0000 </r>
       </set>
       <set comment="band 8">
        <r>  0.3471  0.0072  0.0004  0.0004  0.0000  0.0000  0.0000  0.0000  0.0000 </r>
        <r>  0.3471  0.0072  0.0004  0.0004  0.0000  0.0000  0.0000  0.0000  0.0000 </r>
       </set>
      </set>
      <set comment="kpoint 44">
       <set comment="band 1">
        <r>  0.2133  0.0003  0.0000  0.0000  0.0000  0.0000  0.0000  0.0000  0.0000 </r>
        <r>  0.2133  0.0003  0.0000  0.0000  0.0000  0.0000  0.0000  0.0000  0.0000 </r>
       </set>
       <set comment="band 2">
        <r>  0.0159  0.1655  0.0195  0.0195  0.0000  0.0000  0.0000  0.0000  0.0000 </r>
        <r>  0.0159  0.1655  0.0195  0.0195  0.0000  0.0000  0.0000  0.0000  0.0000 </r>
       </set>
       <set comment="band 3">
        <r>  0.0035  0.0376  0.0872  0.0872  0.0000  0.0000  0.0000  0.0000  0.0000 </r>
        <r>  0.0035  0.0376  0.0872  0.0872  0.0000  0.0000  0.0000  0.0000  0.0000 </r>
       </set>
       <set comment="band 4">
        <r>  0.0000  0.0000  0.1072  0.1072  0.0000  0.0000  0.0000  0.0000  0.0000 </r>
        <r>  0.0000  0.0000  0.1072  0.1072  0.0000  0.0000  0.0000  0.0000  0.0000 </r>
       </set>
       <set comment="band 5">
        <r>  0.0033  0.1427  0.0020  0.0020  0.0000  0.0000  0.0000  0.0000  0.0000 </r>
        <r>  0.0033  0.1427  0.0020  0.0021  0.0000  0.0000  0.0000  0.0000  0.0000 </r>
       </set>
       <set comment="band 6">
        <r>  0.0013  0.0043  0.0744  0.0744  0.0000  0.0000  0.0000  0.0000  0.0000 </r>
        <r>  0.0013  0.0043  0.0744  0.0744  0.0000  0.0000  0.0000  0.0000  0.0000 </r>
       </set>
       <set comment="band 7">
        <r>  0.0000  0.0000  0.0772  0.0772  0.0000  0.0000  0.0000  0.0000  0.0000 </r>
        <r>  0.0000  0.0000  0.0772  0.0772  0.0000  0.0000  0.0000  0.0000  0.0000 </r>
       </set>
       <set comment="band 8">
        <r>  0.3368  0.0148  0.0003  0.0003  0.0000  0.0000  0.0000  0.0000  0.0000 </r>
        <r>  0.3368  0.0148  0.0003  0.0003  0.0000  0.0000  0.0000  0.0000  0.0000 </r>
       </set>
      </set>
      <set comment="kpoint 45">
       <set comment="band 1">
        <r>  0.2132  0.0005  0.0000  0.0000  0.0000  0.0000  0.0000  0.0000  0.0000 </r>
        <r>  0.2132  0.0005  0.0000  0.0000  0.0000  0.0000  0.0000  0.0000  0.0000 </r>
       </set>
       <set comment="band 2">
        <r>  0.0291  0.1809  0.0074  0.0074  0.0000  0.0000  0.0000  0.0000  0.0000 </r>
        <r>  0.0291  0.1809  0.0074  0.0074  0.0000  0.0000  0.0000  0.0000  0.0000 </r>
       </set>
       <set comment="band 3">
        <r>  0.0021  0.0139  0.0986  0.0986  0.0000  0.0000  0.0000  0.0000  0.0000 </r>
        <r>  0.0021  0.0139  0.0986  0.0986  0.0000  0.0000  0.0000  0.0000  0.0000 </r>
       </set>
       <set comment="band 4">
        <r>  0.0000  0.0000  0.1064  0.1064  0.0000  0.0000  0.0000  0.0000  0.0000 </r>
        <r>  0.0000  0.0000  0.1064  0.1064  0.0000  0.0000  0.0000  0.0000  0.0000 </r>
       </set>
       <set comment="band 5">
        <r>  0.0050  0.1427  0.0006  0.0006  0.0000  0.0000  0.0000  0.0000  0.0000 </r>
        <r>  0.0050  0.1427  0.0006  0.0006  0.0000  0.0000  0.0000  0.0000  0.0000 </r>
       </set>
       <set comment="band 6">
        <r>  0.0013  0.0013  0.0767  0.0767  0.0000  0.0000  0.0000  0.0000  0.0000 </r>
        <r>  0.0013  0.0013  0.0767  0.0767  0.0000  0.0000  0.0000  0.0000  0.0000 </r>
       </set>
       <set comment="band 7">
        <r>  0.0000  0.0000  0.0780  0.0780  0.0000  0.0000  0.0000  0.0000  0.0000 </r>
        <r>  0.0000  0.0000  0.0780  0.0780  0.0000  0.0000  0.0000  0.0000  0.0000 </r>
       </set>
       <set comment="band 8">
        <r>  0.3243  0.0241  0.0003  0.0003  0.0000  0.0000  0.0000  0.0000  0.0000 </r>
        <r>  0.3243  0.0241  0.0003  0.0003  0.0000  0.0000  0.0000  0.0000  0.0000 </r>
       </set>
      </set>
      <set comment="kpoint 46">
       <set comment="band 1">
        <r>  0.2131  0.0008  0.0000  0.0000  0.0000  0.0000  0.0000  0.0000  0.0000 </r>
        <r>  0.2131  0.0008  0.0000  0.0000  0.0000  0.0000  0.0000  0.0000  0.0000 </r>
       </set>
       <set comment="band 2">
        <r>  0.0426  0.1803  0.0031  0.0031  0.0000  0.0000  0.0000  0.0000  0.0000 </r>
        <r>  0.0426  0.1803  0.0031  0.0031  0.0000  0.0000  0.0000  0.0000  0.0000 </r>
       </set>
       <set comment="band 3">
        <r>  0.0012  0.0057  0.1020  0.1020  0.0000  0.0000  0.0000  0.0000  0.0000 </r>
        <r>  0.0012  0.0057  0.1020  0.1020  0.0000  0.0000  0.0000  0.0000  0.0000 </r>
       </set>
       <set comment="band 4">
        <r>  0.0000  0.0000  0.1056  0.1056  0.0000  0.0000  0.0000  0.0000  0.0000 </r>
        <r>  0.0000  0.0000  0.1056  0.1056  0.0000  0.0000  0.0000  0.0000  0.0000 </r>
       </set>
       <set comment="band 5">
        <r>  0.0072  0.1397  0.0002  0.0002  0.0000  0.0000  0.0000  0.0000  0.0000 </r>
        <r>  0.0072  0.1397  0.0002  0.0002  0.0000  0.0000  0.0000  0.0000  0.0000 </r>
       </set>
       <set comment="band 6">
        <r>  0.0013  0.0006  0.0778  0.0778  0.0000  0.0000  0.0000  0.0000  0.0000 </r>
        <r>  0.0013  0.0006  0.0778  0.0778  0.0000  0.0000  0.0000  0.0000  0.0000 </r>
       </set>
       <set comment="band 7">
        <r>  0.0000  0.0000  0.0788  0.0788  0.0000  0.0000  0.0000  0.0000  0.0000 </r>
        <r>  0.0000  0.0000  0.0788  0.0788  0.0000  0.0000  0.0000  0.0000  0.0000 </r>
       </set>
       <set comment="band 8">
        <r>  0.3104  0.0341  0.0003  0.0003  0.0000  0.0000  0.0000  0.0000  0.0000 </r>
        <r>  0.3104  0.0341  0.0003  0.0003  0.0000  0.0000  0.0000  0.0000  0.0000 </r>
       </set>
      </set>
      <set comment="kpoint 47">
       <set comment="band 1">
        <r>  0.2129  0.0011  0.0000  0.0000  0.0000  0.0000  0.0000  0.0000  0.0000 </r>
        <r>  0.2129  0.0011  0.0000  0.0000  0.0000  0.0000  0.0000  0.0000  0.0000 </r>
       </set>
       <set comment="band 2">
        <r>  0.0556  0.1745  0.0015  0.0015  0.0000  0.0000  0.0000  0.0000  0.0000 </r>
        <r>  0.0556  0.1745  0.0015  0.0015  0.0000  0.0000  0.0000  0.0000  0.0000 </r>
       </set>
       <set comment="band 3">
        <r>  0.0008  0.0027  0.1029  0.1029  0.0000  0.0000  0.0000  0.0000  0.0000 </r>
        <r>  0.0008  0.0027  0.1029  0.1029  0.0000  0.0000  0.0000  0.0000  0.0000 </r>
       </set>
       <set comment="band 4">
        <r>  0.0000  0.0000  0.1048  0.1048  0.0000  0.0000  0.0000  0.0000  0.0000 </r>
        <r>  0.0000  0.0000  0.1048  0.1048  0.0000  0.0000  0.0000  0.0000  0.0000 </r>
       </set>
       <set comment="band 5">
        <r>  0.0097  0.1358  0.0001  0.0001  0.0000  0.0000  0.0000  0.0000  0.0000 </r>
        <r>  0.0097  0.1358  0.0001  0.0001  0.0000  0.0000  0.0000  0.0000  0.0000 </r>
       </set>
       <set comment="band 6">
        <r>  0.0012  0.0003  0.0788  0.0788  0.0000  0.0000  0.0000  0.0000  0.0000 </r>
        <r>  0.0012  0.0003  0.0788  0.0788  0.0000  0.0000  0.0000  0.0000  0.0000 </r>
       </set>
       <set comment="band 7">
        <r>  0.0000  0.0000  0.0796  0.0796  0.0000  0.0000  0.0000  0.0000  0.0000 </r>
        <r>  0.0000  0.0000  0.0796  0.0796  0.0000  0.0000  0.0000  0.0000  0.0000 </r>
       </set>
       <set comment="band 8">
        <r>  0.2955  0.0444  0.0003  0.0003  0.0000  0.0000  0.0000  0.0000  0.0000 </r>
        <r>  0.2955  0.0444  0.0003  0.0003  0.0000  0.0000  0.0000  0.0000  0.0000 </r>
       </set>
      </set>
      <set comment="kpoint 48">
       <set comment="band 1">
        <r>  0.2127  0.0016  0.0000  0.0000  0.0000  0.0000  0.0000  0.0000  0.0000 </r>
        <r>  0.2127  0.0016  0.0000  0.0000  0.0000  0.0000  0.0000  0.0000  0.0000 </r>
       </set>
       <set comment="band 2">
        <r>  0.0677  0.1673  0.0008  0.0008  0.0000  0.0000  0.0000  0.0000  0.0000 </r>
        <r>  0.0677  0.1673  0.0008  0.0008  0.0000  0.0000  0.0000  0.0000  0.0000 </r>
       </set>
       <set comment="band 3">
        <r>  0.0005  0.0014  0.1028  0.1028  0.0000  0.0000  0.0000  0.0000  0.0000 </r>
        <r>  0.0005  0.0014  0.1028  0.1028  0.0000  0.0000  0.0000  0.0000  0.0000 </r>
       </set>
       <set comment="band 4">
        <r>  0.0000  0.0000  0.1041  0.1041  0.0000  0.0000  0.0000  0.0000  0.0000 </r>
        <r>  0.0000  0.0000  0.1041  0.1041  0.0000  0.0000  0.0000  0.0000  0.0000 </r>
       </set>
       <set comment="band 5">
        <r>  0.0125  0.1314  0.0000  0.0000  0.0000  0.0000  0.0000  0.0000  0.0000 </r>
        <r>  0.0125  0.1314  0.0000  0.0000  0.0000  0.0000  0.0000  0.0000  0.0000 </r>
       </set>
       <set comment="band 6">
        <r>  0.0012  0.0003  0.0795  0.0795  0.0000  0.0000  0.0000  0.0000  0.0000 </r>
        <r>  0.0012  0.0003  0.0795  0.0795  0.0000  0.0000  0.0000  0.0000  0.0000 </r>
       </set>
       <set comment="band 7">
        <r>  0.0000  0.0000  0.0803  0.0803  0.0000  0.0000  0.0000  0.0000  0.0000 </r>
        <r>  0.0000  0.0000  0.0803  0.0803  0.0000  0.0000  0.0000  0.0000  0.0000 </r>
       </set>
       <set comment="band 8">
        <r>  0.2793  0.0543  0.0003  0.0003  0.0000  0.0000  0.0000  0.0000  0.0000 </r>
        <r>  0.2793  0.0543  0.0003  0.0003  0.0000  0.0000  0.0000  0.0000  0.0000 </r>
       </set>
      </set>
      <set comment="kpoint 49">
       <set comment="band 1">
        <r>  0.2125  0.0020  0.0000  0.0000  0.0000  0.0000  0.0000  0.0000  0.0000 </r>
        <r>  0.2125  0.0020  0.0000  0.0000  0.0000  0.0000  0.0000  0.0000  0.0000 </r>
       </set>
       <set comment="band 2">
        <r>  0.0790  0.1600  0.0005  0.0005  0.0000  0.0000  0.0000  0.0000  0.0000 </r>
        <r>  0.0790  0.1600  0.0005  0.0005  0.0000  0.0000  0.0000  0.0000  0.0000 </r>
       </set>
       <set comment="band 3">
        <r>  0.0003  0.0008  0.1025  0.1025  0.0000  0.0000  0.0000  0.0000  0.0000 </r>
        <r>  0.0003  0.0008  0.1025  0.1025  0.0000  0.0000  0.0000  0.0000  0.0000 </r>
       </set>
       <set comment="band 4">
        <r>  0.0000  0.0000  0.1034  0.1034  0.0000  0.0000  0.0000  0.0000  0.0000 </r>
        <r>  0.0000  0.0000  0.1034  0.1034  0.0000  0.0000  0.0000  0.0000  0.0000 </r>
       </set>
       <set comment="band 5">
        <r>  0.0153  0.1267  0.0000  0.0000  0.0000  0.0000  0.0000  0.0000  0.0000 </r>
        <r>  0.0153  0.1267  0.0000  0.0000  0.0000  0.0000  0.0000  0.0000  0.0000 </r>
       </set>
       <set comment="band 6">
        <r>  0.0012  0.0003  0.0802  0.0802  0.0000  0.0000  0.0000  0.0000  0.0000 </r>
        <r>  0.0012  0.0003  0.0802  0.0802  0.0000  0.0000  0.0000  0.0000  0.0000 </r>
       </set>
       <set comment="band 7">
        <r>  0.0000  0.0000  0.0810  0.0810  0.0000  0.0000  0.0000  0.0000  0.0000 </r>
        <r>  0.0000  0.0000  0.0810  0.0810  0.0000  0.0000  0.0000  0.0000  0.0000 </r>
       </set>
       <set comment="band 8">
        <r>  0.2608  0.0634  0.0004  0.0004  0.0000  0.0000  0.0000  0.0000  0.0000 </r>
        <r>  0.2608  0.0634  0.0004  0.0004  0.0000  0.0000  0.0000  0.0000  0.0000 </r>
       </set>
      </set>
      <set comment="kpoint 50">
       <set comment="band 1">
        <r>  0.2122  0.0026  0.0000  0.0000  0.0000  0.0000  0.0000  0.0000  0.0000 </r>
        <r>  0.2122  0.0026  0.0000  0.0000  0.0000  0.0000  0.0000  0.0000  0.0000 </r>
       </set>
       <set comment="band 2">
        <r>  0.0892  0.1530  0.0003  0.0003  0.0000  0.0000  0.0000  0.0000  0.0000 </r>
        <r>  0.0892  0.1530  0.0003  0.0003  0.0000  0.0000  0.0000  0.0000  0.0000 </r>
       </set>
       <set comment="band 3">
        <r>  0.0002  0.0005  0.1021  0.1021  0.0000  0.0000  0.0000  0.0000  0.0000 </r>
        <r>  0.0002  0.0005  0.1021  0.1021  0.0000  0.0000  0.0000  0.0000  0.0000 </r>
       </set>
       <set comment="band 4">
        <r>  0.0000  0.0000  0.1028  0.1028  0.0000  0.0000  0.0000  0.0000  0.0000 </r>
        <r>  0.0000  0.0000  0.1028  0.1028  0.0000  0.0000  0.0000  0.0000  0.0000 </r>
       </set>
       <set comment="band 5">
        <r>  0.0182  0.1218  0.0000  0.0000  0.0000  0.0000  0.0000  0.0000  0.0000 </r>
        <r>  0.0182  0.1218  0.0000  0.0000  0.0000  0.0000  0.0000  0.0000  0.0000 </r>
       </set>
       <set comment="band 6">
        <r>  0.0012  0.0003  0.0807  0.0807  0.0000  0.0000  0.0000  0.0000  0.0000 </r>
        <r>  0.0012  0.0003  0.0807  0.0807  0.0000  0.0000  0.0000  0.0000  0.0000 </r>
       </set>
       <set comment="band 7">
        <r>  0.0000  0.0000  0.0816  0.0816  0.0000  0.0000  0.0000  0.0000  0.0000 </r>
        <r>  0.0000  0.0000  0.0816  0.0816  0.0000  0.0000  0.0000  0.0000  0.0000 </r>
       </set>
       <set comment="band 8">
        <r>  0.2382  0.0706  0.0004  0.0004  0.0000  0.0000  0.0000  0.0000  0.0000 </r>
        <r>  0.2382  0.0706  0.0004  0.0004  0.0000  0.0000  0.0000  0.0000  0.0000 </r>
       </set>
      </set>
      <set comment="kpoint 51">
       <set comment="band 1">
        <r>  0.2119  0.0032  0.0000  0.0000  0.0000  0.0000  0.0000  0.0000  0.0000 </r>
        <r>  0.2119  0.0032  0.0000  0.0000  0.0000  0.0000  0.0000  0.0000  0.0000 </r>
       </set>
       <set comment="band 2">
        <r>  0.0986  0.1463  0.0002  0.0002  0.0000  0.0000  0.0000  0.0000  0.0000 </r>
        <r>  0.0986  0.1463  0.0002  0.0002  0.0000  0.0000  0.0000  0.0000  0.0000 </r>
       </set>
       <set comment="band 3">
        <r>  0.0002  0.0003  0.1017  0.1017  0.0000  0.0000  0.0000  0.0000  0.0000 </r>
        <r>  0.0002  0.0003  0.1017  0.1017  0.0000  0.0000  0.0000  0.0000  0.0000 </r>
       </set>
       <set comment="band 4">
        <r>  0.0000  0.0000  0.1023  0.1023  0.0000  0.0000  0.0000  0.0000  0.0000 </r>
        <r>  0.0000  0.0000  0.1023  0.1023  0.0000  0.0000  0.0000  0.0000  0.0000 </r>
       </set>
       <set comment="band 5">
        <r>  0.0211  0.1171  0.0000  0.0000  0.0000  0.0000  0.0000  0.0000  0.0000 </r>
        <r>  0.0211  0.1171  0.0000  0.0000  0.0000  0.0000  0.0000  0.0000  0.0000 </r>
       </set>
       <set comment="band 6">
        <r>  0.0014  0.0004  0.0812  0.0812  0.0000  0.0000  0.0000  0.0000  0.0000 </r>
        <r>  0.0014  0.0004  0.0812  0.0812  0.0000  0.0000  0.0000  0.0000  0.0000 </r>
       </set>
       <set comment="band 7">
        <r>  0.0000  0.0000  0.0821  0.0821  0.0000  0.0000  0.0000  0.0000  0.0000 </r>
        <r>  0.0000  0.0000  0.0821  0.0821  0.0000  0.0000  0.0000  0.0000  0.0000 </r>
       </set>
       <set comment="band 8">
        <r>  0.2100  0.0747  0.0005  0.0005  0.0000  0.0000  0.0000  0.0000  0.0000 </r>
        <r>  0.2100  0.0747  0.0005  0.0005  0.0000  0.0000  0.0000  0.0000  0.0000 </r>
       </set>
      </set>
      <set comment="kpoint 52">
       <set comment="band 1">
        <r>  0.2116  0.0038  0.0000  0.0000  0.0000  0.0000  0.0000  0.0000  0.0000 </r>
        <r>  0.2116  0.0038  0.0000  0.0000  0.0000  0.0000  0.0000  0.0000  0.0000 </r>
       </set>
       <set comment="band 2">
        <r>  0.1071  0.1401  0.0001  0.0001  0.0000  0.0000  0.0000  0.0000  0.0000 </r>
        <r>  0.1071  0.1401  0.0001  0.0001  0.0000  0.0000  0.0000  0.0000  0.0000 </r>
       </set>
       <set comment="band 3">
        <r>  0.0001  0.0002  0.1013  0.1013  0.0000  0.0000  0.0000  0.0000  0.0000 </r>
        <r>  0.0001  0.0002  0.1013  0.1013  0.0000  0.0000  0.0000  0.0000  0.0000 </r>
       </set>
       <set comment="band 4">
        <r>  0.0000  0.0000  0.1018  0.1018  0.0000  0.0000  0.0000  0.0000  0.0000 </r>
        <r>  0.0000  0.0000  0.1018  0.1018  0.0000  0.0000  0.0000  0.0000  0.0000 </r>
       </set>
       <set comment="band 5">
        <r>  0.0239  0.1123  0.0000  0.0000  0.0000  0.0000  0.0000  0.0000  0.0000 </r>
        <r>  0.0239  0.1123  0.0000  0.0000  0.0000  0.0000  0.0000  0.0000  0.0000 </r>
       </set>
       <set comment="band 6">
        <r>  0.0018  0.0007  0.0814  0.0814  0.0000  0.0000  0.0000  0.0000  0.0000 </r>
        <r>  0.0018  0.0007  0.0814  0.0814  0.0000  0.0000  0.0000  0.0000  0.0000 </r>
       </set>
       <set comment="band 7">
        <r>  0.0000  0.0000  0.0825  0.0825  0.0000  0.0000  0.0000  0.0000  0.0000 </r>
        <r>  0.0000  0.0000  0.0825  0.0825  0.0000  0.0000  0.0000  0.0000  0.0000 </r>
       </set>
       <set comment="band 8">
        <r>  0.1769  0.0744  0.0007  0.0007  0.0000  0.0000  0.0000  0.0000  0.0000 </r>
        <r>  0.1769  0.0744  0.0007  0.0007  0.0000  0.0000  0.0000  0.0000  0.0000 </r>
       </set>
      </set>
      <set comment="kpoint 53">
       <set comment="band 1">
        <r>  0.2113  0.0046  0.0000  0.0000  0.0000  0.0000  0.0000  0.0000  0.0000 </r>
        <r>  0.2113  0.0046  0.0000  0.0000  0.0000  0.0000  0.0000  0.0000  0.0000 </r>
       </set>
       <set comment="band 2">
        <r>  0.1148  0.1343  0.0001  0.0001  0.0000  0.0000  0.0000  0.0000  0.0000 </r>
        <r>  0.1148  0.1343  0.0001  0.0001  0.0000  0.0000  0.0000  0.0000  0.0000 </r>
       </set>
       <set comment="band 3">
        <r>  0.0001  0.0001  0.1009  0.1009  0.0000  0.0000  0.0000  0.0000  0.0000 </r>
        <r>  0.0001  0.0001  0.1009  0.1009  0.0000  0.0000  0.0000  0.0000  0.0000 </r>
       </set>
       <set comment="band 4">
        <r>  0.0000  0.0000  0.1014  0.1014  0.0000  0.0000  0.0000  0.0000  0.0000 </r>
        <r>  0.0000  0.0000  0.1014  0.1014  0.0000  0.0000  0.0000  0.0000  0.0000 </r>
       </set>
       <set comment="band 5">
        <r>  0.0266  0.1076  0.0000  0.0000  0.0000  0.0000  0.0000  0.0000  0.0000 </r>
        <r>  0.0266  0.1076  0.0000  0.0000  0.0000  0.0000  0.0000  0.0000  0.0000 </r>
       </set>
       <set comment="band 6">
        <r>  0.0039  0.0018  0.0806  0.0805  0.0000  0.0000  0.0000  0.0000  0.0000 </r>
        <r>  0.0039  0.0018  0.0805  0.0805  0.0000  0.0000  0.0000  0.0000  0.0000 </r>
       </set>
       <set comment="band 7">
        <r>  0.0000  0.0000  0.0829  0.0829  0.0000  0.0000  0.0000  0.0000  0.0000 </r>
        <r>  0.0000  0.0000  0.0829  0.0829  0.0000  0.0000  0.0000  0.0000  0.0000 </r>
       </set>
       <set comment="band 8">
        <r>  0.1416  0.0693  0.0019  0.0019  0.0000  0.0000  0.0000  0.0000  0.0000 </r>
        <r>  0.1415  0.0693  0.0019  0.0019  0.0000  0.0000  0.0000  0.0000  0.0000 </r>
       </set>
      </set>
      <set comment="kpoint 54">
       <set comment="band 1">
        <r>  0.2109  0.0053  0.0000  0.0000  0.0000  0.0000  0.0000  0.0000  0.0000 </r>
        <r>  0.2109  0.0053  0.0000  0.0000  0.0000  0.0000  0.0000  0.0000  0.0000 </r>
       </set>
       <set comment="band 2">
        <r>  0.1218  0.1288  0.0001  0.0001  0.0000  0.0000  0.0000  0.0000  0.0000 </r>
        <r>  0.1218  0.1288  0.0001  0.0001  0.0000  0.0000  0.0000  0.0000  0.0000 </r>
       </set>
       <set comment="band 3">
        <r>  0.0001  0.0001  0.1006  0.1006  0.0000  0.0000  0.0000  0.0000  0.0000 </r>
        <r>  0.0001  0.0001  0.1006  0.1006  0.0000  0.0000  0.0000  0.0000  0.0000 </r>
       </set>
       <set comment="band 4">
        <r>  0.0000  0.0000  0.1011  0.1011  0.0000  0.0000  0.0000  0.0000  0.0000 </r>
        <r>  0.0000  0.0000  0.1011  0.1011  0.0000  0.0000  0.0000  0.0000  0.0000 </r>
       </set>
       <set comment="band 5">
        <r>  0.0293  0.1031  0.0000  0.0000  0.0000  0.0000  0.0000  0.0000  0.0000 </r>
        <r>  0.0293  0.1031  0.0000  0.0000  0.0000  0.0000  0.0000  0.0000  0.0000 </r>
       </set>
       <set comment="band 6">
        <r>  0.0805  0.0442  0.0272  0.0272  0.0000  0.0000  0.0000  0.0000  0.0000 </r>
        <r>  0.0805  0.0442  0.0272  0.0272  0.0000  0.0000  0.0000  0.0000  0.0000 </r>
       </set>
       <set comment="band 7">
        <r>  0.0362  0.0205  0.0555  0.0555  0.0000  0.0000  0.0000  0.0000  0.0000 </r>
        <r>  0.0362  0.0205  0.0555  0.0555  0.0000  0.0000  0.0000  0.0000  0.0000 </r>
       </set>
       <set comment="band 8">
        <r>  0.0000  0.0000  0.0832  0.0832  0.0000  0.0000  0.0000  0.0000  0.0000 </r>
        <r>  0.0000  0.0000  0.0832  0.0832  0.0000  0.0000  0.0000  0.0000  0.0000 </r>
       </set>
      </set>
      <set comment="kpoint 55">
       <set comment="band 1">
        <r>  0.2105  0.0062  0.0000  0.0000  0.0000  0.0000  0.0000  0.0000  0.0000 </r>
        <r>  0.2105  0.0062  0.0000  0.0000  0.0000  0.0000  0.0000  0.0000  0.0000 </r>
       </set>
       <set comment="band 2">
        <r>  0.1283  0.1236  0.0000  0.0000  0.0000  0.0000  0.0000  0.0000  0.0000 </r>
        <r>  0.1283  0.1236  0.0000  0.0000  0.0000  0.0000  0.0000  0.0000  0.0000 </r>
       </set>
       <set comment="band 3">
        <r>  0.0000  0.0001  0.1003  0.1003  0.0000  0.0000  0.0000  0.0000  0.0000 </r>
        <r>  0.0000  0.0001  0.1003  0.1003  0.0000  0.0000  0.0000  0.0000  0.0000 </r>
       </set>
       <set comment="band 4">
        <r>  0.0000  0.0000  0.1008  0.1008  0.0000  0.0000  0.0000  0.0000  0.0000 </r>
        <r>  0.0000  0.0000  0.1008  0.1008  0.0000  0.0000  0.0000  0.0000  0.0000 </r>
       </set>
       <set comment="band 5">
        <r>  0.0317  0.0986  0.0000  0.0000  0.0000  0.0000  0.0000  0.0000  0.0000 </r>
        <r>  0.0317  0.0986  0.0000  0.0000  0.0000  0.0000  0.0000  0.0000  0.0000 </r>
       </set>
       <set comment="band 6">
        <r>  0.0943  0.0579  0.0006  0.0006  0.0000  0.0000  0.0000  0.0000  0.0000 </r>
        <r>  0.0943  0.0579  0.0006  0.0006  0.0000  0.0000  0.0000  0.0000  0.0000 </r>
       </set>
       <set comment="band 7">
        <r>  0.0003  0.0003  0.0823  0.0823  0.0000  0.0000  0.0000  0.0000  0.0000 </r>
        <r>  0.0003  0.0003  0.0823  0.0823  0.0000  0.0000  0.0000  0.0000  0.0000 </r>
       </set>
       <set comment="band 8">
        <r>  0.0000  0.0000  0.0834  0.0834  0.0000  0.0000  0.0000  0.0000  0.0000 </r>
        <r>  0.0000  0.0000  0.0834  0.0834  0.0000  0.0000  0.0000  0.0000  0.0000 </r>
       </set>
      </set>
      <set comment="kpoint 56">
       <set comment="band 1">
        <r>  0.2101  0.0071  0.0000  0.0000  0.0000  0.0000  0.0000  0.0000  0.0000 </r>
        <r>  0.2101  0.0071  0.0000  0.0000  0.0000  0.0000  0.0000  0.0000  0.0000 </r>
       </set>
       <set comment="band 2">
        <r>  0.1341  0.1189  0.0000  0.0000  0.0000  0.0000  0.0000  0.0000  0.0000 </r>
        <r>  0.1341  0.1189  0.0000  0.0000  0.0000  0.0000  0.0000  0.0000  0.0000 </r>
       </set>
       <set comment="band 3">
        <r>  0.0000  0.0000  0.1001  0.1001  0.0000  0.0000  0.0000  0.0000  0.0000 </r>
        <r>  0.0000  0.0000  0.1001  0.1001  0.0000  0.0000  0.0000  0.0000  0.0000 </r>
       </set>
       <set comment="band 4">
        <r>  0.0000  0.0000  0.1005  0.1005  0.0000  0.0000  0.0000  0.0000  0.0000 </r>
        <r>  0.0000  0.0000  0.1005  0.1005  0.0000  0.0000  0.0000  0.0000  0.0000 </r>
       </set>
       <set comment="band 5">
        <r>  0.0341  0.0943  0.0000  0.0000  0.0000  0.0000  0.0000  0.0000  0.0000 </r>
        <r>  0.0341  0.0943  0.0000  0.0000  0.0000  0.0000  0.0000  0.0000  0.0000 </r>
       </set>
       <set comment="band 6">
        <r>  0.0788  0.0527  0.0001  0.0001  0.0000  0.0000  0.0000  0.0000  0.0000 </r>
        <r>  0.0788  0.0527  0.0001  0.0001  0.0000  0.0000  0.0000  0.0000  0.0000 </r>
       </set>
       <set comment="band 7">
        <r>  0.0000  0.0000  0.0829  0.0829  0.0000  0.0000  0.0000  0.0000  0.0000 </r>
        <r>  0.0000  0.0000  0.0829  0.0829  0.0000  0.0000  0.0000  0.0000  0.0000 </r>
       </set>
       <set comment="band 8">
        <r>  0.0000  0.0000  0.0835  0.0835  0.0000  0.0000  0.0000  0.0000  0.0000 </r>
        <r>  0.0000  0.0000  0.0835  0.0835  0.0000  0.0000  0.0000  0.0000  0.0000 </r>
       </set>
      </set>
      <set comment="kpoint 57">
       <set comment="band 1">
        <r>  0.2097  0.0081  0.0000  0.0000  0.0000  0.0000  0.0000  0.0000  0.0000 </r>
        <r>  0.2097  0.0081  0.0000  0.0000  0.0000  0.0000  0.0000  0.0000  0.0000 </r>
       </set>
       <set comment="band 2">
        <r>  0.1395  0.1144  0.0000  0.0000  0.0000  0.0000  0.0000  0.0000  0.0000 </r>
        <r>  0.1395  0.1144  0.0000  0.0000  0.0000  0.0000  0.0000  0.0000  0.0000 </r>
       </set>
       <set comment="band 3">
        <r>  0.0000  0.0000  0.0999  0.0999  0.0000  0.0000  0.0000  0.0000  0.0000 </r>
        <r>  0.0000  0.0000  0.0999  0.0999  0.0000  0.0000  0.0000  0.0000  0.0000 </r>
       </set>
       <set comment="band 4">
        <r>  0.0000  0.0000  0.1003  0.1003  0.0000  0.0000  0.0000  0.0000  0.0000 </r>
        <r>  0.0000  0.0000  0.1003  0.1003  0.0000  0.0000  0.0000  0.0000  0.0000 </r>
       </set>
       <set comment="band 5">
        <r>  0.0363  0.0902  0.0000  0.0000  0.0000  0.0000  0.0000  0.0000  0.0000 </r>
        <r>  0.0363  0.0902  0.0000  0.0000  0.0000  0.0000  0.0000  0.0000  0.0000 </r>
       </set>
       <set comment="band 6">
        <r>  0.0676  0.0481  0.0000  0.0000  0.0000  0.0000  0.0000  0.0000  0.0000 </r>
        <r>  0.0676  0.0481  0.0000  0.0000  0.0000  0.0000  0.0000  0.0000  0.0000 </r>
       </set>
       <set comment="band 7">
        <r>  0.0000  0.0000  0.0832  0.0830  0.0000  0.0000  0.0000  0.0000  0.0000 </r>
        <r>  0.0000  0.0000  0.0830  0.0831  0.0000  0.0000  0.0000  0.0000  0.0000 </r>
       </set>
       <set comment="band 8">
        <r>  0.0000  0.0000  0.0835  0.0837  0.0000  0.0000  0.0000  0.0000  0.0000 </r>
        <r>  0.0000  0.0000  0.0837  0.0836  0.0000  0.0000  0.0000  0.0000  0.0000 </r>
       </set>
      </set>
      <set comment="kpoint 58">
       <set comment="band 1">
        <r>  0.2092  0.0091  0.0000  0.0000  0.0000  0.0000  0.0000  0.0000  0.0000 </r>
        <r>  0.2092  0.0091  0.0000  0.0000  0.0000  0.0000  0.0000  0.0000  0.0000 </r>
       </set>
       <set comment="band 2">
        <r>  0.1444  0.1101  0.0000  0.0000  0.0000  0.0000  0.0000  0.0000  0.0000 </r>
        <r>  0.1444  0.1101  0.0000  0.0000  0.0000  0.0000  0.0000  0.0000  0.0000 </r>
       </set>
       <set comment="band 3">
        <r>  0.0000  0.0000  0.0997  0.0997  0.0000  0.0000  0.0000  0.0000  0.0000 </r>
        <r>  0.0000  0.0000  0.0997  0.0997  0.0000  0.0000  0.0000  0.0000  0.0000 </r>
       </set>
       <set comment="band 4">
        <r>  0.0000  0.0000  0.1001  0.1001  0.0000  0.0000  0.0000  0.0000  0.0000 </r>
        <r>  0.0000  0.0000  0.1001  0.1001  0.0000  0.0000  0.0000  0.0000  0.0000 </r>
       </set>
       <set comment="band 5">
        <r>  0.0384  0.0862  0.0000  0.0000  0.0000  0.0000  0.0000  0.0000  0.0000 </r>
        <r>  0.0384  0.0862  0.0000  0.0000  0.0000  0.0000  0.0000  0.0000  0.0000 </r>
       </set>
       <set comment="band 6">
        <r>  0.0598  0.0444  0.0000  0.0000  0.0000  0.0000  0.0000  0.0000  0.0000 </r>
        <r>  0.0598  0.0444  0.0000  0.0000  0.0000  0.0000  0.0000  0.0000  0.0000 </r>
       </set>
       <set comment="band 7">
        <r>  0.0000  0.0000  0.0832  0.0831  0.0000  0.0000  0.0000  0.0000  0.0000 </r>
        <r>  0.0000  0.0000  0.0832  0.0832  0.0000  0.0000  0.0000  0.0000  0.0000 </r>
       </set>
       <set comment="band 8">
        <r>  0.0000  0.0000  0.0836  0.0836  0.0000  0.0000  0.0000  0.0000  0.0000 </r>
        <r>  0.0000  0.0000  0.0836  0.0836  0.0000  0.0000  0.0000  0.0000  0.0000 </r>
       </set>
      </set>
      <set comment="kpoint 59">
       <set comment="band 1">
        <r>  0.2087  0.0102  0.0000  0.0000  0.0000  0.0000  0.0000  0.0000  0.0000 </r>
        <r>  0.2087  0.0102  0.0000  0.0000  0.0000  0.0000  0.0000  0.0000  0.0000 </r>
       </set>
       <set comment="band 2">
        <r>  0.1489  0.1061  0.0000  0.0000  0.0000  0.0000  0.0000  0.0000  0.0000 </r>
        <r>  0.1489  0.1061  0.0000  0.0000  0.0000  0.0000  0.0000  0.0000  0.0000 </r>
       </set>
       <set comment="band 3">
        <r>  0.0000  0.0000  0.0995  0.0995  0.0000  0.0000  0.0000  0.0000  0.0000 </r>
        <r>  0.0000  0.0000  0.0995  0.0995  0.0000  0.0000  0.0000  0.0000  0.0000 </r>
       </set>
       <set comment="band 4">
        <r>  0.0000  0.0000  0.1000  0.1000  0.0000  0.0000  0.0000  0.0000  0.0000 </r>
        <r>  0.0000  0.0000  0.1000  0.1000  0.0000  0.0000  0.0000  0.0000  0.0000 </r>
       </set>
       <set comment="band 5">
        <r>  0.0403  0.0824  0.0000  0.0000  0.0000  0.0000  0.0000  0.0000  0.0000 </r>
        <r>  0.0403  0.0824  0.0000  0.0000  0.0000  0.0000  0.0000  0.0000  0.0000 </r>
       </set>
       <set comment="band 6">
        <r>  0.0543  0.0414  0.0000  0.0000  0.0000  0.0000  0.0000  0.0000  0.0000 </r>
        <r>  0.0543  0.0414  0.0000  0.0000  0.0000  0.0000  0.0000  0.0000  0.0000 </r>
       </set>
       <set comment="band 7">
        <r>  0.0001  0.0000  0.0831  0.0832  0.0000  0.0000  0.0000  0.0000  0.0000 </r>
        <r>  0.0001  0.0000  0.0831  0.0831  0.0000  0.0000  0.0000  0.0000  0.0000 </r>
       </set>
       <set comment="band 8">
        <r>  0.0000  0.0000  0.0836  0.0836  0.0000  0.0000  0.0000  0.0000  0.0000 </r>
        <r>  0.0000  0.0000  0.0836  0.0836  0.0000  0.0000  0.0000  0.0000  0.0000 </r>
       </set>
      </set>
      <set comment="kpoint 60">
       <set comment="band 1">
        <r>  0.2082  0.0113  0.0000  0.0000  0.0000  0.0000  0.0000  0.0000  0.0000 </r>
        <r>  0.2082  0.0113  0.0000  0.0000  0.0000  0.0000  0.0000  0.0000  0.0000 </r>
       </set>
       <set comment="band 2">
        <r>  0.1531  0.1022  0.0000  0.0000  0.0000  0.0000  0.0000  0.0000  0.0000 </r>
        <r>  0.1531  0.1022  0.0000  0.0000  0.0000  0.0000  0.0000  0.0000  0.0000 </r>
       </set>
       <set comment="band 3">
        <r>  0.0000  0.0000  0.0994  0.0994  0.0000  0.0000  0.0000  0.0000  0.0000 </r>
        <r>  0.0000  0.0000  0.0994  0.0994  0.0000  0.0000  0.0000  0.0000  0.0000 </r>
       </set>
       <set comment="band 4">
        <r>  0.0000  0.0000  0.0998  0.0998  0.0000  0.0000  0.0000  0.0000  0.0000 </r>
        <r>  0.0000  0.0000  0.0998  0.0998  0.0000  0.0000  0.0000  0.0000  0.0000 </r>
       </set>
       <set comment="band 5">
        <r>  0.0421  0.0788  0.0000  0.0000  0.0000  0.0000  0.0000  0.0000  0.0000 </r>
        <r>  0.0421  0.0788  0.0000  0.0000  0.0000  0.0000  0.0000  0.0000  0.0000 </r>
       </set>
       <set comment="band 6">
        <r>  0.0504  0.0389  0.0000  0.0000  0.0000  0.0000  0.0000  0.0000  0.0000 </r>
        <r>  0.0504  0.0389  0.0000  0.0000  0.0000  0.0000  0.0000  0.0000  0.0000 </r>
       </set>
       <set comment="band 7">
        <r>  0.0001  0.0000  0.0831  0.0831  0.0000  0.0000  0.0000  0.0000  0.0000 </r>
        <r>  0.0001  0.0000  0.0831  0.0831  0.0000  0.0000  0.0000  0.0000  0.0000 </r>
       </set>
       <set comment="band 8">
        <r>  0.0000  0.0000  0.0836  0.0836  0.0000  0.0000  0.0000  0.0000  0.0000 </r>
        <r>  0.0000  0.0000  0.0836  0.0836  0.0000  0.0000  0.0000  0.0000  0.0000 </r>
       </set>
      </set>
      <set comment="kpoint 61">
       <set comment="band 1">
        <r>  0.2077  0.0125  0.0000  0.0000  0.0000  0.0000  0.0000  0.0000  0.0000 </r>
        <r>  0.2077  0.0125  0.0000  0.0000  0.0000  0.0000  0.0000  0.0000  0.0000 </r>
       </set>
       <set comment="band 2">
        <r>  0.1569  0.0986  0.0000  0.0000  0.0000  0.0000  0.0000  0.0000  0.0000 </r>
        <r>  0.1569  0.0986  0.0000  0.0000  0.0000  0.0000  0.0000  0.0000  0.0000 </r>
       </set>
       <set comment="band 3">
        <r>  0.0000  0.0000  0.0993  0.0993  0.0000  0.0000  0.0000  0.0000  0.0000 </r>
        <r>  0.0000  0.0000  0.0993  0.0993  0.0000  0.0000  0.0000  0.0000  0.0000 </r>
       </set>
       <set comment="band 4">
        <r>  0.0000  0.0000  0.0997  0.0997  0.0000  0.0000  0.0000  0.0000  0.0000 </r>
        <r>  0.0000  0.0000  0.0997  0.0997  0.0000  0.0000  0.0000  0.0000  0.0000 </r>
       </set>
       <set comment="band 5">
        <r>  0.0437  0.0753  0.0000  0.0000  0.0000  0.0000  0.0000  0.0000  0.0000 </r>
        <r>  0.0437  0.0753  0.0000  0.0000  0.0000  0.0000  0.0000  0.0000  0.0000 </r>
       </set>
       <set comment="band 6">
        <r>  0.0477  0.0369  0.0000  0.0000  0.0000  0.0000  0.0000  0.0000  0.0000 </r>
        <r>  0.0477  0.0369  0.0000  0.0000  0.0000  0.0000  0.0000  0.0000  0.0000 </r>
       </set>
       <set comment="band 7">
        <r>  0.0001  0.0001  0.0831  0.0830  0.0000  0.0000  0.0000  0.0000  0.0000 </r>
        <r>  0.0001  0.0001  0.0830  0.0831  0.0000  0.0000  0.0000  0.0000  0.0000 </r>
       </set>
       <set comment="band 8">
        <r>  0.0000  0.0000  0.0834  0.0837  0.0000  0.0000  0.0000  0.0000  0.0000 </r>
        <r>  0.0000  0.0000  0.0837  0.0834  0.0000  0.0000  0.0000  0.0000  0.0000 </r>
       </set>
      </set>
      <set comment="kpoint 62">
       <set comment="band 1">
        <r>  0.2071  0.0138  0.0000  0.0000  0.0000  0.0000  0.0000  0.0000  0.0000 </r>
        <r>  0.2071  0.0138  0.0000  0.0000  0.0000  0.0000  0.0000  0.0000  0.0000 </r>
       </set>
       <set comment="band 2">
        <r>  0.1604  0.0951  0.0000  0.0000  0.0000  0.0000  0.0000  0.0000  0.0000 </r>
        <r>  0.1604  0.0951  0.0000  0.0000  0.0000  0.0000  0.0000  0.0000  0.0000 </r>
       </set>
       <set comment="band 3">
        <r>  0.0000  0.0000  0.0992  0.0992  0.0000  0.0000  0.0000  0.0000  0.0000 </r>
        <r>  0.0000  0.0000  0.0992  0.0992  0.0000  0.0000  0.0000  0.0000  0.0000 </r>
       </set>
       <set comment="band 4">
        <r>  0.0000  0.0000  0.0996  0.0996  0.0000  0.0000  0.0000  0.0000  0.0000 </r>
        <r>  0.0000  0.0000  0.0996  0.0996  0.0000  0.0000  0.0000  0.0000  0.0000 </r>
       </set>
       <set comment="band 5">
        <r>  0.0452  0.0721  0.0000  0.0000  0.0000  0.0000  0.0000  0.0000  0.0000 </r>
        <r>  0.0452  0.0721  0.0000  0.0000  0.0000  0.0000  0.0000  0.0000  0.0000 </r>
       </set>
       <set comment="band 6">
        <r>  0.0459  0.0353  0.0000  0.0000  0.0000  0.0000  0.0000  0.0000  0.0000 </r>
        <r>  0.0459  0.0353  0.0000  0.0000  0.0000  0.0000  0.0000  0.0000  0.0000 </r>
       </set>
       <set comment="band 7">
        <r>  0.0001  0.0001  0.0830  0.0830  0.0000  0.0000  0.0000  0.0000  0.0000 </r>
        <r>  0.0001  0.0001  0.0830  0.0830  0.0000  0.0000  0.0000  0.0000  0.0000 </r>
       </set>
       <set comment="band 8">
        <r>  0.0000  0.0000  0.0836  0.0836  0.0000  0.0000  0.0000  0.0000  0.0000 </r>
        <r>  0.0000  0.0000  0.0836  0.0836  0.0000  0.0000  0.0000  0.0000  0.0000 </r>
       </set>
      </set>
      <set comment="kpoint 63">
       <set comment="band 1">
        <r>  0.2066  0.0151  0.0000  0.0000  0.0000  0.0000  0.0000  0.0000  0.0000 </r>
        <r>  0.2066  0.0151  0.0000  0.0000  0.0000  0.0000  0.0000  0.0000  0.0000 </r>
       </set>
       <set comment="band 2">
        <r>  0.1636  0.0916  0.0000  0.0000  0.0000  0.0000  0.0000  0.0000  0.0000 </r>
        <r>  0.1636  0.0916  0.0000  0.0000  0.0000  0.0000  0.0000  0.0000  0.0000 </r>
       </set>
       <set comment="band 3">
        <r>  0.0000  0.0000  0.0991  0.0991  0.0000  0.0000  0.0000  0.0000  0.0000 </r>
        <r>  0.0000  0.0000  0.0991  0.0991  0.0000  0.0000  0.0000  0.0000  0.0000 </r>
       </set>
       <set comment="band 4">
        <r>  0.0000  0.0000  0.0996  0.0996  0.0000  0.0000  0.0000  0.0000  0.0000 </r>
        <r>  0.0000  0.0000  0.0996  0.0996  0.0000  0.0000  0.0000  0.0000  0.0000 </r>
       </set>
       <set comment="band 5">
        <r>  0.0465  0.0689  0.0000  0.0000  0.0000  0.0000  0.0000  0.0000  0.0000 </r>
        <r>  0.0465  0.0689  0.0000  0.0000  0.0000  0.0000  0.0000  0.0000  0.0000 </r>
       </set>
       <set comment="band 6">
        <r>  0.0447  0.0340  0.0000  0.0000  0.0000  0.0000  0.0000  0.0000  0.0000 </r>
        <r>  0.0447  0.0340  0.0000  0.0000  0.0000  0.0000  0.0000  0.0000  0.0000 </r>
       </set>
       <set comment="band 7">
        <r>  0.0001  0.0001  0.0829  0.0829  0.0000  0.0000  0.0000  0.0000  0.0000 </r>
        <r>  0.0001  0.0001  0.0829  0.0830  0.0000  0.0000  0.0000  0.0000  0.0000 </r>
       </set>
       <set comment="band 8">
        <r>  0.0000  0.0000  0.0834  0.0835  0.0000  0.0000  0.0000  0.0000  0.0000 </r>
        <r>  0.0000  0.0000  0.0836  0.0834  0.0000  0.0000  0.0000  0.0000  0.0000 </r>
       </set>
      </set>
      <set comment="kpoint 64">
       <set comment="band 1">
        <r>  0.2060  0.0165  0.0000  0.0000  0.0000  0.0000  0.0000  0.0000  0.0000 </r>
        <r>  0.2060  0.0165  0.0000  0.0000  0.0000  0.0000  0.0000  0.0000  0.0000 </r>
       </set>
       <set comment="band 2">
        <r>  0.1666  0.0884  0.0000  0.0000  0.0000  0.0000  0.0000  0.0000  0.0000 </r>
        <r>  0.1666  0.0884  0.0000  0.0000  0.0000  0.0000  0.0000  0.0000  0.0000 </r>
       </set>
       <set comment="band 3">
        <r>  0.0000  0.0000  0.0991  0.0991  0.0000  0.0000  0.0000  0.0000  0.0000 </r>
        <r>  0.0000  0.0000  0.0991  0.0991  0.0000  0.0000  0.0000  0.0000  0.0000 </r>
       </set>
       <set comment="band 4">
        <r>  0.0000  0.0000  0.0995  0.0995  0.0000  0.0000  0.0000  0.0000  0.0000 </r>
        <r>  0.0000  0.0000  0.0995  0.0995  0.0000  0.0000  0.0000  0.0000  0.0000 </r>
       </set>
       <set comment="band 5">
        <r>  0.0477  0.0660  0.0000  0.0000  0.0000  0.0000  0.0000  0.0000  0.0000 </r>
        <r>  0.0477  0.0660  0.0000  0.0000  0.0000  0.0000  0.0000  0.0000  0.0000 </r>
       </set>
       <set comment="band 6">
        <r>  0.0440  0.0329  0.0000  0.0000  0.0000  0.0000  0.0000  0.0000  0.0000 </r>
        <r>  0.0440  0.0329  0.0000  0.0000  0.0000  0.0000  0.0000  0.0000  0.0000 </r>
       </set>
       <set comment="band 7">
        <r>  0.0001  0.0001  0.0828  0.0828  0.0000  0.0000  0.0000  0.0000  0.0000 </r>
        <r>  0.0001  0.0001  0.0828  0.0828  0.0000  0.0000  0.0000  0.0000  0.0000 </r>
       </set>
       <set comment="band 8">
        <r>  0.0000  0.0000  0.0834  0.0834  0.0000  0.0000  0.0000  0.0000  0.0000 </r>
        <r>  0.0000  0.0000  0.0834  0.0834  0.0000  0.0000  0.0000  0.0000  0.0000 </r>
       </set>
      </set>
      <set comment="kpoint 65">
       <set comment="band 1">
        <r>  0.2053  0.0179  0.0000  0.0000  0.0000  0.0000  0.0000  0.0000  0.0000 </r>
        <r>  0.2053  0.0179  0.0000  0.0000  0.0000  0.0000  0.0000  0.0000  0.0000 </r>
       </set>
       <set comment="band 2">
        <r>  0.1693  0.0852  0.0000  0.0000  0.0000  0.0000  0.0000  0.0000  0.0000 </r>
        <r>  0.1693  0.0852  0.0000  0.0000  0.0000  0.0000  0.0000  0.0000  0.0000 </r>
       </set>
       <set comment="band 3">
        <r>  0.0000  0.0000  0.0990  0.0990  0.0000  0.0000  0.0000  0.0000  0.0000 </r>
        <r>  0.0000  0.0000  0.0990  0.0990  0.0000  0.0000  0.0000  0.0000  0.0000 </r>
       </set>
       <set comment="band 4">
        <r>  0.0000  0.0000  0.0994  0.0994  0.0000  0.0000  0.0000  0.0000  0.0000 </r>
        <r>  0.0000  0.0000  0.0994  0.0994  0.0000  0.0000  0.0000  0.0000  0.0000 </r>
       </set>
       <set comment="band 5">
        <r>  0.0488  0.0631  0.0000  0.0000  0.0000  0.0000  0.0000  0.0000  0.0000 </r>
        <r>  0.0488  0.0631  0.0000  0.0000  0.0000  0.0000  0.0000  0.0000  0.0000 </r>
       </set>
       <set comment="band 6">
        <r>  0.0437  0.0320  0.0000  0.0000  0.0000  0.0000  0.0000  0.0000  0.0000 </r>
        <r>  0.0437  0.0320  0.0000  0.0000  0.0000  0.0000  0.0000  0.0000  0.0000 </r>
       </set>
       <set comment="band 7">
        <r>  0.0001  0.0001  0.0827  0.0827  0.0000  0.0000  0.0000  0.0000  0.0000 </r>
        <r>  0.0001  0.0001  0.0827  0.0827  0.0000  0.0000  0.0000  0.0000  0.0000 </r>
       </set>
       <set comment="band 8">
        <r>  0.0000  0.0000  0.0832  0.0832  0.0000  0.0000  0.0000  0.0000  0.0000 </r>
        <r>  0.0000  0.0000  0.0832  0.0832  0.0000  0.0000  0.0000  0.0000  0.0000 </r>
       </set>
      </set>
      <set comment="kpoint 66">
       <set comment="band 1">
        <r>  0.2047  0.0194  0.0000  0.0000  0.0000  0.0000  0.0000  0.0000  0.0000 </r>
        <r>  0.2047  0.0194  0.0000  0.0000  0.0000  0.0000  0.0000  0.0000  0.0000 </r>
       </set>
       <set comment="band 2">
        <r>  0.1718  0.0821  0.0000  0.0000  0.0000  0.0000  0.0000  0.0000  0.0000 </r>
        <r>  0.1718  0.0821  0.0000  0.0000  0.0000  0.0000  0.0000  0.0000  0.0000 </r>
       </set>
       <set comment="band 3">
        <r>  0.0000  0.0000  0.0990  0.0990  0.0000  0.0000  0.0000  0.0000  0.0000 </r>
        <r>  0.0000  0.0000  0.0990  0.0990  0.0000  0.0000  0.0000  0.0000  0.0000 </r>
       </set>
       <set comment="band 4">
        <r>  0.0000  0.0000  0.0994  0.0994  0.0000  0.0000  0.0000  0.0000  0.0000 </r>
        <r>  0.0000  0.0000  0.0994  0.0994  0.0000  0.0000  0.0000  0.0000  0.0000 </r>
       </set>
       <set comment="band 5">
        <r>  0.0498  0.0604  0.0000  0.0000  0.0000  0.0000  0.0000  0.0000  0.0000 </r>
        <r>  0.0498  0.0604  0.0000  0.0000  0.0000  0.0000  0.0000  0.0000  0.0000 </r>
       </set>
       <set comment="band 6">
        <r>  0.0436  0.0314  0.0000  0.0000  0.0000  0.0000  0.0000  0.0000  0.0000 </r>
        <r>  0.0436  0.0314  0.0000  0.0000  0.0000  0.0000  0.0000  0.0000  0.0000 </r>
       </set>
       <set comment="band 7">
        <r>  0.0001  0.0001  0.0825  0.0825  0.0000  0.0000  0.0000  0.0000  0.0000 </r>
        <r>  0.0001  0.0001  0.0825  0.0825  0.0000  0.0000  0.0000  0.0000  0.0000 </r>
       </set>
       <set comment="band 8">
        <r>  0.0000  0.0000  0.0831  0.0831  0.0000  0.0000  0.0000  0.0000  0.0000 </r>
        <r>  0.0000  0.0000  0.0831  0.0831  0.0000  0.0000  0.0000  0.0000  0.0000 </r>
       </set>
      </set>
      <set comment="kpoint 67">
       <set comment="band 1">
        <r>  0.2040  0.0209  0.0000  0.0000  0.0000  0.0000  0.0000  0.0000  0.0000 </r>
        <r>  0.2040  0.0209  0.0000  0.0000  0.0000  0.0000  0.0000  0.0000  0.0000 </r>
       </set>
       <set comment="band 2">
        <r>  0.1742  0.0791  0.0000  0.0000  0.0000  0.0000  0.0000  0.0000  0.0000 </r>
        <r>  0.1742  0.0791  0.0000  0.0000  0.0000  0.0000  0.0000  0.0000  0.0000 </r>
       </set>
       <set comment="band 3">
        <r>  0.0000  0.0000  0.0989  0.0989  0.0000  0.0000  0.0000  0.0000  0.0000 </r>
        <r>  0.0000  0.0000  0.0989  0.0989  0.0000  0.0000  0.0000  0.0000  0.0000 </r>
       </set>
       <set comment="band 4">
        <r>  0.0000  0.0000  0.0994  0.0994  0.0000  0.0000  0.0000  0.0000  0.0000 </r>
        <r>  0.0000  0.0000  0.0994  0.0994  0.0000  0.0000  0.0000  0.0000  0.0000 </r>
       </set>
       <set comment="band 5">
        <r>  0.0507  0.0578  0.0000  0.0000  0.0000  0.0000  0.0000  0.0000  0.0000 </r>
        <r>  0.0507  0.0578  0.0000  0.0000  0.0000  0.0000  0.0000  0.0000  0.0000 </r>
       </set>
       <set comment="band 6">
        <r>  0.0438  0.0308  0.0000  0.0000  0.0000  0.0000  0.0000  0.0000  0.0000 </r>
        <r>  0.0438  0.0308  0.0000  0.0000  0.0000  0.0000  0.0000  0.0000  0.0000 </r>
       </set>
       <set comment="band 7">
        <r>  0.0001  0.0001  0.0824  0.0824  0.0000  0.0000  0.0000  0.0000  0.0000 </r>
        <r>  0.0001  0.0001  0.0825  0.0824  0.0000  0.0000  0.0000  0.0000  0.0000 </r>
       </set>
       <set comment="band 8">
        <r>  0.0000  0.0000  0.0829  0.0829  0.0000  0.0000  0.0000  0.0000  0.0000 </r>
        <r>  0.0000  0.0000  0.0829  0.0829  0.0000  0.0000  0.0000  0.0000  0.0000 </r>
       </set>
      </set>
      <set comment="kpoint 68">
       <set comment="band 1">
        <r>  0.2033  0.0225  0.0000  0.0000  0.0000  0.0000  0.0000  0.0000  0.0000 </r>
        <r>  0.2033  0.0225  0.0000  0.0000  0.0000  0.0000  0.0000  0.0000  0.0000 </r>
       </set>
       <set comment="band 2">
        <r>  0.1763  0.0762  0.0000  0.0000  0.0000  0.0000  0.0000  0.0000  0.0000 </r>
        <r>  0.1763  0.0762  0.0000  0.0000  0.0000  0.0000  0.0000  0.0000  0.0000 </r>
       </set>
       <set comment="band 3">
        <r>  0.0000  0.0000  0.0989  0.0989  0.0000  0.0000  0.0000  0.0000  0.0000 </r>
        <r>  0.0000  0.0000  0.0989  0.0989  0.0000  0.0000  0.0000  0.0000  0.0000 </r>
       </set>
       <set comment="band 4">
        <r>  0.0000  0.0000  0.0994  0.0994  0.0000  0.0000  0.0000  0.0000  0.0000 </r>
        <r>  0.0000  0.0000  0.0994  0.0994  0.0000  0.0000  0.0000  0.0000  0.0000 </r>
       </set>
       <set comment="band 5">
        <r>  0.0514  0.0553  0.0000  0.0000  0.0000  0.0000  0.0000  0.0000  0.0000 </r>
        <r>  0.0514  0.0553  0.0000  0.0000  0.0000  0.0000  0.0000  0.0000  0.0000 </r>
       </set>
       <set comment="band 6">
        <r>  0.0441  0.0305  0.0000  0.0000  0.0000  0.0000  0.0000  0.0000  0.0000 </r>
        <r>  0.0441  0.0305  0.0000  0.0000  0.0000  0.0000  0.0000  0.0000  0.0000 </r>
       </set>
       <set comment="band 7">
        <r>  0.0001  0.0001  0.0824  0.0822  0.0000  0.0000  0.0000  0.0000  0.0000 </r>
        <r>  0.0001  0.0001  0.0822  0.0824  0.0000  0.0000  0.0000  0.0000  0.0000 </r>
       </set>
       <set comment="band 8">
        <r>  0.0000  0.0000  0.0827  0.0829  0.0000  0.0000  0.0000  0.0000  0.0000 </r>
        <r>  0.0000  0.0000  0.0829  0.0827  0.0000  0.0000  0.0000  0.0000  0.0000 </r>
       </set>
      </set>
      <set comment="kpoint 69">
       <set comment="band 1">
        <r>  0.2026  0.0242  0.0000  0.0000  0.0000  0.0000  0.0000  0.0000  0.0000 </r>
        <r>  0.2026  0.0242  0.0000  0.0000  0.0000  0.0000  0.0000  0.0000  0.0000 </r>
       </set>
       <set comment="band 2">
        <r>  0.1783  0.0733  0.0000  0.0000  0.0000  0.0000  0.0000  0.0000  0.0000 </r>
        <r>  0.1783  0.0733  0.0000  0.0000  0.0000  0.0000  0.0000  0.0000  0.0000 </r>
       </set>
       <set comment="band 3">
        <r>  0.0000  0.0000  0.0989  0.0989  0.0000  0.0000  0.0000  0.0000  0.0000 </r>
        <r>  0.0000  0.0000  0.0989  0.0989  0.0000  0.0000  0.0000  0.0000  0.0000 </r>
       </set>
       <set comment="band 4">
        <r>  0.0000  0.0000  0.0993  0.0993  0.0000  0.0000  0.0000  0.0000  0.0000 </r>
        <r>  0.0000  0.0000  0.0993  0.0993  0.0000  0.0000  0.0000  0.0000  0.0000 </r>
       </set>
       <set comment="band 5">
        <r>  0.0520  0.0530  0.0000  0.0000  0.0000  0.0000  0.0000  0.0000  0.0000 </r>
        <r>  0.0520  0.0530  0.0000  0.0000  0.0000  0.0000  0.0000  0.0000  0.0000 </r>
       </set>
       <set comment="band 6">
        <r>  0.0446  0.0302  0.0000  0.0000  0.0000  0.0000  0.0000  0.0000  0.0000 </r>
        <r>  0.0446  0.0302  0.0000  0.0000  0.0000  0.0000  0.0000  0.0000  0.0000 </r>
       </set>
       <set comment="band 7">
        <r>  0.0001  0.0001  0.0823  0.0822  0.0000  0.0000  0.0000  0.0000  0.0000 </r>
        <r>  0.0001  0.0001  0.0822  0.0822  0.0000  0.0000  0.0000  0.0000  0.0000 </r>
       </set>
       <set comment="band 8">
        <r>  0.0000  0.0000  0.0827  0.0827  0.0000  0.0000  0.0000  0.0000  0.0000 </r>
        <r>  0.0000  0.0000  0.0827  0.0827  0.0000  0.0000  0.0000  0.0000  0.0000 </r>
       </set>
      </set>
      <set comment="kpoint 70">
       <set comment="band 1">
        <r>  0.2019  0.0259  0.0000  0.0000  0.0000  0.0000  0.0000  0.0000  0.0000 </r>
        <r>  0.2019  0.0259  0.0000  0.0000  0.0000  0.0000  0.0000  0.0000  0.0000 </r>
       </set>
       <set comment="band 2">
        <r>  0.1802  0.0705  0.0000  0.0000  0.0000  0.0000  0.0000  0.0000  0.0000 </r>
        <r>  0.1802  0.0705  0.0000  0.0000  0.0000  0.0000  0.0000  0.0000  0.0000 </r>
       </set>
       <set comment="band 3">
        <r>  0.0000  0.0000  0.0989  0.0989  0.0000  0.0000  0.0000  0.0000  0.0000 </r>
        <r>  0.0000  0.0000  0.0989  0.0989  0.0000  0.0000  0.0000  0.0000  0.0000 </r>
       </set>
       <set comment="band 4">
        <r>  0.0000  0.0000  0.0993  0.0993  0.0000  0.0000  0.0000  0.0000  0.0000 </r>
        <r>  0.0000  0.0000  0.0993  0.0993  0.0000  0.0000  0.0000  0.0000  0.0000 </r>
       </set>
       <set comment="band 5">
        <r>  0.0525  0.0508  0.0000  0.0000  0.0000  0.0000  0.0000  0.0000  0.0000 </r>
        <r>  0.0525  0.0508  0.0000  0.0000  0.0000  0.0000  0.0000  0.0000  0.0000 </r>
       </set>
       <set comment="band 6">
        <r>  0.0451  0.0301  0.0000  0.0000  0.0000  0.0000  0.0000  0.0000  0.0000 </r>
        <r>  0.0451  0.0301  0.0000  0.0000  0.0000  0.0000  0.0000  0.0000  0.0000 </r>
       </set>
       <set comment="band 7">
        <r>  0.0001  0.0001  0.0823  0.0823  0.0000  0.0000  0.0000  0.0000  0.0000 </r>
        <r>  0.0001  0.0001  0.0823  0.0823  0.0000  0.0000  0.0000  0.0000  0.0000 </r>
       </set>
       <set comment="band 8">
        <r>  0.0000  0.0000  0.0828  0.0828  0.0000  0.0000  0.0000  0.0000  0.0000 </r>
        <r>  0.0000  0.0000  0.0828  0.0828  0.0000  0.0000  0.0000  0.0000  0.0000 </r>
       </set>
      </set>
      <set comment="kpoint 71">
       <set comment="band 1">
        <r>  0.2011  0.0276  0.0000  0.0000  0.0000  0.0000  0.0000  0.0000  0.0000 </r>
        <r>  0.2011  0.0276  0.0000  0.0000  0.0000  0.0000  0.0000  0.0000  0.0000 </r>
       </set>
       <set comment="band 2">
        <r>  0.1819  0.0678  0.0000  0.0000  0.0000  0.0000  0.0000  0.0000  0.0000 </r>
        <r>  0.1819  0.0678  0.0000  0.0000  0.0000  0.0000  0.0000  0.0000  0.0000 </r>
       </set>
       <set comment="band 3">
        <r>  0.0000  0.0000  0.0989  0.0989  0.0000  0.0000  0.0000  0.0000  0.0000 </r>
        <r>  0.0000  0.0000  0.0989  0.0989  0.0000  0.0000  0.0000  0.0000  0.0000 </r>
       </set>
       <set comment="band 4">
        <r>  0.0000  0.0000  0.0993  0.0993  0.0000  0.0000  0.0000  0.0000  0.0000 </r>
        <r>  0.0000  0.0000  0.0993  0.0993  0.0000  0.0000  0.0000  0.0000  0.0000 </r>
       </set>
       <set comment="band 5">
        <r>  0.0528  0.0487  0.0000  0.0000  0.0000  0.0000  0.0000  0.0000  0.0000 </r>
        <r>  0.0528  0.0487  0.0000  0.0000  0.0000  0.0000  0.0000  0.0000  0.0000 </r>
       </set>
       <set comment="band 6">
        <r>  0.0458  0.0301  0.0000  0.0000  0.0000  0.0000  0.0000  0.0000  0.0000 </r>
        <r>  0.0458  0.0301  0.0000  0.0000  0.0000  0.0000  0.0000  0.0000  0.0000 </r>
       </set>
       <set comment="band 7">
        <r>  0.0000  0.0000  0.0828  0.0832  0.0000  0.0000  0.0000  0.0000  0.0000 </r>
        <r>  0.0000  0.0000  0.0833  0.0828  0.0000  0.0000  0.0000  0.0000  0.0000 </r>
       </set>
       <set comment="band 8">
        <r>  0.0001  0.0001  0.0827  0.0823  0.0000  0.0000  0.0000  0.0000  0.0000 </r>
        <r>  0.0001  0.0001  0.0822  0.0828  0.0000  0.0000  0.0000  0.0000  0.0000 </r>
       </set>
      </set>
      <set comment="kpoint 72">
       <set comment="band 1">
        <r>  0.2004  0.0294  0.0000  0.0000  0.0000  0.0000  0.0000  0.0000  0.0000 </r>
        <r>  0.2004  0.0294  0.0000  0.0000  0.0000  0.0000  0.0000  0.0000  0.0000 </r>
       </set>
       <set comment="band 2">
        <r>  0.1835  0.0651  0.0000  0.0000  0.0000  0.0000  0.0000  0.0000  0.0000 </r>
        <r>  0.1835  0.0651  0.0000  0.0000  0.0000  0.0000  0.0000  0.0000  0.0000 </r>
       </set>
       <set comment="band 3">
        <r>  0.0000  0.0000  0.0989  0.0989  0.0000  0.0000  0.0000  0.0000  0.0000 </r>
        <r>  0.0000  0.0000  0.0989  0.0989  0.0000  0.0000  0.0000  0.0000  0.0000 </r>
       </set>
       <set comment="band 4">
        <r>  0.0000  0.0000  0.0992  0.0992  0.0000  0.0000  0.0000  0.0000  0.0000 </r>
        <r>  0.0000  0.0000  0.0992  0.0992  0.0000  0.0000  0.0000  0.0000  0.0000 </r>
       </set>
       <set comment="band 5">
        <r>  0.0531  0.0468  0.0000  0.0000  0.0000  0.0000  0.0000  0.0000  0.0000 </r>
        <r>  0.0531  0.0468  0.0000  0.0000  0.0000  0.0000  0.0000  0.0000  0.0000 </r>
       </set>
       <set comment="band 6">
        <r>  0.0465  0.0302  0.0000  0.0000  0.0000  0.0000  0.0000  0.0000  0.0000 </r>
        <r>  0.0465  0.0302  0.0000  0.0000  0.0000  0.0000  0.0000  0.0000  0.0000 </r>
       </set>
       <set comment="band 7">
        <r>  0.0000  0.0000  0.0834  0.0835  0.0000  0.0000  0.0000  0.0000  0.0000 </r>
        <r>  0.0000  0.0000  0.0833  0.0835  0.0000  0.0000  0.0000  0.0000  0.0000 </r>
       </set>
       <set comment="band 8">
        <r>  0.0001  0.0001  0.0829  0.0828  0.0000  0.0000  0.0000  0.0000  0.0000 </r>
        <r>  0.0001  0.0001  0.0828  0.0828  0.0000  0.0000  0.0000  0.0000  0.0000 </r>
       </set>
      </set>
      <set comment="kpoint 73">
       <set comment="band 1">
        <r>  0.1996  0.0313  0.0000  0.0000  0.0000  0.0000  0.0000  0.0000  0.0000 </r>
        <r>  0.1996  0.0313  0.0000  0.0000  0.0000  0.0000  0.0000  0.0000  0.0000 </r>
       </set>
       <set comment="band 2">
        <r>  0.1850  0.0625  0.0000  0.0000  0.0000  0.0000  0.0000  0.0000  0.0000 </r>
        <r>  0.1850  0.0625  0.0000  0.0000  0.0000  0.0000  0.0000  0.0000  0.0000 </r>
       </set>
       <set comment="band 3">
        <r>  0.0000  0.0000  0.0988  0.0988  0.0000  0.0000  0.0000  0.0000  0.0000 </r>
        <r>  0.0000  0.0000  0.0988  0.0988  0.0000  0.0000  0.0000  0.0000  0.0000 </r>
       </set>
       <set comment="band 4">
        <r>  0.0000  0.0000  0.0992  0.0992  0.0000  0.0000  0.0000  0.0000  0.0000 </r>
        <r>  0.0000  0.0000  0.0992  0.0992  0.0000  0.0000  0.0000  0.0000  0.0000 </r>
       </set>
       <set comment="band 5">
        <r>  0.0532  0.0450  0.0000  0.0000  0.0000  0.0000  0.0000  0.0000  0.0000 </r>
        <r>  0.0532  0.0450  0.0000  0.0000  0.0000  0.0000  0.0000  0.0000  0.0000 </r>
       </set>
       <set comment="band 6">
        <r>  0.0472  0.0304  0.0000  0.0000  0.0000  0.0000  0.0000  0.0000  0.0000 </r>
        <r>  0.0472  0.0304  0.0000  0.0000  0.0000  0.0000  0.0000  0.0000  0.0000 </r>
       </set>
       <set comment="band 7">
        <r>  0.0000  0.0000  0.0840  0.0841  0.0000  0.0000  0.0000  0.0000  0.0000 </r>
        <r>  0.0000  0.0000  0.0841  0.0840  0.0000  0.0000  0.0000  0.0000  0.0000 </r>
       </set>
       <set comment="band 8">
        <r>  0.0001  0.0001  0.0835  0.0835  0.0000  0.0000  0.0000  0.0000  0.0000 </r>
        <r>  0.0001  0.0001  0.0834  0.0835  0.0000  0.0000  0.0000  0.0000  0.0000 </r>
       </set>
      </set>
      <set comment="kpoint 74">
       <set comment="band 1">
        <r>  0.1988  0.0332  0.0000  0.0000  0.0000  0.0000  0.0000  0.0000  0.0000 </r>
        <r>  0.1988  0.0332  0.0000  0.0000  0.0000  0.0000  0.0000  0.0000  0.0000 </r>
       </set>
       <set comment="band 2">
        <r>  0.1864  0.0599  0.0000  0.0000  0.0000  0.0000  0.0000  0.0000  0.0000 </r>
        <r>  0.1864  0.0599  0.0000  0.0000  0.0000  0.0000  0.0000  0.0000  0.0000 </r>
       </set>
       <set comment="band 3">
        <r>  0.0000  0.0000  0.0988  0.0988  0.0000  0.0000  0.0000  0.0000  0.0000 </r>
        <r>  0.0000  0.0000  0.0988  0.0988  0.0000  0.0000  0.0000  0.0000  0.0000 </r>
       </set>
       <set comment="band 4">
        <r>  0.0000  0.0000  0.0992  0.0992  0.0000  0.0000  0.0000  0.0000  0.0000 </r>
        <r>  0.0000  0.0000  0.0992  0.0992  0.0000  0.0000  0.0000  0.0000  0.0000 </r>
       </set>
       <set comment="band 5">
        <r>  0.0533  0.0432  0.0000  0.0000  0.0000  0.0000  0.0000  0.0000  0.0000 </r>
        <r>  0.0533  0.0432  0.0000  0.0000  0.0000  0.0000  0.0000  0.0000  0.0000 </r>
       </set>
       <set comment="band 6">
        <r>  0.0479  0.0308  0.0000  0.0000  0.0000  0.0000  0.0000  0.0000  0.0000 </r>
        <r>  0.0479  0.0308  0.0000  0.0000  0.0000  0.0000  0.0000  0.0000  0.0000 </r>
       </set>
       <set comment="band 7">
        <r>  0.0000  0.0000  0.0851  0.0852  0.0000  0.0000  0.0000  0.0000  0.0000 </r>
        <r>  0.0000  0.0000  0.0852  0.0851  0.0000  0.0000  0.0000  0.0000  0.0000 </r>
       </set>
       <set comment="band 8">
        <r>  0.0001  0.0001  0.0845  0.0845  0.0000  0.0000  0.0000  0.0000  0.0000 </r>
        <r>  0.0001  0.0001  0.0845  0.0845  0.0000  0.0000  0.0000  0.0000  0.0000 </r>
       </set>
      </set>
      <set comment="kpoint 75">
       <set comment="band 1">
        <r>  0.1980  0.0352  0.0000  0.0000  0.0000  0.0000  0.0000  0.0000  0.0000 </r>
        <r>  0.1980  0.0352  0.0000  0.0000  0.0000  0.0000  0.0000  0.0000  0.0000 </r>
       </set>
       <set comment="band 2">
        <r>  0.1877  0.0574  0.0000  0.0000  0.0000  0.0000  0.0000  0.0000  0.0000 </r>
        <r>  0.1877  0.0574  0.0000  0.0000  0.0000  0.0000  0.0000  0.0000  0.0000 </r>
       </set>
       <set comment="band 3">
        <r>  0.0000  0.0000  0.0988  0.0988  0.0000  0.0000  0.0000  0.0000  0.0000 </r>
        <r>  0.0000  0.0000  0.0988  0.0988  0.0000  0.0000  0.0000  0.0000  0.0000 </r>
       </set>
       <set comment="band 4">
        <r>  0.0000  0.0000  0.0992  0.0992  0.0000  0.0000  0.0000  0.0000  0.0000 </r>
        <r>  0.0000  0.0000  0.0992  0.0992  0.0000  0.0000  0.0000  0.0000  0.0000 </r>
       </set>
       <set comment="band 5">
        <r>  0.0533  0.0416  0.0000  0.0000  0.0000  0.0000  0.0000  0.0000  0.0000 </r>
        <r>  0.0533  0.0416  0.0000  0.0000  0.0000  0.0000  0.0000  0.0000  0.0000 </r>
       </set>
       <set comment="band 6">
        <r>  0.0486  0.0312  0.0000  0.0000  0.0000  0.0000  0.0000  0.0000  0.0000 </r>
        <r>  0.0486  0.0312  0.0000  0.0000  0.0000  0.0000  0.0000  0.0000  0.0000 </r>
       </set>
       <set comment="band 7">
        <r>  0.0000  0.0000  0.0870  0.0870  0.0000  0.0000  0.0000  0.0000  0.0000 </r>
        <r>  0.0000  0.0000  0.0870  0.0870  0.0000  0.0000  0.0000  0.0000  0.0000 </r>
       </set>
       <set comment="band 8">
        <r>  0.0001  0.0001  0.0863  0.0862  0.0000  0.0000  0.0000  0.0000  0.0000 </r>
        <r>  0.0001  0.0001  0.0862  0.0863  0.0000  0.0000  0.0000  0.0000  0.0000 </r>
       </set>
      </set>
      <set comment="kpoint 76">
       <set comment="band 1">
        <r>  0.1971  0.0372  0.0000  0.0000  0.0000  0.0000  0.0000  0.0000  0.0000 </r>
        <r>  0.1971  0.0372  0.0000  0.0000  0.0000  0.0000  0.0000  0.0000  0.0000 </r>
       </set>
       <set comment="band 2">
        <r>  0.1890  0.0550  0.0000  0.0000  0.0000  0.0000  0.0000  0.0000  0.0000 </r>
        <r>  0.1890  0.0550  0.0000  0.0000  0.0000  0.0000  0.0000  0.0000  0.0000 </r>
       </set>
       <set comment="band 3">
        <r>  0.0000  0.0000  0.0988  0.0988  0.0000  0.0000  0.0000  0.0000  0.0000 </r>
        <r>  0.0000  0.0000  0.0988  0.0988  0.0000  0.0000  0.0000  0.0000  0.0000 </r>
       </set>
       <set comment="band 4">
        <r>  0.0000  0.0000  0.0992  0.0992  0.0000  0.0000  0.0000  0.0000  0.0000 </r>
        <r>  0.0000  0.0000  0.0992  0.0992  0.0000  0.0000  0.0000  0.0000  0.0000 </r>
       </set>
       <set comment="band 5">
        <r>  0.0531  0.0400  0.0000  0.0000  0.0000  0.0000  0.0000  0.0000  0.0000 </r>
        <r>  0.0531  0.0400  0.0000  0.0000  0.0000  0.0000  0.0000  0.0000  0.0000 </r>
       </set>
       <set comment="band 6">
        <r>  0.0494  0.0318  0.0000  0.0000  0.0000  0.0000  0.0000  0.0000  0.0000 </r>
        <r>  0.0494  0.0318  0.0000  0.0000  0.0000  0.0000  0.0000  0.0000  0.0000 </r>
       </set>
       <set comment="band 7">
        <r>  0.0000  0.0000  0.0898  0.0897  0.0000  0.0000  0.0000  0.0000  0.0000 </r>
        <r>  0.0000  0.0000  0.0898  0.0899  0.0000  0.0000  0.0000  0.0000  0.0000 </r>
       </set>
       <set comment="band 8">
        <r>  0.0001  0.0001  0.0889  0.0891  0.0000  0.0000  0.0000  0.0000  0.0000 </r>
        <r>  0.0001  0.0001  0.0890  0.0889  0.0000  0.0000  0.0000  0.0000  0.0000 </r>
       </set>
      </set>
      <set comment="kpoint 77">
       <set comment="band 1">
        <r>  0.1962  0.0392  0.0000  0.0000  0.0000  0.0000  0.0000  0.0000  0.0000 </r>
        <r>  0.1962  0.0392  0.0000  0.0000  0.0000  0.0000  0.0000  0.0000  0.0000 </r>
       </set>
       <set comment="band 2">
        <r>  0.1901  0.0526  0.0000  0.0000  0.0000  0.0000  0.0000  0.0000  0.0000 </r>
        <r>  0.1901  0.0526  0.0000  0.0000  0.0000  0.0000  0.0000  0.0000  0.0000 </r>
       </set>
       <set comment="band 3">
        <r>  0.0000  0.0000  0.0988  0.0988  0.0000  0.0000  0.0000  0.0000  0.0000 </r>
        <r>  0.0000  0.0000  0.0988  0.0988  0.0000  0.0000  0.0000  0.0000  0.0000 </r>
       </set>
       <set comment="band 4">
        <r>  0.0000  0.0000  0.0992  0.0992  0.0000  0.0000  0.0000  0.0000  0.0000 </r>
        <r>  0.0000  0.0000  0.0992  0.0992  0.0000  0.0000  0.0000  0.0000  0.0000 </r>
       </set>
       <set comment="band 5">
        <r>  0.0529  0.0386  0.0000  0.0000  0.0000  0.0000  0.0000  0.0000  0.0000 </r>
        <r>  0.0529  0.0386  0.0000  0.0000  0.0000  0.0000  0.0000  0.0000  0.0000 </r>
       </set>
       <set comment="band 6">
        <r>  0.0501  0.0324  0.0000  0.0000  0.0000  0.0000  0.0000  0.0000  0.0000 </r>
        <r>  0.0501  0.0324  0.0000  0.0000  0.0000  0.0000  0.0000  0.0000  0.0000 </r>
       </set>
       <set comment="band 7">
        <r>  0.0000  0.0000  0.0941  0.0941  0.0000  0.0000  0.0000  0.0000  0.0000 </r>
        <r>  0.0000  0.0000  0.0946  0.0938  0.0000  0.0000  0.0000  0.0000  0.0000 </r>
       </set>
       <set comment="band 8">
        <r>  0.0001  0.0002  0.0936  0.0937  0.0000  0.0000  0.0000  0.0000  0.0000 </r>
        <r>  0.0001  0.0001  0.0931  0.0942  0.0000  0.0000  0.0000  0.0000  0.0000 </r>
       </set>
      </set>
      <set comment="kpoint 78">
       <set comment="band 1">
        <r>  0.1953  0.0413  0.0000  0.0000  0.0000  0.0000  0.0000  0.0000  0.0000 </r>
        <r>  0.1953  0.0413  0.0000  0.0000  0.0000  0.0000  0.0000  0.0000  0.0000 </r>
       </set>
       <set comment="band 2">
        <r>  0.1913  0.0502  0.0000  0.0000  0.0000  0.0000  0.0000  0.0000  0.0000 </r>
        <r>  0.1913  0.0502  0.0000  0.0000  0.0000  0.0000  0.0000  0.0000  0.0000 </r>
       </set>
       <set comment="band 3">
        <r>  0.0000  0.0000  0.0988  0.0988  0.0000  0.0000  0.0000  0.0000  0.0000 </r>
        <r>  0.0000  0.0000  0.0988  0.0988  0.0000  0.0000  0.0000  0.0000  0.0000 </r>
       </set>
       <set comment="band 4">
        <r>  0.0000  0.0000  0.0992  0.0992  0.0000  0.0000  0.0000  0.0000  0.0000 </r>
        <r>  0.0000  0.0000  0.0992  0.0992  0.0000  0.0000  0.0000  0.0000  0.0000 </r>
       </set>
       <set comment="band 5">
        <r>  0.0526  0.0373  0.0000  0.0000  0.0000  0.0000  0.0000  0.0000  0.0000 </r>
        <r>  0.0526  0.0373  0.0000  0.0000  0.0000  0.0000  0.0000  0.0000  0.0000 </r>
       </set>
       <set comment="band 6">
        <r>  0.0507  0.0332  0.0000  0.0000  0.0000  0.0000  0.0000  0.0000  0.0000 </r>
        <r>  0.0507  0.0332  0.0000  0.0000  0.0000  0.0000  0.0000  0.0000  0.0000 </r>
       </set>
       <set comment="band 7">
        <r>  0.0000  0.0000  0.1018  0.1020  0.0000  0.0000  0.0000  0.0000  0.0000 </r>
        <r>  0.0000  0.0000  0.1019  0.1018  0.0000  0.0000  0.0000  0.0000  0.0000 </r>
       </set>
       <set comment="band 8">
        <r>  0.0001  0.0001  0.1012  0.1008  0.0000  0.0000  0.0000  0.0000  0.0000 </r>
        <r>  0.0001  0.0002  0.1008  0.1010  0.0000  0.0000  0.0000  0.0000  0.0000 </r>
       </set>
      </set>
      <set comment="kpoint 79">
       <set comment="band 1">
        <r>  0.1944  0.0435  0.0000  0.0000  0.0000  0.0000  0.0000  0.0000  0.0000 </r>
        <r>  0.1944  0.0435  0.0000  0.0000  0.0000  0.0000  0.0000  0.0000  0.0000 </r>
       </set>
       <set comment="band 2">
        <r>  0.1923  0.0479  0.0000  0.0000  0.0000  0.0000  0.0000  0.0000  0.0000 </r>
        <r>  0.1923  0.0479  0.0000  0.0000  0.0000  0.0000  0.0000  0.0000  0.0000 </r>
       </set>
       <set comment="band 3">
        <r>  0.0000  0.0000  0.0988  0.0988  0.0000  0.0000  0.0000  0.0000  0.0000 </r>
        <r>  0.0000  0.0000  0.0988  0.0988  0.0000  0.0000  0.0000  0.0000  0.0000 </r>
       </set>
       <set comment="band 4">
        <r>  0.0000  0.0000  0.0992  0.0992  0.0000  0.0000  0.0000  0.0000  0.0000 </r>
        <r>  0.0000  0.0000  0.0992  0.0992  0.0000  0.0000  0.0000  0.0000  0.0000 </r>
       </set>
       <set comment="band 5">
        <r>  0.0521  0.0362  0.0000  0.0000  0.0000  0.0000  0.0000  0.0000  0.0000 </r>
        <r>  0.0521  0.0362  0.0000  0.0000  0.0000  0.0000  0.0000  0.0000  0.0000 </r>
       </set>
       <set comment="band 6">
        <r>  0.0514  0.0341  0.0000  0.0000  0.0000  0.0000  0.0000  0.0000  0.0000 </r>
        <r>  0.0514  0.0341  0.0000  0.0000  0.0000  0.0000  0.0000  0.0000  0.0000 </r>
       </set>
       <set comment="band 7">
        <r>  0.0000  0.0001  0.1048  0.1197  0.0000  0.0000  0.0000  0.0000  0.0000 </r>
        <r>  0.0000  0.0000  0.1195  0.1043  0.0000  0.0000  0.0000  0.0000  0.0000 </r>
       </set>
       <set comment="band 8">
        <r>  0.0000  0.0001  0.1177  0.1064  0.0000  0.0000  0.0000  0.0000  0.0000 </r>
        <r>  0.0001  0.0001  0.1075  0.1170  0.0000  0.0000  0.0000  0.0000  0.0000 </r>
       </set>
      </set>
      <set comment="kpoint 80">
       <set comment="band 1">
        <r>  0.1935  0.0457  0.0000  0.0000  0.0000  0.0000  0.0000  0.0000  0.0000 </r>
        <r>  0.1936  0.0457  0.0000  0.0000  0.0000  0.0000  0.0000  0.0000  0.0000 </r>
       </set>
       <set comment="band 2">
        <r>  0.1932  0.0456  0.0000  0.0000  0.0000  0.0000  0.0000  0.0000  0.0000 </r>
        <r>  0.1931  0.0456  0.0000  0.0000  0.0000  0.0000  0.0000  0.0000  0.0000 </r>
       </set>
       <set comment="band 3">
        <r>  0.0000  0.0000  0.0988  0.0988  0.0000  0.0000  0.0000  0.0000  0.0000 </r>
        <r>  0.0000  0.0000  0.0988  0.0988  0.0000  0.0000  0.0000  0.0000  0.0000 </r>
       </set>
       <set comment="band 4">
        <r>  0.0000  0.0000  0.0992  0.0992  0.0000  0.0000  0.0000  0.0000  0.0000 </r>
        <r>  0.0000  0.0000  0.0992  0.0992  0.0000  0.0000  0.0000  0.0000  0.0000 </r>
       </set>
       <set comment="band 5">
        <r>  0.0517  0.0354  0.0000  0.0000  0.0000  0.0000  0.0000  0.0000  0.0000 </r>
        <r>  0.0517  0.0354  0.0000  0.0000  0.0000  0.0000  0.0000  0.0000  0.0000 </r>
       </set>
       <set comment="band 6">
        <r>  0.0519  0.0347  0.0000  0.0000  0.0000  0.0000  0.0000  0.0000  0.0000 </r>
        <r>  0.0519  0.0347  0.0000  0.0000  0.0000  0.0000  0.0000  0.0000  0.0000 </r>
       </set>
       <set comment="band 7">
        <r>  0.0000  0.0000  0.1062  0.1349  0.0000  0.0000  0.0000  0.0000  0.0000 </r>
        <r>  0.0000  0.0000  0.1345  0.1052  0.0000  0.0000  0.0000  0.0000  0.0000 </r>
       </set>
       <set comment="band 8">
        <r>  0.0000  0.0002  0.1337  0.1046  0.0000  0.0000  0.0000  0.0000  0.0000 </r>
        <r>  0.0001  0.0001  0.1053  0.1344  0.0000  0.0000  0.0000  0.0000  0.0000 </r>
       </set>
      </set>
     </set>
    </set>
   </array>
  </projected>
 </calculation>
 <structure name="finalpos" >
  <crystal>
   <varray name="basis" >
    <v>       0.01086000       2.72043000       2.72043000 </v>
    <v>       2.72043000       0.01086000       2.72043000 </v>
    <v>       2.72043000       2.72043000       0.01086000 </v>
   </varray>
   <i name="volume">     40.02527208 </i>
   <varray name="rec_basis" >
    <v>      -0.18489872       0.18416353       0.18416353 </v>
    <v>       0.18416353      -0.18489872       0.18416353 </v>
    <v>       0.18416353       0.18416353      -0.18489872 </v>
   </varray>
  </crystal>
  <varray name="positions" >
   <v>       0.00026645       0.00026647       0.00026643 </v>
   <v>       0.24973355       0.24973353       0.24973357 </v>
  </varray>
 </structure>
</modeling>
