Si                                      
   1.00000000000000     
    -0.0271500000000000    2.7014250000000000    2.7014250000000000
     2.7014250000000000   -0.0271500000000000    2.7014250000000000
     2.7014250000000000    2.7014250000000000   -0.0271500000000000
   Si
     2
Direct
  0.9993016265857051  0.9993016424125827  0.9993016237896342
  0.2506983734142949  0.2506983575874173  0.2506983762103658
 
  0.00000000E+00  0.00000000E+00  0.00000000E+00
  0.00000000E+00  0.00000000E+00  0.00000000E+00
