       N       E                     dE             d eps       ncg     rms          rms(c)
DAV:   1     0.957944176196E+01    0.95794E+01   -0.25627E+03  1280   0.505E+02
DAV:   2    -0.508223847817E+01   -0.14662E+02   -0.13723E+02  2144   0.684E+01
DAV:   3    -0.528158190158E+01   -0.19934E+00   -0.18651E+00  1656   0.978E+00
DAV:   4    -0.528318306685E+01   -0.16012E-02   -0.16012E-02  2032   0.644E-01
DAV:   5    -0.528319562906E+01   -0.12562E-04   -0.12562E-04  1672   0.270E-02
DAV:   6    -0.528319593212E+01   -0.30306E-06   -0.30300E-06  1528   0.293E-03
   1 F= -.52831959E+01 E0= -.52831959E+01  d E =-.222762E-11
