Si                                      
   1.00000000000000     
    -0.0543000000000000    2.6878500000000001    2.6878500000000001
     2.6878500000000001   -0.0543000000000000    2.6878500000000001
     2.6878500000000001    2.6878500000000001   -0.0543000000000000
   Si
     2
Direct
  0.9985515233028011  0.9985515184400029  0.9985515469687343
  0.2514484766971989  0.2514484815599971  0.2514484530312657
 
  0.00000000E+00  0.00000000E+00  0.00000000E+00
  0.00000000E+00  0.00000000E+00  0.00000000E+00
