       N       E                     dE             d eps       ncg     rms          rms(c)
DAV:   1     0.888813174182E+01    0.88881E+01   -0.25364E+03  1280   0.507E+02
DAV:   2    -0.510406165052E+01   -0.13992E+02   -0.13370E+02  2160   0.674E+01
DAV:   3    -0.527666358691E+01   -0.17260E+00   -0.17260E+00  1624   0.956E+00
DAV:   4    -0.527730332838E+01   -0.63974E-03   -0.63974E-03  2072   0.597E-01
DAV:   5    -0.527730443929E+01   -0.11109E-05   -0.11102E-05  1576   0.143E-02
DAV:   6    -0.527730446522E+01   -0.25934E-07   -0.26272E-07  1536   0.148E-03
   1 F= -.52773045E+01 E0= -.52773045E+01  d E =-.156108E-07
