       N       E                     dE             d eps       ncg     rms          rms(c)
DAV:   1     0.524892809198E+00    0.52489E+00   -0.25564E+03   960   0.528E+02
DAV:   2    -0.122232313564E+02   -0.12748E+02   -0.11866E+02  1400   0.652E+01
DAV:   3    -0.123861976282E+02   -0.16297E+00   -0.16297E+00  1752   0.947E+00
DAV:   4    -0.123862909481E+02   -0.93320E-04   -0.93320E-04  1400   0.221E-01
DAV:   5    -0.123862910217E+02   -0.73646E-07   -0.73646E-07  1648   0.595E-03
DAV:   6    -0.123862910217E+02   -0.16286E-10   -0.16244E-10  1440   0.863E-05
   1 F= -.12386291E+02 E0= -.12386291E+02  d E =-.451593E-15
