 vasp.6.3.0 20Jan22 (build Mar 29 2022 17:59:55) complex                        
  
 executed on           IFC91_ompi date 2026.07.16  16:32:26
 running on    1 total cores
 distrk:  each k-point on    1 cores,    1 groups
 distr:  one band on NCORE=   1 cores,    1 groups


--------------------------------------------------------------------------------------------------------


 INCAR:
   ISTART = 0
   ICHARG = 11
   ENCUT = 320
   ISMEAR = 0
   SIGMA = 0.05
   ISYM = 0
   LORBIT = 11
   GGA = PE

 POTCAR:    PAW_PBE Si 05Jan2001                  
 POTCAR:    PAW_PBE Si 05Jan2001                  
   VRHFIN =Si: s2p2                                                                                 
   LEXCH  = PE                                                                                      
   EATOM  =   103.0669 eV,    7.5752 Ry                                                             
                                                                                                    
   TITEL  = PAW_PBE Si 05Jan2001                                                                    
   LULTRA =        F    use ultrasoft PP ?                                                          
   IUNSCR =        1    unscreen: 0-lin 1-nonlin 2-no                                               
   RPACOR =    1.500    partial core radius                                                         
   POMASS =   28.085; ZVAL   =    4.000    mass and valenz                                          
   RCORE  =    1.900    outmost cutoff radius                                                       
   RWIGS  =    2.480; RWIGS  =    1.312    wigner-seitz radius (au A)                               
   ENMAX  =  245.345; ENMIN  =  184.009 eV                                                          
   ICORE  =        2    local potential                                                             
   LCOR   =        T    correct aug charges                                                         
   LPAW   =        T    paw PP                                                                      
   EAUG   =  322.069                                                                                
   DEXC   =    0.000                                                                                
   RMAX   =    1.950    core radius for proj-oper                                                   
   RAUG   =    1.300    factor for augmentation sphere                                              
   RDEP   =    1.993    radius for radial grids                                                     
   RDEPT  =    1.837    core radius for aug-charge                                                  
                                                                                                    
   Atomic configuration                                                                             
    6 entries                                                                                       
     n  l   j            E        occ.                                                              
     1  0  0.50     -1785.8828   2.0000                                                             
     2  0  0.50      -139.4969   2.0000                                                             
     2  1  1.50       -95.5546   6.0000                                                             
     3  0  0.50       -10.8127   2.0000                                                             
     3  1  0.50        -4.0811   2.0000                                                             
     3  2  1.50        -4.0817   0.0000                                                             
   Description                                                                                      
     l       E           TYP  RCUT    TYP  RCUT                                                     
     0    -10.8127223     23  1.900                                                                 
     0     -7.6451159     23  1.900                                                                 
     1     -4.0811372     23  1.900                                                                 
     1      2.4879257     23  1.900                                                                 
     2     -4.0817478      7  1.900                                                                 
  local pseudopotential read in
  partial core-charges read in
  partial kinetic energy density read in
  atomic valenz-charges read in
  non local Contribution for L=           0  read in
    real space projection operators read in
  non local Contribution for L=           0  read in
    real space projection operators read in
  non local Contribution for L=           1  read in
    real space projection operators read in
  non local Contribution for L=           1  read in
    real space projection operators read in
    PAW grid and wavefunctions read in
 
   number of l-projection  operators is LMAX  =           4
   number of lm-projection operators is LMMAX =           8
 
  PAW_PBE Si 05Jan2001                  :
 energy of atom  1       EATOM= -103.0669
 kinetic energy error for atom=    0.0016 (will be added to EATOM!!)
 
 
 POSCAR: Si
  positions in cartesian coordinates
  No initial velocities read in
 exchange correlation table for  LEXCH =        8
   RHO(1)=    0.500       N(1)  =     2000
   RHO(2)=  100.500       N(2)  =     4000
 


--------------------------------------------------------------------------------------------------------


 ion  position               nearest neighbor table
   1  0.000  0.000  0.000-   2 2.35   2 2.35   2 2.35   2 2.35
   2  0.250  0.250  0.250-   1 2.35   1 2.35   1 2.35   1 2.35
 

IMPORTANT INFORMATION: All symmetrisations will be switched off!
NOSYMM: (Re-)initialisation of all symmetry stuff for point group C_1.


----------------------------------------------------------------------------------------

                                     Primitive cell                                     

  volume of cell :      40.0258

  direct lattice vectors                    reciprocal lattice vectors
     0.000000000  2.715000000  2.715000000    -0.184162063  0.184162063  0.184162063
     2.715000000  0.000000000  2.715000000     0.184162063 -0.184162063  0.184162063
     2.715000000  2.715000000  0.000000000     0.184162063  0.184162063 -0.184162063

  length of vectors
     3.839589822  3.839589822  3.839589822     0.318978049  0.318978049  0.318978049

  position of ions in fractional coordinates (direct lattice)
     0.000000000  0.000000000  0.000000000
     0.250000000  0.250000000  0.250000000

  ion indices of the primitive-cell ions
   primitive index   ion index
                 1           1
                 2           2

----------------------------------------------------------------------------------------

 
 
 KPOINTS: mass legs: longitudinal then transverse 

Interpolating k-points between supplied coordinates.

 Line segments in fractional coordinates (reciprocal lattice):
    0.387500  0.000000  0.387500  ...  0.456600  0.000000  0.456600
    0.422100 -0.034600  0.387500  ...  0.422100  0.034600  0.456600

 Generated    30 points on each line segment, for a total of     60 k-points:

 Following reciprocal coordinates:
            Coordinates               Weight
  0.387500  0.000000  0.387500      0.016667
  0.389883  0.000000  0.389883      0.016667
  0.392266  0.000000  0.392266      0.016667
  0.394648  0.000000  0.394648      0.016667
  0.397031  0.000000  0.397031      0.016667
  0.399414  0.000000  0.399414      0.016667
  0.401797  0.000000  0.401797      0.016667
  0.404179  0.000000  0.404179      0.016667
  0.406562  0.000000  0.406562      0.016667
  0.408945  0.000000  0.408945      0.016667
  0.411328  0.000000  0.411328      0.016667
  0.413710  0.000000  0.413710      0.016667
  0.416093  0.000000  0.416093      0.016667
  0.418476  0.000000  0.418476      0.016667
  0.420859  0.000000  0.420859      0.016667
  0.423241  0.000000  0.423241      0.016667
  0.425624  0.000000  0.425624      0.016667
  0.428007  0.000000  0.428007      0.016667
  0.430390  0.000000  0.430390      0.016667
  0.432772  0.000000  0.432772      0.016667
  0.435155  0.000000  0.435155      0.016667
  0.437538  0.000000  0.437538      0.016667
  0.439921  0.000000  0.439921      0.016667
  0.442303  0.000000  0.442303      0.016667
  0.444686  0.000000  0.444686      0.016667
  0.447069  0.000000  0.447069      0.016667
  0.449452  0.000000  0.449452      0.016667
  0.451834  0.000000  0.451834      0.016667
  0.454217  0.000000  0.454217      0.016667
  0.456600  0.000000  0.456600      0.016667
  0.422100 -0.034600  0.387500      0.016667
  0.422100 -0.032214  0.389883      0.016667
  0.422100 -0.029828  0.392266      0.016667
  0.422100 -0.027441  0.394648      0.016667
  0.422100 -0.025055  0.397031      0.016667
  0.422100 -0.022669  0.399414      0.016667
  0.422100 -0.020283  0.401797      0.016667
  0.422100 -0.017897  0.404179      0.016667
  0.422100 -0.015510  0.406562      0.016667
  0.422100 -0.013124  0.408945      0.016667
  0.422100 -0.010738  0.411328      0.016667
  0.422100 -0.008352  0.413710      0.016667
  0.422100 -0.005966  0.416093      0.016667
  0.422100 -0.003579  0.418476      0.016667
  0.422100 -0.001193  0.420859      0.016667
  0.422100  0.001193  0.423241      0.016667
  0.422100  0.003579  0.425624      0.016667
  0.422100  0.005966  0.428007      0.016667
  0.422100  0.008352  0.430390      0.016667
  0.422100  0.010738  0.432772      0.016667
  0.422100  0.013124  0.435155      0.016667
  0.422100  0.015510  0.437538      0.016667
  0.422100  0.017897  0.439921      0.016667
  0.422100  0.020283  0.442303      0.016667
  0.422100  0.022669  0.444686      0.016667
  0.422100  0.025055  0.447069      0.016667
  0.422100  0.027441  0.449452      0.016667
  0.422100  0.029828  0.451834      0.016667
  0.422100  0.032214  0.454217      0.016667
  0.422100  0.034600  0.456600      0.016667

 Following cartesian coordinates:
            Coordinates               Weight
  0.000000  0.142726 -0.000000      0.016667
  0.000000  0.143603 -0.000000      0.016667
  0.000000  0.144481 -0.000000      0.016667
  0.000000  0.145358 -0.000000      0.016667
 -0.000000  0.146236  0.000000      0.016667
 -0.000000  0.147114  0.000000      0.016667
 -0.000000  0.147991  0.000000      0.016667
 -0.000000  0.148869  0.000000      0.016667
 -0.000000  0.149747  0.000000      0.016667
 -0.000000  0.150624  0.000000      0.016667
 -0.000000  0.151502  0.000000      0.016667
 -0.000000  0.152380  0.000000      0.016667
  0.000000  0.153257 -0.000000      0.016667
  0.000000  0.154135 -0.000000      0.016667
  0.000000  0.155012 -0.000000      0.016667
  0.000000  0.155890 -0.000000      0.016667
  0.000000  0.156768 -0.000000      0.016667
  0.000000  0.157645 -0.000000      0.016667
  0.000000  0.158523 -0.000000      0.016667
  0.000000  0.159401 -0.000000      0.016667
  0.000000  0.160278 -0.000000      0.016667
  0.000000  0.161156 -0.000000      0.016667
 -0.000000  0.162033  0.000000      0.016667
 -0.000000  0.162911  0.000000      0.016667
 -0.000000  0.163789  0.000000      0.016667
 -0.000000  0.164666  0.000000      0.016667
 -0.000000  0.165544  0.000000      0.016667
 -0.000000  0.166422  0.000000      0.016667
 -0.000000  0.167299  0.000000      0.016667
 -0.000000  0.168177  0.000000      0.016667
 -0.012744  0.155470 -0.000000      0.016667
 -0.011866  0.155469  0.000001      0.016667
 -0.010987  0.155468  0.000001      0.016667
 -0.010109  0.155468  0.000002      0.016667
 -0.009231  0.155467  0.000003      0.016667
 -0.008353  0.155466  0.000003      0.016667
 -0.007474  0.155466  0.000004      0.016667
 -0.006596  0.155465  0.000004      0.016667
 -0.005718  0.155465  0.000005      0.016667
 -0.004840  0.155464  0.000006      0.016667
 -0.003961  0.155463  0.000006      0.016667
 -0.003083  0.155463  0.000007      0.016667
 -0.002205  0.155462  0.000008      0.016667
 -0.001327  0.155461  0.000008      0.016667
 -0.000448  0.155461  0.000009      0.016667
  0.000430  0.155460  0.000010      0.016667
  0.001308  0.155459  0.000010      0.016667
  0.002186  0.155459  0.000011      0.016667
  0.003065  0.155458  0.000011      0.016667
  0.003943  0.155458  0.000012      0.016667
  0.004821  0.155457  0.000013      0.016667
  0.005699  0.155456  0.000013      0.016667
  0.006578  0.155456  0.000014      0.016667
  0.007456  0.155455  0.000015      0.016667
  0.008334  0.155454  0.000015      0.016667
  0.009213  0.155454  0.000016      0.016667
  0.010091  0.155453  0.000017      0.016667
  0.010969  0.155452  0.000017      0.016667
  0.011847  0.155452  0.000018      0.016667
  0.012726  0.155451  0.000018      0.016667
 


--------------------------------------------------------------------------------------------------------




 Dimension of arrays:
   k-points           NKPTS =     60   k-points in BZ     NKDIM =     60   number of bands    NBANDS=      8
   number of dos      NEDOS =    301   number of ions     NIONS =      2
   non local maximal  LDIM  =      4   non local SUM 2l+1 LMDIM =      8
   total plane-waves  NPLWV =   5832
   max r-space proj   IRMAX =      1   max aug-charges    IRDMAX=   5071
   dimension x,y,z NGX =    18 NGY =   18 NGZ =   18
   dimension x,y,z NGXF=    36 NGYF=   36 NGZF=   36
   support grid    NGXF=    36 NGYF=   36 NGZF=   36
   ions per type =               2
   NGX,Y,Z   is equivalent  to a cutoff of   7.79,  7.79,  7.79 a.u.
   NGXF,Y,Z  is equivalent  to a cutoff of  15.59, 15.59, 15.59 a.u.

 SYSTEM =  unknown system                          
 POSCAR =  Si                                      

 Startparameter for this run:
   NWRITE =      2    write-flag & timer
   PREC   = normal    normal or accurate (medium, high low for compatibility)
   ISTART =      0    job   : 0-new  1-cont  2-samecut
   ICHARG =     11    charge: 1-file 2-atom 10-const
   ISPIN  =      1    spin polarized calculation?
   LNONCOLLINEAR =      F non collinear calculations
   LSORBIT =      F    spin-orbit coupling
   INIWAV =      1    electr: 0-lowe 1-rand  2-diag
   LASPH  =      F    aspherical Exc in radial PAW
 Electronic Relaxation 1
   ENCUT  =  320.0 eV  23.52 Ry    4.85 a.u.   5.60  5.60  5.60*2*pi/ulx,y,z
   ENINI  =  320.0     initial cutoff
   ENAUG  =  322.1 eV  augmentation charge cutoff
   NELM   =     60;   NELMIN=  2; NELMDL= -5     # of ELM steps 
   EDIFF  = 0.1E-03   stopping-criterion for ELM
   LREAL  =      F    real-space projection
   NLSPLINE    = F    spline interpolate recip. space projectors
   LCOMPAT=      F    compatible to vasp.4.4
   GGA_COMPAT  = T    GGA compatible to vasp.4.4-vasp.4.6
   LMAXPAW     = -100 max onsite density
   LMAXMIX     =    2 max onsite mixed and CHGCAR
   VOSKOWN=      0    Vosko Wilk Nusair interpolation
   ROPT   =    0.00000
 Ionic relaxation
   EDIFFG = 0.1E-02   stopping-criterion for IOM
   NSW    =      0    number of steps for IOM
   NBLOCK =      1;   KBLOCK =      1    inner block; outer block 
   IBRION =     -1    ionic relax: 0-MD 1-quasi-New 2-CG
   NFREE  =      0    steps in history (QN), initial steepest desc. (CG)
   ISIF   =      2    stress and relaxation
   IWAVPR =     10    prediction:  0-non 1-charg 2-wave 3-comb
   ISYM   =      0    0-nonsym 1-usesym 2-fastsym
   LCORR  =      T    Harris-Foulkes like correction to forces

   POTIM  = 0.5000    time-step for ionic-motion
   TEIN   =    0.0    initial temperature
   TEBEG  =    0.0;   TEEND  =   0.0 temperature during run
   SMASS  =  -3.00    Nose mass-parameter (am)
   estimated Nose-frequenzy (Omega)   =  0.10E-29 period in steps = 0.13E+47 mass=  -0.337E-27a.u.
   SCALEE = 1.0000    scale energy and forces
   NPACO  =    256;   APACO  = 10.0  distance and # of slots for P.C.
   PSTRESS=    0.0 pullay stress

  Mass of Ions in am
   POMASS =  28.09
  Ionic Valenz
   ZVAL   =   4.00
  Atomic Wigner-Seitz radii
   RWIGS  =  -1.00
  virtual crystal weights 
   VCA    =   1.00
   NELECT =       8.0000    total number of electrons
   NUPDOWN=      -1.0000    fix difference up-down

 DOS related values:
   EMIN   =  10.00;   EMAX   =-10.00  energy-range for DOS
   EFERMI =   0.00
   ISMEAR =     0;   SIGMA  =   0.05  broadening in eV -4-tet -1-fermi 0-gaus

 Electronic relaxation 2 (details)
   IALGO  =     38    algorithm
   LDIAG  =      T    sub-space diagonalisation (order eigenvalues)
   LSUBROT=      F    optimize rotation matrix (better conditioning)
   TURBO    =      0    0=normal 1=particle mesh
   IRESTART =      0    0=no restart 2=restart with 2 vectors
   NREBOOT  =      0    no. of reboots
   NMIN     =      0    reboot dimension
   EREF     =   0.00    reference energy to select bands
   IMIX   =      4    mixing-type and parameters
     AMIX     =   0.40;   BMIX     =  1.00
     AMIX_MAG =   1.60;   BMIX_MAG =  1.00
     AMIN     =   0.10
     WC   =   100.;   INIMIX=   1;  MIXPRE=   1;  MAXMIX= -45

 Intra band minimization:
   WEIMIN = 0.0000     energy-eigenvalue tresh-hold
   EBREAK =  0.31E-05  absolut break condition
   DEPER  =   0.30     relativ break condition  

   TIME   =   0.40     timestep for ELM

  volume/ion in A,a.u.               =      20.01       135.05
  Fermi-wavevector in a.u.,A,eV,Ry     =   0.957176  1.808800 12.465458  0.916185
  Thomas-Fermi vector in A             =   2.086170
 
 Write flags
   LWAVE        =      T    write WAVECAR
   LDOWNSAMPLE  =      F    k-point downsampling of WAVECAR
   LCHARG       =      T    write CHGCAR
   LVTOT        =      F    write LOCPOT, total local potential
   LVHAR        =      F    write LOCPOT, Hartree potential only
   LELF         =      F    write electronic localiz. function (ELF)
   LORBIT       =     11    0 simple, 1 ext, 2 COOP (PROOUT), +10 PAW based schemes


 Dipole corrections
   LMONO  =      F    monopole corrections only (constant potential shift)
   LDIPOL =      F    correct potential (dipole corrections)
   IDIPOL =      0    1-x, 2-y, 3-z, 4-all directions 
   EPSILON=  1.0000000 bulk dielectric constant

 Exchange correlation treatment:
   GGA     =    PE    GGA type
   LEXCH   =     8    internal setting for exchange type
   LIBXC   =     F    Libxc                    
   VOSKOWN =     0    Vosko Wilk Nusair interpolation
   LHFCALC =     F    Hartree Fock is set to
   LHFONE  =     F    Hartree Fock one center treatment
   AEXX    =    0.0000 exact exchange contribution

 Linear response parameters
   LEPSILON=     F    determine dielectric tensor
   LRPA    =     F    only Hartree local field effects (RPA)
   LNABLA  =     F    use nabla operator in PAW spheres
   LVEL    =     F    velocity operator in full k-point grid
   CSHIFT  =0.1000    complex shift for real part using Kramers Kronig
   OMEGAMAX=  -1.0    maximum frequency
   DEG_THRESHOLD= 0.2000000E-02 threshold for treating states as degnerate
   RTIME   =   -0.100 relaxation time in fs
  (WPLASMAI=    0.000 imaginary part of plasma frequency in eV, 0.658/RTIME)
   DFIELD  = 0.0000000 0.0000000 0.0000000 field for delta impulse in time
 
  Optional k-point grid parameters
   LKPOINTS_OPT  =     F    use optional k-point grid
   KPOINTS_OPT_MODE=     1    mode for optional k-point grid
 
 Orbital magnetization related:
   ORBITALMAG=     F  switch on orbital magnetization
   LCHIMAG   =     F  perturbation theory with respect to B field
   DQ        =  0.001000  dq finite difference perturbation B field
   LLRAUG    =     F  two centre corrections for induced B field



--------------------------------------------------------------------------------------------------------


 Static calculation
 charge density and potential remain constant during run
 non-spin polarized calculation
 Variant of blocked Davidson
 Davidson routine will perform the subspace rotation
 perform sub-space diagonalisation
    after iterative eigenvector-optimisation
 no mixing
 using additional bands            4
 reciprocal scheme for non local part
 use partial core corrections
 calculate Harris-corrections to forces 
   (improved forces if not selfconsistent)
 use gradient corrections 
 WARNING: stress and forces are not correct
  (second derivative of E(xc) not defined)
 use of overlap-Matrix (Vanderbilt PP)
 Gauss-broadening in eV      SIGMA  =   0.05


--------------------------------------------------------------------------------------------------------


  energy-cutoff  :      320.00
  volume of cell :       40.03
      direct lattice vectors                 reciprocal lattice vectors
     0.000000000  2.715000000  2.715000000    -0.184162063  0.184162063  0.184162063
     2.715000000  0.000000000  2.715000000     0.184162063 -0.184162063  0.184162063
     2.715000000  2.715000000  0.000000000     0.184162063  0.184162063 -0.184162063

  length of vectors
     3.839589822  3.839589822  3.839589822     0.318978049  0.318978049  0.318978049


 
 k-points in units of 2pi/SCALE and weight: mass legs: longitudinal then transverse 
   0.00000000  0.14272560 -0.00000000       0.017
   0.00000000  0.14360323 -0.00000000       0.017
   0.00000000  0.14448085 -0.00000000       0.017
   0.00000000  0.14535848 -0.00000000       0.017
  -0.00000000  0.14623611  0.00000000       0.017
  -0.00000000  0.14711374  0.00000000       0.017
  -0.00000000  0.14799136  0.00000000       0.017
  -0.00000000  0.14886899  0.00000000       0.017
  -0.00000000  0.14974662  0.00000000       0.017
  -0.00000000  0.15062425  0.00000000       0.017
  -0.00000000  0.15150187  0.00000000       0.017
  -0.00000000  0.15237950  0.00000000       0.017
   0.00000000  0.15325713 -0.00000000       0.017
   0.00000000  0.15413476 -0.00000000       0.017
   0.00000000  0.15501238 -0.00000000       0.017
   0.00000000  0.15589001 -0.00000000       0.017
   0.00000000  0.15676764 -0.00000000       0.017
   0.00000000  0.15764527 -0.00000000       0.017
   0.00000000  0.15852289 -0.00000000       0.017
   0.00000000  0.15940052 -0.00000000       0.017
   0.00000000  0.16027815 -0.00000000       0.017
   0.00000000  0.16115578 -0.00000000       0.017
  -0.00000000  0.16203340  0.00000000       0.017
  -0.00000000  0.16291103  0.00000000       0.017
  -0.00000000  0.16378866  0.00000000       0.017
  -0.00000000  0.16466629  0.00000000       0.017
  -0.00000000  0.16554391  0.00000000       0.017
  -0.00000000  0.16642154  0.00000000       0.017
  -0.00000000  0.16729917  0.00000000       0.017
  -0.00000000  0.16817680  0.00000000       0.017
  -0.01274401  0.15546961 -0.00000000       0.017
  -0.01186575  0.15546898  0.00000064       0.017
  -0.01098749  0.15546834  0.00000127       0.017
  -0.01010923  0.15546771  0.00000191       0.017
  -0.00923096  0.15546707  0.00000254       0.017
  -0.00835270  0.15546644  0.00000318       0.017
  -0.00747444  0.15546580  0.00000381       0.017
  -0.00659618  0.15546517  0.00000445       0.017
  -0.00571791  0.15546453  0.00000508       0.017
  -0.00483965  0.15546390  0.00000572       0.017
  -0.00396139  0.15546326  0.00000635       0.017
  -0.00308313  0.15546263  0.00000699       0.017
  -0.00220486  0.15546199  0.00000762       0.017
  -0.00132660  0.15546136  0.00000826       0.017
  -0.00044834  0.15546072  0.00000889       0.017
   0.00042992  0.15546009  0.00000953       0.017
   0.00130819  0.15545945  0.00001016       0.017
   0.00218645  0.15545882  0.00001080       0.017
   0.00306471  0.15545818  0.00001143       0.017
   0.00394297  0.15545755  0.00001207       0.017
   0.00482124  0.15545691  0.00001270       0.017
   0.00569950  0.15545628  0.00001334       0.017
   0.00657776  0.15545564  0.00001397       0.017
   0.00745602  0.15545501  0.00001461       0.017
   0.00833429  0.15545437  0.00001524       0.017
   0.00921255  0.15545374  0.00001588       0.017
   0.01009081  0.15545310  0.00001651       0.017
   0.01096907  0.15545247  0.00001715       0.017
   0.01184734  0.15545183  0.00001778       0.017
   0.01272560  0.15545120  0.00001842       0.017
 
 k-points in reciprocal lattice and weights: mass legs: longitudinal then transverse 
   0.38750000  0.00000000  0.38750000       0.017
   0.38988276  0.00000000  0.38988276       0.017
   0.39226552  0.00000000  0.39226552       0.017
   0.39464828  0.00000000  0.39464828       0.017
   0.39703103  0.00000000  0.39703103       0.017
   0.39941379  0.00000000  0.39941379       0.017
   0.40179655  0.00000000  0.40179655       0.017
   0.40417931  0.00000000  0.40417931       0.017
   0.40656207  0.00000000  0.40656207       0.017
   0.40894483  0.00000000  0.40894483       0.017
   0.41132759  0.00000000  0.41132759       0.017
   0.41371034  0.00000000  0.41371034       0.017
   0.41609310  0.00000000  0.41609310       0.017
   0.41847586  0.00000000  0.41847586       0.017
   0.42085862  0.00000000  0.42085862       0.017
   0.42324138  0.00000000  0.42324138       0.017
   0.42562414  0.00000000  0.42562414       0.017
   0.42800690  0.00000000  0.42800690       0.017
   0.43038966  0.00000000  0.43038966       0.017
   0.43277241  0.00000000  0.43277241       0.017
   0.43515517  0.00000000  0.43515517       0.017
   0.43753793  0.00000000  0.43753793       0.017
   0.43992069  0.00000000  0.43992069       0.017
   0.44230345  0.00000000  0.44230345       0.017
   0.44468621  0.00000000  0.44468621       0.017
   0.44706897  0.00000000  0.44706897       0.017
   0.44945172  0.00000000  0.44945172       0.017
   0.45183448  0.00000000  0.45183448       0.017
   0.45421724  0.00000000  0.45421724       0.017
   0.45660000  0.00000000  0.45660000       0.017
   0.42210000 -0.03460000  0.38750000       0.017
   0.42210000 -0.03221379  0.38988276       0.017
   0.42210000 -0.02982759  0.39226552       0.017
   0.42210000 -0.02744138  0.39464828       0.017
   0.42210000 -0.02505517  0.39703103       0.017
   0.42210000 -0.02266897  0.39941379       0.017
   0.42210000 -0.02028276  0.40179655       0.017
   0.42210000 -0.01789655  0.40417931       0.017
   0.42210000 -0.01551034  0.40656207       0.017
   0.42210000 -0.01312414  0.40894483       0.017
   0.42210000 -0.01073793  0.41132759       0.017
   0.42210000 -0.00835172  0.41371034       0.017
   0.42210000 -0.00596552  0.41609310       0.017
   0.42210000 -0.00357931  0.41847586       0.017
   0.42210000 -0.00119310  0.42085862       0.017
   0.42210000  0.00119310  0.42324138       0.017
   0.42210000  0.00357931  0.42562414       0.017
   0.42210000  0.00596552  0.42800690       0.017
   0.42210000  0.00835172  0.43038966       0.017
   0.42210000  0.01073793  0.43277241       0.017
   0.42210000  0.01312414  0.43515517       0.017
   0.42210000  0.01551034  0.43753793       0.017
   0.42210000  0.01789655  0.43992069       0.017
   0.42210000  0.02028276  0.44230345       0.017
   0.42210000  0.02266897  0.44468621       0.017
   0.42210000  0.02505517  0.44706897       0.017
   0.42210000  0.02744138  0.44945172       0.017
   0.42210000  0.02982759  0.45183448       0.017
   0.42210000  0.03221379  0.45421724       0.017
   0.42210000  0.03460000  0.45660000       0.017
 
 position of ions in fractional coordinates (direct lattice) 
   0.00000000  0.00000000  0.00000000
   0.25000000  0.25000000  0.25000000
 
 position of ions in cartesian coordinates  (Angst):
   0.00000000  0.00000000  0.00000000
   1.35750000  1.35750000  1.35750000
 


--------------------------------------------------------------------------------------------------------


 k-point   1 :   0.3875 0.0000 0.3875  plane waves:     512
 k-point   2 :   0.3899 0.0000 0.3899  plane waves:     512
 k-point   3 :   0.3923 0.0000 0.3923  plane waves:     512
 k-point   4 :   0.3946 0.0000 0.3946  plane waves:     512
 k-point   5 :   0.3970 0.0000 0.3970  plane waves:     508
 k-point   6 :   0.3994 0.0000 0.3994  plane waves:     508
 k-point   7 :   0.4018 0.0000 0.4018  plane waves:     508
 k-point   8 :   0.4042 0.0000 0.4042  plane waves:     508
 k-point   9 :   0.4066 0.0000 0.4066  plane waves:     508
 k-point  10 :   0.4089 0.0000 0.4089  plane waves:     508
 k-point  11 :   0.4113 0.0000 0.4113  plane waves:     508
 k-point  12 :   0.4137 0.0000 0.4137  plane waves:     516
 k-point  13 :   0.4161 0.0000 0.4161  plane waves:     520
 k-point  14 :   0.4185 0.0000 0.4185  plane waves:     516
 k-point  15 :   0.4209 0.0000 0.4209  plane waves:     516
 k-point  16 :   0.4232 0.0000 0.4232  plane waves:     516
 k-point  17 :   0.4256 0.0000 0.4256  plane waves:     516
 k-point  18 :   0.4280 0.0000 0.4280  plane waves:     516
 k-point  19 :   0.4304 0.0000 0.4304  plane waves:     516
 k-point  20 :   0.4328 0.0000 0.4328  plane waves:     516
 k-point  21 :   0.4352 0.0000 0.4352  plane waves:     516
 k-point  22 :   0.4375 0.0000 0.4375  plane waves:     516
 k-point  23 :   0.4399 0.0000 0.4399  plane waves:     516
 k-point  24 :   0.4423 0.0000 0.4423  plane waves:     516
 k-point  25 :   0.4447 0.0000 0.4447  plane waves:     516
 k-point  26 :   0.4471 0.0000 0.4471  plane waves:     516
 k-point  27 :   0.4495 0.0000 0.4495  plane waves:     516
 k-point  28 :   0.4518 0.0000 0.4518  plane waves:     516
 k-point  29 :   0.4542 0.0000 0.4542  plane waves:     516
 k-point  30 :   0.4566 0.0000 0.4566  plane waves:     516
 k-point  31 :   0.4221-0.0346 0.3875  plane waves:     512
 k-point  32 :   0.4221-0.0322 0.3899  plane waves:     512
 k-point  33 :   0.4221-0.0298 0.3923  plane waves:     512
 k-point  34 :   0.4221-0.0274 0.3946  plane waves:     512
 k-point  35 :   0.4221-0.0251 0.3970  plane waves:     512
 k-point  36 :   0.4221-0.0227 0.3994  plane waves:     512
 k-point  37 :   0.4221-0.0203 0.4018  plane waves:     512
 k-point  38 :   0.4221-0.0179 0.4042  plane waves:     512
 k-point  39 :   0.4221-0.0155 0.4066  plane waves:     512
 k-point  40 :   0.4221-0.0131 0.4089  plane waves:     512
 k-point  41 :   0.4221-0.0107 0.4113  plane waves:     512
 k-point  42 :   0.4221-0.0084 0.4137  plane waves:     512
 k-point  43 :   0.4221-0.0060 0.4161  plane waves:     514
 k-point  44 :   0.4221-0.0036 0.4185  plane waves:     514
 k-point  45 :   0.4221-0.0012 0.4209  plane waves:     516
 k-point  46 :   0.4221 0.0012 0.4232  plane waves:     516
 k-point  47 :   0.4221 0.0036 0.4256  plane waves:     514
 k-point  48 :   0.4221 0.0060 0.4280  plane waves:     514
 k-point  49 :   0.4221 0.0084 0.4304  plane waves:     512
 k-point  50 :   0.4221 0.0107 0.4328  plane waves:     512
 k-point  51 :   0.4221 0.0131 0.4352  plane waves:     512
 k-point  52 :   0.4221 0.0155 0.4375  plane waves:     512
 k-point  53 :   0.4221 0.0179 0.4399  plane waves:     512
 k-point  54 :   0.4221 0.0203 0.4423  plane waves:     512
 k-point  55 :   0.4221 0.0227 0.4447  plane waves:     512
 k-point  56 :   0.4221 0.0251 0.4471  plane waves:     512
 k-point  57 :   0.4221 0.0274 0.4495  plane waves:     512
 k-point  58 :   0.4221 0.0298 0.4518  plane waves:     512
 k-point  59 :   0.4221 0.0322 0.4542  plane waves:     512
 k-point  60 :   0.4221 0.0346 0.4566  plane waves:     512

 maximum and minimum number of plane-waves per node :       520      508

 maximum number of plane-waves:       520
 maximum index in each direction: 
   IXMAX=    5   IYMAX=    5   IZMAX=    5
   IXMIN=   -6   IYMIN=   -5   IZMIN=   -6


 serial   3D FFT for wavefunctions
 parallel 3D FFT for charge:
    minimum data exchange during FFTs selected (reduces bandwidth)


 total amount of memory used by VASP MPI-rank0    40371. kBytes
=======================================================================

   base      :      30000. kBytes
   nonl-proj :       2013. kBytes
   fftplans  :       1676. kBytes
   grid      :       2560. kBytes
   one-center:          6. kBytes
   wavefun   :       4116. kBytes
 
     INWAV:  cpu time      0.0000: real time      0.0000
 initial charge density was supplied:
 number of electron       7.9999993 magnetization 
 keeping initial charge density in first step


--------------------------------------------------------------------------------------------------------


 Maximum index for augmentation-charges         4753 (set IRDMAX)


--------------------------------------------------------------------------------------------------------


 First call to EWALD:  gamma=   0.518
 Maximum number of real-space cells 3x 3x 3
 Maximum number of reciprocal cells 3x 3x 3

    FEWALD:  cpu time      0.0013: real time      0.0013


--------------------------------------- Iteration      1(   1)  ---------------------------------------


    POTLOK:  cpu time      0.0183: real time      0.0183
    SETDIJ:  cpu time      0.0025: real time      0.0025
     EDDAV:  cpu time      0.3100: real time      0.3100
       DOS:  cpu time      0.0012: real time      0.0012
    --------------------------------------------
      LOOP:  cpu time      0.3320: real time      0.3320

 eigenvalue-minimisations  :   960
 total energy-change (2. order) :-0.2439248E+00  (-0.2514155E+03)
 number of electron       7.9999993 magnetization 
 augmentation part        7.9999993 magnetization 

 Free energy of the ion-electron system (eV)
  ---------------------------------------------------
  alpha Z        PSCENC =         3.36414726
  Ewald energy   TEWEN  =      -228.56352493
  -Hartree energ DENC   =       -14.92817708
  -exchange      EXHF   =         0.00000000
  -V(xc)+E(xc)   XCENC  =       -17.95896279
  PAW double counting   =       894.59548407     -859.63480937
  entropy T*S    EENTRO =        -0.00168707
  eigenvalues    EBANDS =        16.75293827
  atomic energy  EATOM  =       206.13066687
  Solvation  Ediel_sol  =         0.00000000
  ---------------------------------------------------
  free energy    TOTEN  =        -0.24392476 eV

  energy without entropy =       -0.24223769  energy(sigma->0) =       -0.24308122


--------------------------------------------------------------------------------------------------------




--------------------------------------- Iteration      1(   2)  ---------------------------------------


     EDDAV:  cpu time      0.4202: real time      0.4203
       DOS:  cpu time      0.0006: real time      0.0006
    --------------------------------------------
      LOOP:  cpu time      0.4208: real time      0.4209

 eigenvalue-minimisations  :  1416
 total energy-change (2. order) :-0.1198528E+02  (-0.1152432E+02)
 number of electron       7.9999993 magnetization 
 augmentation part        7.9999993 magnetization 

 Free energy of the ion-electron system (eV)
  ---------------------------------------------------
  alpha Z        PSCENC =         3.36414726
  Ewald energy   TEWEN  =      -228.56352493
  -Hartree energ DENC   =       -14.92817708
  -exchange      EXHF   =         0.00000000
  -V(xc)+E(xc)   XCENC  =       -17.95896279
  PAW double counting   =       894.59548407     -859.63480937
  entropy T*S    EENTRO =        -0.00000000
  eigenvalues    EBANDS =         4.76597076
  atomic energy  EATOM  =       206.13066687
  Solvation  Ediel_sol  =         0.00000000
  ---------------------------------------------------
  free energy    TOTEN  =       -12.22920520 eV

  energy without entropy =      -12.22920520  energy(sigma->0) =      -12.22920520


--------------------------------------------------------------------------------------------------------




--------------------------------------- Iteration      1(   3)  ---------------------------------------


     EDDAV:  cpu time      0.4865: real time      0.4865
       DOS:  cpu time      0.0006: real time      0.0006
    --------------------------------------------
      LOOP:  cpu time      0.4871: real time      0.4871

 eigenvalue-minimisations  :  1680
 total energy-change (2. order) :-0.1536032E+00  (-0.1536032E+00)
 number of electron       7.9999993 magnetization 
 augmentation part        7.9999993 magnetization 

 Free energy of the ion-electron system (eV)
  ---------------------------------------------------
  alpha Z        PSCENC =         3.36414726
  Ewald energy   TEWEN  =      -228.56352493
  -Hartree energ DENC   =       -14.92817708
  -exchange      EXHF   =         0.00000000
  -V(xc)+E(xc)   XCENC  =       -17.95896279
  PAW double counting   =       894.59548407     -859.63480937
  entropy T*S    EENTRO =        -0.00000000
  eigenvalues    EBANDS =         4.61236752
  atomic energy  EATOM  =       206.13066687
  Solvation  Ediel_sol  =         0.00000000
  ---------------------------------------------------
  free energy    TOTEN  =       -12.38280844 eV

  energy without entropy =      -12.38280844  energy(sigma->0) =      -12.38280844


--------------------------------------------------------------------------------------------------------




--------------------------------------- Iteration      1(   4)  ---------------------------------------


     EDDAV:  cpu time      0.4294: real time      0.4294
       DOS:  cpu time      0.0007: real time      0.0007
    --------------------------------------------
      LOOP:  cpu time      0.4301: real time      0.4301

 eigenvalue-minimisations  :  1464
 total energy-change (2. order) :-0.1392597E-03  (-0.1392598E-03)
 number of electron       7.9999993 magnetization 
 augmentation part        7.9999993 magnetization 

 Free energy of the ion-electron system (eV)
  ---------------------------------------------------
  alpha Z        PSCENC =         3.36414726
  Ewald energy   TEWEN  =      -228.56352493
  -Hartree energ DENC   =       -14.92817708
  -exchange      EXHF   =         0.00000000
  -V(xc)+E(xc)   XCENC  =       -17.95896279
  PAW double counting   =       894.59548407     -859.63480937
  entropy T*S    EENTRO =        -0.00000000
  eigenvalues    EBANDS =         4.61222826
  atomic energy  EATOM  =       206.13066687
  Solvation  Ediel_sol  =         0.00000000
  ---------------------------------------------------
  free energy    TOTEN  =       -12.38294770 eV

  energy without entropy =      -12.38294770  energy(sigma->0) =      -12.38294770


--------------------------------------------------------------------------------------------------------




--------------------------------------- Iteration      1(   5)  ---------------------------------------


     EDDAV:  cpu time      0.4664: real time      0.4664
       DOS:  cpu time      0.0007: real time      0.0007
    --------------------------------------------
      LOOP:  cpu time      0.4671: real time      0.4671

 eigenvalue-minimisations  :  1608
 total energy-change (2. order) :-0.1866970E-06  (-0.1866955E-06)
 number of electron       7.9999993 magnetization 
 augmentation part        7.9999993 magnetization 

 Free energy of the ion-electron system (eV)
  ---------------------------------------------------
  alpha Z        PSCENC =         3.36414726
  Ewald energy   TEWEN  =      -228.56352493
  -Hartree energ DENC   =       -14.92817708
  -exchange      EXHF   =         0.00000000
  -V(xc)+E(xc)   XCENC  =       -17.95896279
  PAW double counting   =       894.59548407     -859.63480937
  entropy T*S    EENTRO =        -0.00000000
  eigenvalues    EBANDS =         4.61222807
  atomic energy  EATOM  =       206.13066687
  Solvation  Ediel_sol  =         0.00000000
  ---------------------------------------------------
  free energy    TOTEN  =       -12.38294789 eV

  energy without entropy =      -12.38294789  energy(sigma->0) =      -12.38294789


--------------------------------------------------------------------------------------------------------




--------------------------------------- Iteration      1(   6)  ---------------------------------------


     EDDAV:  cpu time      0.4296: real time      0.4297
       DOS:  cpu time      0.0007: real time      0.0007
    --------------------------------------------
      LOOP:  cpu time      0.4303: real time      0.4304

 eigenvalue-minimisations  :  1464
 total energy-change (2. order) :-0.1733724E-10  (-0.1709391E-10)
 number of electron       7.9999993 magnetization 
 augmentation part        7.9999993 magnetization 

 Free energy of the ion-electron system (eV)
  ---------------------------------------------------
  alpha Z        PSCENC =         3.36414726
  Ewald energy   TEWEN  =      -228.56352493
  -Hartree energ DENC   =       -14.92817708
  -exchange      EXHF   =         0.00000000
  -V(xc)+E(xc)   XCENC  =       -17.95896279
  PAW double counting   =       894.59548407     -859.63480937
  entropy T*S    EENTRO =        -0.00000000
  eigenvalues    EBANDS =         4.61222807
  atomic energy  EATOM  =       206.13066687
  Solvation  Ediel_sol  =         0.00000000
  ---------------------------------------------------
  free energy    TOTEN  =       -12.38294789 eV

  energy without entropy =      -12.38294789  energy(sigma->0) =      -12.38294789


--------------------------------------------------------------------------------------------------------




 average (electrostatic) potential at core
  the test charge radii are     0.9892
  (the norm of the test charge is              1.0000)
       1 -83.2423       2 -83.2423
 
 
 
 E-fermi :   3.4164     XC(G=0):  -9.4099     alpha+bet :-11.9845

 Fermi energy:         3.4163531812

 k-point     1 :       0.3875    0.0000    0.3875
  band No.  band energies     occupation 
      1      -3.5767      2.00000
      2      -0.1280      2.00000
      3       3.1807      2.00000
      4       3.1807      2.00000
      5       6.4288      0.00000
      6       7.2556      0.00000
      7      14.1186      0.00000
      8      14.1186      0.00000

 k-point     2 :       0.3899    0.0000    0.3899
  band No.  band energies     occupation 
      1      -3.5463      2.00000
      2      -0.1692      2.00000
      3       3.1723      2.00000
      4       3.1723      2.00000
      5       6.4256      0.00000
      6       7.2339      0.00000
      7      14.1636      0.00000
      8      14.1636      0.00000

 k-point     3 :       0.3923    0.0000    0.3923
  band No.  band energies     occupation 
      1      -3.5158      2.00000
      2      -0.2103      2.00000
      3       3.1642      2.00000
      4       3.1642      2.00000
      5       6.4227      0.00000
      6       7.2125      0.00000
      7      14.2087      0.00000
      8      14.2087      0.00000

 k-point     4 :       0.3946    0.0000    0.3946
  band No.  band energies     occupation 
      1      -3.4851      2.00000
      2      -0.2514      2.00000
      3       3.1562      2.00000
      4       3.1562      2.00000
      5       6.4199      0.00000
      6       7.1914      0.00000
      7      14.2537      0.00000
      8      14.2537      0.00000

 k-point     5 :       0.3970    0.0000    0.3970
  band No.  band energies     occupation 
      1      -3.4542      2.00000
      2      -0.2924      2.00000
      3       3.1485      2.00000
      4       3.1485      2.00000
      5       6.4176      0.00000
      6       7.1708      0.00000
      7      14.2988      0.00000
      8      14.2988      0.00000

 k-point     6 :       0.3994    0.0000    0.3994
  band No.  band energies     occupation 
      1      -3.4231      2.00000
      2      -0.3334      2.00000
      3       3.1408      2.00000
      4       3.1408      2.00000
      5       6.4154      0.00000
      6       7.1503      0.00000
      7      14.3439      0.00000
      8      14.3439      0.00000

 k-point     7 :       0.4018    0.0000    0.4018
  band No.  band energies     occupation 
      1      -3.3920      2.00000
      2      -0.3743      2.00000
      3       3.1334      2.00000
      4       3.1334      2.00000
      5       6.4133      0.00000
      6       7.1300      0.00000
      7      14.3890      0.00000
      8      14.3890      0.00000

 k-point     8 :       0.4042    0.0000    0.4042
  band No.  band energies     occupation 
      1      -3.3607      2.00000
      2      -0.4151      2.00000
      3       3.1261      2.00000
      4       3.1261      2.00000
      5       6.4115      0.00000
      6       7.1101      0.00000
      7      14.4341      0.00000
      8      14.4341      0.00000

 k-point     9 :       0.4066    0.0000    0.4066
  band No.  band energies     occupation 
      1      -3.3292      2.00000
      2      -0.4558      2.00000
      3       3.1191      2.00000
      4       3.1191      2.00000
      5       6.4100      0.00000
      6       7.0904      0.00000
      7      14.4792      0.00000
      8      14.4792      0.00000

 k-point    10 :       0.4089    0.0000    0.4089
  band No.  band energies     occupation 
      1      -3.2976      2.00000
      2      -0.4965      2.00000
      3       3.1122      2.00000
      4       3.1122      2.00000
      5       6.4086      0.00000
      6       7.0711      0.00000
      7      14.5243      0.00000
      8      14.5243      0.00000

 k-point    11 :       0.4113    0.0000    0.4113
  band No.  band energies     occupation 
      1      -3.2658      2.00000
      2      -0.5371      2.00000
      3       3.1054      2.00000
      4       3.1054      2.00000
      5       6.4075      0.00000
      6       7.0520      0.00000
      7      14.5694      0.00000
      8      14.5694      0.00000

 k-point    12 :       0.4137    0.0000    0.4137
  band No.  band energies     occupation 
      1      -3.2339      2.00000
      2      -0.5776      2.00000
      3       3.0988      2.00000
      4       3.0988      2.00000
      5       6.4067      0.00000
      6       7.0332      0.00000
      7      14.6143      0.00000
      8      14.6143      0.00000

 k-point    13 :       0.4161    0.0000    0.4161
  band No.  band energies     occupation 
      1      -3.2018      2.00000
      2      -0.6180      2.00000
      3       3.0924      2.00000
      4       3.0924      2.00000
      5       6.4060      0.00000
      6       7.0147      0.00000
      7      14.6593      0.00000
      8      14.6593      0.00000

 k-point    14 :       0.4185    0.0000    0.4185
  band No.  band energies     occupation 
      1      -3.1696      2.00000
      2      -0.6584      2.00000
      3       3.0862      2.00000
      4       3.0862      2.00000
      5       6.4057      0.00000
      6       6.9966      0.00000
      7      14.7055      0.00000
      8      14.7055      0.00000

 k-point    15 :       0.4209    0.0000    0.4209
  band No.  band energies     occupation 
      1      -3.1372      2.00000
      2      -0.6987      2.00000
      3       3.0802      2.00000
      4       3.0802      2.00000
      5       6.4055      0.00000
      6       6.9787      0.00000
      7      14.7506      0.00000
      8      14.7506      0.00000

 k-point    16 :       0.4232    0.0000    0.4232
  band No.  band energies     occupation 
      1      -3.1047      2.00000
      2      -0.7389      2.00000
      3       3.0743      2.00000
      4       3.0743      2.00000
      5       6.4057      0.00000
      6       6.9611      0.00000
      7      14.7956      0.00000
      8      14.7956      0.00000

 k-point    17 :       0.4256    0.0000    0.4256
  band No.  band energies     occupation 
      1      -3.0720      2.00000
      2      -0.7790      2.00000
      3       3.0687      2.00000
      4       3.0687      2.00000
      5       6.4060      0.00000
      6       6.9437      0.00000
      7      14.8405      0.00000
      8      14.8405      0.00000

 k-point    18 :       0.4280    0.0000    0.4280
  band No.  band energies     occupation 
      1      -3.0392      2.00000
      2      -0.8190      2.00000
      3       3.0632      2.00000
      4       3.0632      2.00000
      5       6.4066      0.00000
      6       6.9267      0.00000
      7      14.8854      0.00000
      8      14.8855      0.00000

 k-point    19 :       0.4304    0.0000    0.4304
  band No.  band energies     occupation 
      1      -3.0062      2.00000
      2      -0.8589      2.00000
      3       3.0578      2.00000
      4       3.0578      2.00000
      5       6.4075      0.00000
      6       6.9099      0.00000
      7      14.9303      0.00000
      8      14.9303      0.00000

 k-point    20 :       0.4328    0.0000    0.4328
  band No.  band energies     occupation 
      1      -2.9731      2.00000
      2      -0.8988      2.00000
      3       3.0527      2.00000
      4       3.0527      2.00000
      5       6.4085      0.00000
      6       6.8934      0.00000
      7      14.9751      0.00000
      8      14.9751      0.00000

 k-point    21 :       0.4352    0.0000    0.4352
  band No.  band energies     occupation 
      1      -2.9399      2.00000
      2      -0.9386      2.00000
      3       3.0477      2.00000
      4       3.0477      2.00000
      5       6.4099      0.00000
      6       6.8772      0.00000
      7      15.0197      0.00000
      8      15.0198      0.00000

 k-point    22 :       0.4375    0.0000    0.4375
  band No.  band energies     occupation 
      1      -2.9065      2.00000
      2      -0.9783      2.00000
      3       3.0430      2.00000
      4       3.0430      2.00000
      5       6.4115      0.00000
      6       6.8613      0.00000
      7      15.0643      0.00000
      8      15.0643      0.00000

 k-point    23 :       0.4399    0.0000    0.4399
  band No.  band energies     occupation 
      1      -2.8730      2.00000
      2      -1.0178      2.00000
      3       3.0384      2.00000
      4       3.0384      2.00000
      5       6.4133      0.00000
      6       6.8457      0.00000
      7      15.1088      0.00000
      8      15.1088      0.00000

 k-point    24 :       0.4423    0.0000    0.4423
  band No.  band energies     occupation 
      1      -2.8393      2.00000
      2      -1.0573      2.00000
      3       3.0339      2.00000
      4       3.0339      2.00000
      5       6.4154      0.00000
      6       6.8303      0.00000
      7      15.1531      0.00000
      8      15.1531      0.00000

 k-point    25 :       0.4447    0.0000    0.4447
  band No.  band energies     occupation 
      1      -2.8055      2.00000
      2      -1.0967      2.00000
      3       3.0297      2.00000
      4       3.0297      2.00000
      5       6.4177      0.00000
      6       6.8152      0.00000
      7      15.1972      0.00000
      8      15.1972      0.00000

 k-point    26 :       0.4471    0.0000    0.4471
  band No.  band energies     occupation 
      1      -2.7715      2.00000
      2      -1.1361      2.00000
      3       3.0256      2.00000
      4       3.0256      2.00000
      5       6.4203      0.00000
      6       6.8005      0.00000
      7      15.2412      0.00000
      8      15.2413      0.00000

 k-point    27 :       0.4495    0.0000    0.4495
  band No.  band energies     occupation 
      1      -2.7374      2.00000
      2      -1.1753      2.00000
      3       3.0217      2.00000
      4       3.0217      2.00000
      5       6.4231      0.00000
      6       6.7860      0.00000
      7      15.2849      0.00000
      8      15.2849      0.00000

 k-point    28 :       0.4518    0.0000    0.4518
  band No.  band energies     occupation 
      1      -2.7032      2.00000
      2      -1.2144      2.00000
      3       3.0180      2.00000
      4       3.0180      2.00000
      5       6.4262      0.00000
      6       6.7718      0.00000
      7      15.3283      0.00000
      8      15.3284      0.00000

 k-point    29 :       0.4542    0.0000    0.4542
  band No.  band energies     occupation 
      1      -2.6688      2.00000
      2      -1.2534      2.00000
      3       3.0145      2.00000
      4       3.0145      2.00000
      5       6.4296      0.00000
      6       6.7578      0.00000
      7      15.3715      0.00000
      8      15.3717      0.00000

 k-point    30 :       0.4566    0.0000    0.4566
  band No.  band energies     occupation 
      1      -2.6343      2.00000
      2      -1.2924      2.00000
      3       3.0111      2.00000
      4       3.0111      2.00000
      5       6.4331      0.00000
      6       6.7442      0.00000
      7      15.4143      0.00000
      8      15.4143      0.00000

 k-point    31 :       0.4221   -0.0346    0.3875
  band No.  band energies     occupation 
      1      -3.1070      2.00000
      2      -0.7242      2.00000
      3       3.0007      2.00000
      4       3.0370      2.00000
      5       6.5290      0.00000
      6       7.0728      0.00000
      7      14.4379      0.00000
      8      14.7738      0.00000

 k-point    32 :       0.4221   -0.0322    0.3899
  band No.  band energies     occupation 
      1      -3.1088      2.00000
      2      -0.7236      2.00000
      3       3.0105      2.00000
      4       3.0421      2.00000
      5       6.5129      0.00000
      6       7.0592      0.00000
      7      14.4782      0.00000
      8      14.7738      0.00000

 k-point    33 :       0.4221   -0.0298    0.3923
  band No.  band energies     occupation 
      1      -3.1105      2.00000
      2      -0.7230      2.00000
      3       3.0198      2.00000
      4       3.0470      2.00000
      5       6.4977      0.00000
      6       7.0466      0.00000
      7      14.5163      0.00000
      8      14.7738      0.00000

 k-point    34 :       0.4221   -0.0274    0.3946
  band No.  band energies     occupation 
      1      -3.1120      2.00000
      2      -0.7224      2.00000
      3       3.0283      2.00000
      4       3.0515      2.00000
      5       6.4838      0.00000
      6       7.0349      0.00000
      7      14.5528      0.00000
      8      14.7739      0.00000

 k-point    35 :       0.4221   -0.0251    0.3970
  band No.  band energies     occupation 
      1      -3.1134      2.00000
      2      -0.7219      2.00000
      3       3.0363      2.00000
      4       3.0557      2.00000
      5       6.4710      0.00000
      6       7.0241      0.00000
      7      14.5870      0.00000
      8      14.7739      0.00000

 k-point    36 :       0.4221   -0.0227    0.3994
  band No.  band energies     occupation 
      1      -3.1147      2.00000
      2      -0.7214      2.00000
      3       3.0436      2.00000
      4       3.0595      2.00000
      5       6.4593      0.00000
      6       7.0143      0.00000
      7      14.6188      0.00000
      8      14.7738      0.00000

 k-point    37 :       0.4221   -0.0203    0.4018
  band No.  band energies     occupation 
      1      -3.1158      2.00000
      2      -0.7210      2.00000
      3       3.0502      2.00000
      4       3.0630      2.00000
      5       6.4487      0.00000
      6       7.0054      0.00000
      7      14.6482      0.00000
      8      14.7739      0.00000

 k-point    38 :       0.4221   -0.0179    0.4042
  band No.  band energies     occupation 
      1      -3.1169      2.00000
      2      -0.7206      2.00000
      3       3.0561      2.00000
      4       3.0661      2.00000
      5       6.4392      0.00000
      6       6.9975      0.00000
      7      14.6748      0.00000
      8      14.7738      0.00000

 k-point    39 :       0.4221   -0.0155    0.4066
  band No.  band energies     occupation 
      1      -3.1178      2.00000
      2      -0.7203      2.00000
      3       3.0613      2.00000
      4       3.0688      2.00000
      5       6.4309      0.00000
      6       6.9906      0.00000
      7      14.6985      0.00000
      8      14.7738      0.00000

 k-point    40 :       0.4221   -0.0131    0.4089
  band No.  band energies     occupation 
      1      -3.1186      2.00000
      2      -0.7200      2.00000
      3       3.0658      2.00000
      4       3.0712      2.00000
      5       6.4237      0.00000
      6       6.9847      0.00000
      7      14.7192      0.00000
      8      14.7738      0.00000

 k-point    41 :       0.4221   -0.0107    0.4113
  band No.  band energies     occupation 
      1      -3.1192      2.00000
      2      -0.7198      2.00000
      3       3.0695      2.00000
      4       3.0731      2.00000
      5       6.4178      0.00000
      6       6.9797      0.00000
      7      14.7368      0.00000
      8      14.7738      0.00000

 k-point    42 :       0.4221   -0.0084    0.4137
  band No.  band energies     occupation 
      1      -3.1197      2.00000
      2      -0.7196      2.00000
      3       3.0725      2.00000
      4       3.0747      2.00000
      5       6.4130      0.00000
      6       6.9757      0.00000
      7      14.7510      0.00000
      8      14.7738      0.00000

 k-point    43 :       0.4221   -0.0060    0.4161
  band No.  band energies     occupation 
      1      -3.1202      2.00000
      2      -0.7194      2.00000
      3       3.0748      2.00000
      4       3.0759      2.00000
      5       6.4094      0.00000
      6       6.9728      0.00000
      7      14.7623      0.00000
      8      14.7738      0.00000

 k-point    44 :       0.4221   -0.0036    0.4185
  band No.  band energies     occupation 
      1      -3.1204      2.00000
      2      -0.7193      2.00000
      3       3.0763      2.00000
      4       3.0767      2.00000
      5       6.4069      0.00000
      6       6.9708      0.00000
      7      14.7695      0.00000
      8      14.7737      0.00000

 k-point    45 :       0.4221   -0.0012    0.4209
  band No.  band energies     occupation 
      1      -3.1206      2.00000
      2      -0.7192      2.00000
      3       3.0771      2.00000
      4       3.0771      2.00000
      5       6.4057      0.00000
      6       6.9698      0.00000
      7      14.7731      0.00000
      8      14.7736      0.00000

 k-point    46 :       0.4221    0.0012    0.4232
  band No.  band energies     occupation 
      1      -3.1206      2.00000
      2      -0.7192      2.00000
      3       3.0771      2.00000
      4       3.0771      2.00000
      5       6.4057      0.00000
      6       6.9698      0.00000
      7      14.7731      0.00000
      8      14.7735      0.00000

 k-point    47 :       0.4221    0.0036    0.4256
  band No.  band energies     occupation 
      1      -3.1205      2.00000
      2      -0.7192      2.00000
      3       3.0763      2.00000
      4       3.0767      2.00000
      5       6.4069      0.00000
      6       6.9708      0.00000
      7      14.7696      0.00000
      8      14.7736      0.00000

 k-point    48 :       0.4221    0.0060    0.4280
  band No.  band energies     occupation 
      1      -3.1203      2.00000
      2      -0.7193      2.00000
      3       3.0748      2.00000
      4       3.0759      2.00000
      5       6.4093      0.00000
      6       6.9728      0.00000
      7      14.7623      0.00000
      8      14.7735      0.00000

 k-point    49 :       0.4221    0.0084    0.4304
  band No.  band energies     occupation 
      1      -3.1199      2.00000
      2      -0.7193      2.00000
      3       3.0726      2.00000
      4       3.0748      2.00000
      5       6.4129      0.00000
      6       6.9757      0.00000
      7      14.7511      0.00000
      8      14.7736      0.00000

 k-point    50 :       0.4221    0.0107    0.4328
  band No.  band energies     occupation 
      1      -3.1194      2.00000
      2      -0.7195      2.00000
      3       3.0696      2.00000
      4       3.0732      2.00000
      5       6.4176      0.00000
      6       6.9797      0.00000
      7      14.7368      0.00000
      8      14.7735      0.00000

 k-point    51 :       0.4221    0.0131    0.4352
  band No.  band energies     occupation 
      1      -3.1188      2.00000
      2      -0.7197      2.00000
      3       3.0659      2.00000
      4       3.0712      2.00000
      5       6.4236      0.00000
      6       6.9847      0.00000
      7      14.7193      0.00000
      8      14.7734      0.00000

 k-point    52 :       0.4221    0.0155    0.4375
  band No.  band energies     occupation 
      1      -3.1181      2.00000
      2      -0.7199      2.00000
      3       3.0614      2.00000
      4       3.0689      2.00000
      5       6.4307      0.00000
      6       6.9906      0.00000
      7      14.6986      0.00000
      8      14.7734      0.00000

 k-point    53 :       0.4221    0.0179    0.4399
  band No.  band energies     occupation 
      1      -3.1172      2.00000
      2      -0.7202      2.00000
      3       3.0563      2.00000
      4       3.0662      2.00000
      5       6.4390      0.00000
      6       6.9976      0.00000
      7      14.6748      0.00000
      8      14.7733      0.00000

 k-point    54 :       0.4221    0.0203    0.4423
  band No.  band energies     occupation 
      1      -3.1163      2.00000
      2      -0.7205      2.00000
      3       3.0504      2.00000
      4       3.0631      2.00000
      5       6.4484      0.00000
      6       7.0055      0.00000
      7      14.6482      0.00000
      8      14.7733      0.00000

 k-point    55 :       0.4221    0.0227    0.4447
  band No.  band energies     occupation 
      1      -3.1152      2.00000
      2      -0.7209      2.00000
      3       3.0438      2.00000
      4       3.0597      2.00000
      5       6.4590      0.00000
      6       7.0143      0.00000
      7      14.6189      0.00000
      8      14.7732      0.00000

 k-point    56 :       0.4221    0.0251    0.4471
  band No.  band energies     occupation 
      1      -3.1139      2.00000
      2      -0.7213      2.00000
      3       3.0365      2.00000
      4       3.0558      2.00000
      5       6.4707      0.00000
      6       7.0242      0.00000
      7      14.5870      0.00000
      8      14.7732      0.00000

 k-point    57 :       0.4221    0.0274    0.4495
  band No.  band energies     occupation 
      1      -3.1126      2.00000
      2      -0.7217      2.00000
      3       3.0286      2.00000
      4       3.0517      2.00000
      5       6.4835      0.00000
      6       7.0349      0.00000
      7      14.5528      0.00000
      8      14.7731      0.00000

 k-point    58 :       0.4221    0.0298    0.4518
  band No.  band energies     occupation 
      1      -3.1111      2.00000
      2      -0.7222      2.00000
      3       3.0200      2.00000
      4       3.0472      2.00000
      5       6.4974      0.00000
      6       7.0466      0.00000
      7      14.5163      0.00000
      8      14.7730      0.00000

 k-point    59 :       0.4221    0.0322    0.4542
  band No.  band energies     occupation 
      1      -3.1095      2.00000
      2      -0.7228      2.00000
      3       3.0108      2.00000
      4       3.0424      2.00000
      5       6.5126      0.00000
      6       7.0593      0.00000
      7      14.4782      0.00000
      8      14.7730      0.00000

 k-point    60 :       0.4221    0.0346    0.4566
  band No.  band energies     occupation 
      1      -3.1077      2.00000
      2      -0.7234      2.00000
      3       3.0010      2.00000
      4       3.0372      2.00000
      5       6.5287      0.00000
      6       7.0729      0.00000
      7      14.4379      0.00000
      8      14.7728      0.00000


--------------------------------------------------------------------------------------------------------


 soft charge-density along one line, spin component           1
         0         1         2         3         4         5         6         7         8         9
 total charge-density along one line
 
 pseudopotential strength for first ion, spin component:           1
 18.413  25.690   0.000   0.000  -0.000   0.000   0.000  -0.000
 25.690  35.846   0.000   0.000  -0.000   0.000   0.000  -0.000
  0.000   0.000   4.178  -0.000  -0.000   7.786  -0.000  -0.000
  0.000   0.000  -0.000   4.178  -0.000  -0.000   7.786  -0.000
 -0.000  -0.000  -0.000  -0.000   4.178  -0.000  -0.000   7.786
  0.000   0.000   7.786  -0.000  -0.000  14.520  -0.000  -0.000
  0.000   0.000  -0.000   7.786  -0.000  -0.000  14.520  -0.000
 -0.000  -0.000  -0.000  -0.000   7.786  -0.000  -0.000  14.520
 total augmentation occupancy for first ion, spin component:           1
  2.000   0.000   0.000   0.000   0.000   0.000   0.000   0.000
  0.000   0.000   0.000   0.000   0.000   0.000   0.000   0.000
  0.000   0.000   0.667   0.000   0.000   0.000   0.000   0.000
  0.000   0.000   0.000   0.667   0.000   0.000   0.000   0.000
  0.000   0.000   0.000   0.000   0.667   0.000   0.000   0.000
  0.000   0.000   0.000   0.000   0.000   0.000   0.000   0.000
  0.000   0.000   0.000   0.000   0.000   0.000   0.000   0.000
  0.000   0.000   0.000   0.000   0.000   0.000   0.000   0.000


------------------------ aborting loop because EDIFF is reached ----------------------------------------





 total charge

# of ion       s       p       d       tot
------------------------------------------
    1        0.771   0.976   0.000   1.747
    2        0.771   0.976   0.000   1.747
--------------------------------------------------
tot          1.542   1.952   0.000   3.494
 
    CHARGE:  cpu time      0.0239: real time      0.0239
    FORLOC:  cpu time      0.0012: real time      0.0012
    FORNL :  cpu time      0.0289: real time      0.0289
    STRESS:  cpu time      0.1555: real time      0.1555
    FORCOR:  cpu time      0.0188: real time      0.0188
    FORHAR:  cpu time      0.0039: real time      0.0039
    OFIELD:  cpu time      0.0000: real time      0.0000

  FORCE on cell =-STRESS in cart. coord.  units (eV):
  Direction    XX          YY          ZZ          XY          YZ          ZX
  --------------------------------------------------------------------------------------
  Alpha Z     3.36415     3.36415     3.36415
  Ewald     -76.18788   -76.18788   -76.18788    -0.00000    -0.00000     0.00000
  Hartree     5.26219     5.95164     5.26253     0.00004    -0.00005     0.00007
  E(xc)     -25.75049   -24.74731   -25.74930    -0.00000     0.00001     0.00001
  Local     -36.41341   -17.88976   -36.39515    -0.00017     0.00023     0.00009
  n-local    84.48578    70.94402    84.46142     0.00007    -0.00006    -0.00010
  augment   -12.56390   -10.67109   -12.56502    -0.00002    -0.00003    -0.00001
  Kinetic    61.24624    46.28417    61.40650    -0.00028     0.00035    -0.00025
  Fock        0.00000     0.00000     0.00000     0.00000     0.00000     0.00000
  -------------------------------------------------------------------------------------
  Total       3.44269    -2.95206     3.59725    -0.00037     0.00044    -0.00020
  in kB     137.80632  -118.16697   143.99320    -0.01496     0.01771    -0.00783
  external pressure =       54.54 kB  Pullay stress =        0.00 kB


 VOLUME and BASIS-vectors are now :
 -----------------------------------------------------------------------------
  energy-cutoff  :      320.00
  volume of cell :       40.03
      direct lattice vectors                 reciprocal lattice vectors
     0.000000000  2.715000000  2.715000000    -0.184162063  0.184162063  0.184162063
     2.715000000  0.000000000  2.715000000     0.184162063 -0.184162063  0.184162063
     2.715000000  2.715000000  0.000000000     0.184162063  0.184162063 -0.184162063

  length of vectors
     3.839589822  3.839589822  3.839589822     0.318978049  0.318978049  0.318978049


 FORCES acting on ions
    electron-ion (+dipol)            ewald-force                    non-local-force                 convergence-correction
 -----------------------------------------------------------------------------------------------
   -.562E-03 0.162E-03 0.422E-03   -.476E-15 -.149E-14 0.391E-14   0.387E-03 -.130E-03 -.275E-03   0.699E-04 -.176E-04 -.536E-04
   0.559E-03 -.165E-03 -.423E-03   0.623E-15 0.106E-14 -.375E-14   -.385E-03 0.131E-03 0.275E-03   -.677E-04 0.185E-04 0.554E-04
 -----------------------------------------------------------------------------------------------
   -.377E-05 -.284E-05 -.144E-05   0.147E-15 -.426E-15 0.164E-15   0.251E-05 0.142E-05 0.646E-06   0.222E-05 0.914E-06 0.172E-05
 
 
 POSITION                                       TOTAL-FORCE (eV/Angst)
 -----------------------------------------------------------------------------------
      0.00000      0.00000      0.00000        -0.000106      0.000015      0.000093
      1.35750      1.35750      1.35750         0.000106     -0.000015     -0.000093
 -----------------------------------------------------------------------------------
    total drift:                                0.000001     -0.000001      0.000001


--------------------------------------------------------------------------------------------------------



  FREE ENERGIE OF THE ION-ELECTRON SYSTEM (eV)
  ---------------------------------------------------
  free  energy   TOTEN  =       -12.38294789 eV

  energy  without entropy=      -12.38294789  energy(sigma->0) =      -12.38294789
 


--------------------------------------------------------------------------------------------------------


    POTLOK:  cpu time      0.0195: real time      0.0195


--------------------------------------------------------------------------------------------------------


 writing wavefunctions
     LOOP+:  cpu time      2.8742: real time      2.8745
    4ORBIT:  cpu time      0.0000: real time      0.0000



 total charge

# of ion       s       p       d       tot
------------------------------------------
    1        0.771   0.976   0.000   1.747
    2        0.771   0.976   0.000   1.747
--------------------------------------------------
tot          1.542   1.952   0.000   3.494
 

 total amount of memory used by VASP MPI-rank0    40371. kBytes
=======================================================================

   base      :      30000. kBytes
   nonl-proj :       2013. kBytes
   fftplans  :       1676. kBytes
   grid      :       2560. kBytes
   one-center:          6. kBytes
   wavefun   :       4116. kBytes
 
  
  
 General timing and accounting informations for this job:
 ========================================================
  
                  Total CPU time used (sec):        3.184
                            User time (sec):        3.092
                          System time (sec):        0.092
                         Elapsed time (sec):        3.453
  
                   Maximum memory used (kb):      102864.
                   Average memory used (kb):          N/A
  
                          Minor page faults:         6812
                          Major page faults:            3
                 Voluntary context switches:         1139
