<?xml version="1.0" encoding="ISO-8859-1"?>
<modeling>
 <generator>
  <i name="program" type="string">vasp </i>
  <i name="version" type="string">6.3.0  </i>
  <i name="subversion" type="string">20Jan22 (build Mar 29 2022 17:59:55) complex                          parallel </i>
  <i name="platform" type="string">IFC91_ompi </i>
  <i name="date" type="string">2026 09 01 </i>
  <i name="time" type="string">14:20:11 </i>
 </generator>
 <incar>
  <i type="int" name="ISTART">     0</i>
  <i type="string" name="PREC">Accurate</i>
  <i type="int" name="ICHARG">    11</i>
  <i type="int" name="ISYM">     0</i>
  <i name="ENCUT">    320.00000000</i>
  <i type="int" name="ISMEAR">     0</i>
  <i name="SIGMA">      0.05000000</i>
  <i type="int" name="LORBIT">    11</i>
  <i type="string" name="GGA">PE</i>
 </incar>
 <primitive_cell>
  <structure name="primitive_cell" >
   <crystal>
    <varray name="basis" >
     <v>       0.00000000       2.71500000       2.71500000 </v>
     <v>       2.71500000       0.00000000       2.71500000 </v>
     <v>       2.71500000       2.71500000       0.00000000 </v>
    </varray>
    <i name="volume">     40.02575175 </i>
    <varray name="rec_basis" >
     <v>      -0.18416206       0.18416206       0.18416206 </v>
     <v>       0.18416206      -0.18416206       0.18416206 </v>
     <v>       0.18416206       0.18416206      -0.18416206 </v>
    </varray>
   </crystal>
   <varray name="positions" >
    <v>       0.00000000       0.00000000       0.00000000 </v>
    <v>       0.25000000       0.25000000       0.25000000 </v>
   </varray>
  </structure>
  <varray name="primitive_index" >
   <v type="int" >        1 </v>
   <v type="int" >        2 </v>
  </varray>
 </primitive_cell>
 <kpoints>
  <generation param="listgenerated">
   <i name="divisions" type="int">      30 </i>
   <v>       0.00000000       0.40620000       0.40620000 </v>
   <v>      -0.01690000       0.42310000       0.40620000 </v>
   <v>       0.01690000       0.42310000       0.43990000 </v>
  </generation>
  <varray name="kpointlist" >
   <v>       0.00000000       0.40620000       0.40620000 </v>
   <v>       0.00000000       0.40736207       0.40736207 </v>
   <v>       0.00000000       0.40852414       0.40852414 </v>
   <v>       0.00000000       0.40968621       0.40968621 </v>
   <v>       0.00000000       0.41084828       0.41084828 </v>
   <v>       0.00000000       0.41201034       0.41201034 </v>
   <v>       0.00000000       0.41317241       0.41317241 </v>
   <v>       0.00000000       0.41433448       0.41433448 </v>
   <v>       0.00000000       0.41549655       0.41549655 </v>
   <v>       0.00000000       0.41665862       0.41665862 </v>
   <v>       0.00000000       0.41782069       0.41782069 </v>
   <v>       0.00000000       0.41898276       0.41898276 </v>
   <v>       0.00000000       0.42014483       0.42014483 </v>
   <v>       0.00000000       0.42130690       0.42130690 </v>
   <v>       0.00000000       0.42246897       0.42246897 </v>
   <v>       0.00000000       0.42363103       0.42363103 </v>
   <v>       0.00000000       0.42479310       0.42479310 </v>
   <v>       0.00000000       0.42595517       0.42595517 </v>
   <v>       0.00000000       0.42711724       0.42711724 </v>
   <v>       0.00000000       0.42827931       0.42827931 </v>
   <v>       0.00000000       0.42944138       0.42944138 </v>
   <v>       0.00000000       0.43060345       0.43060345 </v>
   <v>       0.00000000       0.43176552       0.43176552 </v>
   <v>       0.00000000       0.43292759       0.43292759 </v>
   <v>       0.00000000       0.43408966       0.43408966 </v>
   <v>       0.00000000       0.43525172       0.43525172 </v>
   <v>       0.00000000       0.43641379       0.43641379 </v>
   <v>       0.00000000       0.43757586       0.43757586 </v>
   <v>       0.00000000       0.43873793       0.43873793 </v>
   <v>       0.00000000       0.43990000       0.43990000 </v>
   <v>      -0.01690000       0.42310000       0.40620000 </v>
   <v>      -0.01573448       0.42310000       0.40736207 </v>
   <v>      -0.01456897       0.42310000       0.40852414 </v>
   <v>      -0.01340345       0.42310000       0.40968621 </v>
   <v>      -0.01223793       0.42310000       0.41084828 </v>
   <v>      -0.01107241       0.42310000       0.41201034 </v>
   <v>      -0.00990690       0.42310000       0.41317241 </v>
   <v>      -0.00874138       0.42310000       0.41433448 </v>
   <v>      -0.00757586       0.42310000       0.41549655 </v>
   <v>      -0.00641034       0.42310000       0.41665862 </v>
   <v>      -0.00524483       0.42310000       0.41782069 </v>
   <v>      -0.00407931       0.42310000       0.41898276 </v>
   <v>      -0.00291379       0.42310000       0.42014483 </v>
   <v>      -0.00174828       0.42310000       0.42130690 </v>
   <v>      -0.00058276       0.42310000       0.42246897 </v>
   <v>       0.00058276       0.42310000       0.42363103 </v>
   <v>       0.00174828       0.42310000       0.42479310 </v>
   <v>       0.00291379       0.42310000       0.42595517 </v>
   <v>       0.00407931       0.42310000       0.42711724 </v>
   <v>       0.00524483       0.42310000       0.42827931 </v>
   <v>       0.00641034       0.42310000       0.42944138 </v>
   <v>       0.00757586       0.42310000       0.43060345 </v>
   <v>       0.00874138       0.42310000       0.43176552 </v>
   <v>       0.00990690       0.42310000       0.43292759 </v>
   <v>       0.01107241       0.42310000       0.43408966 </v>
   <v>       0.01223793       0.42310000       0.43525172 </v>
   <v>       0.01340345       0.42310000       0.43641379 </v>
   <v>       0.01456897       0.42310000       0.43757586 </v>
   <v>       0.01573448       0.42310000       0.43873793 </v>
   <v>       0.01690000       0.42310000       0.43990000 </v>
  </varray>
  <varray name="weights" >
   <v>       0.01666667 </v>
   <v>       0.01666667 </v>
   <v>       0.01666667 </v>
   <v>       0.01666667 </v>
   <v>       0.01666667 </v>
   <v>       0.01666667 </v>
   <v>       0.01666667 </v>
   <v>       0.01666667 </v>
   <v>       0.01666667 </v>
   <v>       0.01666667 </v>
   <v>       0.01666667 </v>
   <v>       0.01666667 </v>
   <v>       0.01666667 </v>
   <v>       0.01666667 </v>
   <v>       0.01666667 </v>
   <v>       0.01666667 </v>
   <v>       0.01666667 </v>
   <v>       0.01666667 </v>
   <v>       0.01666667 </v>
   <v>       0.01666667 </v>
   <v>       0.01666667 </v>
   <v>       0.01666667 </v>
   <v>       0.01666667 </v>
   <v>       0.01666667 </v>
   <v>       0.01666667 </v>
   <v>       0.01666667 </v>
   <v>       0.01666667 </v>
   <v>       0.01666667 </v>
   <v>       0.01666667 </v>
   <v>       0.01666667 </v>
   <v>       0.01666667 </v>
   <v>       0.01666667 </v>
   <v>       0.01666667 </v>
   <v>       0.01666667 </v>
   <v>       0.01666667 </v>
   <v>       0.01666667 </v>
   <v>       0.01666667 </v>
   <v>       0.01666667 </v>
   <v>       0.01666667 </v>
   <v>       0.01666667 </v>
   <v>       0.01666667 </v>
   <v>       0.01666667 </v>
   <v>       0.01666667 </v>
   <v>       0.01666667 </v>
   <v>       0.01666667 </v>
   <v>       0.01666667 </v>
   <v>       0.01666667 </v>
   <v>       0.01666667 </v>
   <v>       0.01666667 </v>
   <v>       0.01666667 </v>
   <v>       0.01666667 </v>
   <v>       0.01666667 </v>
   <v>       0.01666667 </v>
   <v>       0.01666667 </v>
   <v>       0.01666667 </v>
   <v>       0.01666667 </v>
   <v>       0.01666667 </v>
   <v>       0.01666667 </v>
   <v>       0.01666667 </v>
   <v>       0.01666667 </v>
  </varray>
  <kpoints_labels>
   <i name="L-" type="int">       1 </i>
   <i name="L+" type="int">       2 </i>
   <i name="T-" type="int">       3 </i>
   <i name="T+" type="int">       4 </i>
  </kpoints_labels>
 </kpoints>
 <parameters>
  <separator name="general" >
   <i type="string" name="SYSTEM">unknown system</i>
   <i type="logical" name="LCOMPAT"> F  </i>
  </separator>
  <separator name="electronic" >
   <i type="string" name="PREC">accura</i>
   <i name="ENMAX">    320.00000000</i>
   <i name="ENAUG">    322.06900000</i>
   <i name="EDIFF">      0.00010000</i>
   <i type="int" name="IALGO">    38</i>
   <i type="int" name="IWAVPR">    10</i>
   <i type="int" name="NBANDS">     8</i>
   <i type="int" name="NBANDSLOW">    -1</i>
   <i type="int" name="NBANDSHIGH">    -1</i>
   <i name="NELECT">      8.00000000</i>
   <i type="int" name="TURBO">     0</i>
   <i type="int" name="IRESTART">     0</i>
   <i type="int" name="NREBOOT">     0</i>
   <i type="int" name="NMIN">     0</i>
   <i name="EREF">      0.00000000</i>
   <separator name="electronic smearing" >
    <i type="int" name="ISMEAR">     0</i>
    <i name="SIGMA">      0.05000000</i>
    <i name="KSPACING">      0.50000000</i>
    <i type="logical" name="KGAMMA"> T  </i>
    <i type="logical" name="KBLOWUP"> T  </i>
   </separator>
   <separator name="electronic projectors" >
    <i type="logical" name="LREAL"> F  </i>
    <v name="ROPT">      0.00000000</v>
    <i type="int" name="LMAXPAW">  -100</i>
    <i type="int" name="LMAXMIX">     2</i>
    <i type="logical" name="NLSPLINE"> F  </i>
   </separator>
   <separator name="electronic startup" >
    <i type="int" name="ISTART">     0</i>
    <i type="int" name="ICHARG">    11</i>
    <i type="int" name="INIWAV">     1</i>
   </separator>
   <separator name="electronic spin" >
    <i type="int" name="ISPIN">     1</i>
    <i type="logical" name="LNONCOLLINEAR"> F  </i>
    <v name="MAGMOM">      1.00000000      1.00000000</v>
    <i name="NUPDOWN">     -1.00000000</i>
    <i type="logical" name="LSORBIT"> F  </i>
    <v name="SAXIS">      0.00000000      0.00000000      1.00000000</v>
    <i type="logical" name="LSPIRAL"> F  </i>
    <v name="QSPIRAL">      0.00000000      0.00000000      0.00000000</v>
    <i type="logical" name="LZEROZ"> F  </i>
   </separator>
   <separator name="electronic exchange-correlation" >
    <i type="logical" name="LASPH"> F  </i>
    <i type="logical" name="LMETAGGA"> F  </i>
   </separator>
   <separator name="electronic convergence" >
    <i type="int" name="NELM">    60</i>
    <i type="int" name="NELMDL">    -5</i>
    <i type="int" name="NELMIN">     2</i>
    <i name="ENINI">    320.00000000</i>
    <separator name="electronic convergence detail" >
     <i type="logical" name="LDIAG"> T  </i>
     <i type="logical" name="LSUBROT"> F  </i>
     <i name="WEIMIN">      0.00000000</i>
     <i name="EBREAK">      0.00000313</i>
     <i name="DEPER">      0.30000000</i>
     <i type="int" name="NRMM">     4</i>
     <i name="TIME">      0.40000000</i>
    </separator>
   </separator>
   <separator name="electronic mixer" >
    <i name="AMIX">      0.40000000</i>
    <i name="BMIX">      1.00000000</i>
    <i name="AMIN">      0.10000000</i>
    <i name="AMIX_MAG">      1.60000000</i>
    <i name="BMIX_MAG">      1.00000000</i>
    <separator name="electronic mixer details" >
     <i type="int" name="IMIX">     4</i>
     <i type="logical" name="MIXFIRST"> F  </i>
     <i type="int" name="MAXMIX">   -45</i>
     <i name="WC">    100.00000000</i>
     <i type="int" name="INIMIX">     1</i>
     <i type="int" name="MIXPRE">     1</i>
     <i type="int" name="MREMOVE">     5</i>
    </separator>
   </separator>
   <separator name="electronic dipolcorrection" >
    <i type="logical" name="LDIPOL"> F  </i>
    <i type="logical" name="LMONO"> F  </i>
    <i type="int" name="IDIPOL">     0</i>
    <i name="EPSILON">      1.00000000</i>
    <v name="DIPOL">   -100.00000000   -100.00000000   -100.00000000</v>
    <i name="EFIELD">      0.00000000</i>
   </separator>
  </separator>
  <separator name="grids" >
   <i type="int" name="NGX">    24</i>
   <i type="int" name="NGY">    24</i>
   <i type="int" name="NGZ">    24</i>
   <i type="int" name="NGXF">    48</i>
   <i type="int" name="NGYF">    48</i>
   <i type="int" name="NGZF">    48</i>
   <i type="logical" name="ADDGRID"> F  </i>
  </separator>
  <separator name="ionic" >
   <i type="int" name="NSW">     0</i>
   <i type="int" name="IBRION">    -1</i>
   <i type="int" name="MDALGO">     0</i>
   <i type="int" name="ISIF">     2</i>
   <i name="PSTRESS">      0.00000000</i>
   <i name="EDIFFG">      0.00100000</i>
   <i type="int" name="NFREE">     0</i>
   <i name="POTIM">      0.50000000</i>
   <i name="SMASS">     -3.00000000</i>
   <i name="SCALEE">      1.00000000</i>
  </separator>
  <separator name="ionic md" >
   <i name="TEBEG">      0.00010000</i>
   <i name="TEEND">      0.00010000</i>
   <i type="int" name="NBLOCK">     1</i>
   <i type="int" name="KBLOCK">     1</i>
   <i type="int" name="NPACO">   256</i>
   <i name="APACO">     10.00000000</i>
  </separator>
  <separator name="symmetry" >
   <i type="int" name="ISYM">     0</i>
   <i name="SYMPREC">      0.00001000</i>
  </separator>
  <separator name="dos" >
   <i type="int" name="LORBIT">    11</i>
   <v name="RWIGS">     -1.00000000</v>
   <i type="int" name="NEDOS">   301</i>
   <i name="EMIN">     10.00000000</i>
   <i name="EMAX">    -10.00000000</i>
   <i name="EFERMI">      0.00000000</i>
  </separator>
  <separator name="writing" >
   <i type="int" name="NWRITE">     2</i>
   <i type="logical" name="LWAVE"> T  </i>
   <i type="logical" name="LDOWNSAMPLE"> F  </i>
   <i type="logical" name="LCHARG"> T  </i>
   <i type="logical" name="LPARD"> F  </i>
   <i type="logical" name="LVTOT"> F  </i>
   <i type="logical" name="LVHAR"> F  </i>
   <i type="logical" name="LELF"> F  </i>
   <i type="logical" name="LOPTICS"> F  </i>
   <v name="STM">      0.00000000      0.00000000      0.00000000      0.00000000      0.00000000      0.00000000      0.00000000</v>
  </separator>
  <separator name="performance" >
   <i type="int" name="NPAR">     1</i>
   <i type="int" name="NSIM">     4</i>
   <i type="int" name="NBLK">    -1</i>
   <i type="logical" name="LPLANE"> T  </i>
   <i type="logical" name="LSCALAPACK"> T  </i>
   <i type="logical" name="LSCAAWARE"> F  </i>
   <i type="logical" name="LSCALU"> F  </i>
   <i type="logical" name="LASYNC"> F  </i>
   <i type="logical" name="LORBITALREAL"> F  </i>
  </separator>
  <separator name="miscellaneous" >
   <i type="int" name="IDIOT">     3</i>
   <i type="int" name="PHON_NSTRUCT">    -1</i>
   <i type="logical" name="LMUSIC"> F  </i>
   <v name="POMASS">     28.08500000</v>
   <v name="DARWINR">      0.00000000</v>
   <v name="DARWINV">      1.00000000</v>
   <i type="logical" name="LCORR"> T  </i>
  </separator>
  <i type="logical" name="GGA_COMPAT"> T  </i>
  <i type="logical" name="LBERRY"> F  </i>
  <i type="int" name="ICORELEVEL">     0</i>
  <i type="logical" name="LDAU"> F  </i>
  <i type="int" name="I_CONSTRAINED_M">     0</i>
  <separator name="electronic exchange-correlation" >
   <i type="string" name="GGA">PE</i>
   <i type="int" name="VOSKOWN">     0</i>
   <i type="logical" name="LHFCALC"> F  </i>
   <i type="string" name="PRECFOCK"></i>
   <i type="logical" name="LSYMGRAD"> F  </i>
   <i type="logical" name="LHFONE"> F  </i>
   <i type="logical" name="LRHFCALC"> F  </i>
   <i type="logical" name="LTHOMAS"> F  </i>
   <i type="logical" name="LMODELHF"> F  </i>
   <i type="logical" name="LFOCKACE"> F  </i>
   <i name="ENCUT4O">     -1.00000000</i>
   <i type="int" name="EXXOEP">     0</i>
   <i type="int" name="FOURORBIT">     0</i>
   <i name="AEXX">      0.00000000</i>
   <i name="HFALPHA">      0.00000000</i>
   <i name="MCALPHA">      0.00000000</i>
   <i name="ALDAX">      1.00000000</i>
   <i name="AGGAX">      1.00000000</i>
   <i name="ALDAC">      1.00000000</i>
   <i name="AGGAC">      1.00000000</i>
   <i type="int" name="NKREDX">     1</i>
   <i type="int" name="NKREDY">     1</i>
   <i type="int" name="NKREDZ">     1</i>
   <i type="logical" name="SHIFTRED"> F  </i>
   <i type="logical" name="ODDONLY"> F  </i>
   <i type="logical" name="EVENONLY"> F  </i>
   <i type="int" name="LMAXFOCK">     0</i>
   <i type="int" name="NMAXFOCKAE">     0</i>
   <i type="logical" name="LFOCKAEDFT"> F  </i>
   <i name="HFSCREEN">      0.00000000</i>
   <i name="HFSCREENC">      0.00000000</i>
   <i type="int" name="NBANDSGWLOW">     0</i>
  </separator>
  <separator name="vdW DFT" >
   <i type="logical" name="LUSE_VDW"> F  </i>
   <i name="Zab_VDW">     -0.84910000</i>
   <i name="PARAM1">      0.12340000</i>
   <i name="PARAM2">      1.00000000</i>
   <i name="PARAM3">      0.00000000</i>
  </separator>
  <separator name="model GW" >
   <i type="int" name="MODEL_GW">     0</i>
   <i name="MODEL_EPS0">     12.00772552</i>
   <i name="MODEL_ALPHA">      1.00000000</i>
  </separator>
  <separator name="linear response parameters" >
   <i type="logical" name="LEPSILON"> F  </i>
   <i type="logical" name="LRPA"> F  </i>
   <i type="logical" name="LNABLA"> F  </i>
   <i type="logical" name="LVEL"> F  </i>
   <i name="CSHIFT">      0.10000000</i>
   <i name="OMEGAMAX">     -1.00000000</i>
   <i name="DEG_THRESHOLD">      0.00200000</i>
   <i name="RTIME">     -0.10000000</i>
   <i name="WPLASMAI">      0.00000000</i>
   <v name="DFIELD">      0.00000000      0.00000000      0.00000000</v>
   <v name="WPLASMA">      0.00000000      0.00000000      0.00000000      0.00000000      0.00000000      0.00000000      0.00000000      0.00000000      0.00000000</v>
  </separator>
  <separator name="orbital magnetization" >
   <i type="logical" name="NUCIND"> F  </i>
   <v name="MAGPOS">      0.00000000      0.00000000      0.00000000</v>
   <i type="logical" name="LNICSALL"> T  </i>
   <i type="logical" name="ORBITALMAG"> F  </i>
   <i type="logical" name="LMAGBLOCH"> F  </i>
   <i type="logical" name="LCHIMAG"> F  </i>
   <i type="logical" name="LGAUGE"> T  </i>
   <i type="int" name="MAGATOM">     0</i>
   <v name="MAGDIPOL">      0.00000000      0.00000000      0.00000000</v>
   <v name="AVECCONST">      0.00000000      0.00000000      0.00000000</v>
  </separator>
  <separator name="response functions" >
   <i type="logical" name="LFINITE_TEMPERATURE"> F  </i>
   <i type="logical" name="LADDER"> F  </i>
   <i type="logical" name="LRPAFORCE"> F  </i>
   <i type="logical" name="LFXC"> F  </i>
   <i type="logical" name="LHARTREE"> T  </i>
   <i type="int" name="IBSE">     0</i>
   <v type="int" name="KPOINT">    -1     0     0     0</v>
   <i type="logical" name="LTCTC"> F  </i>
   <i type="logical" name="LTCTE"> F  </i>
   <i type="logical" name="LTETE"> F  </i>
   <i type="logical" name="LTRIPLET"> F  </i>
   <i type="logical" name="LFXCEPS"> F  </i>
   <i type="logical" name="LFXHEG"> F  </i>
   <i type="int" name="NATURALO">     2</i>
   <i type="logical" name="LHOLEGF"> F  </i>
   <i type="logical" name="L2ORDER"> F  </i>
   <i type="logical" name="LDMP1"> F  </i>
   <i type="logical" name="LMP2LT"> F  </i>
   <i type="logical" name="LSMP2LT"> F  </i>
   <i type="logical" name="LGWLF"> F  </i>
   <i name="ENCUTGW">     -2.00000000</i>
   <i name="ENCUTGWSOFT">     -2.00000000</i>
   <i name="ENCUTLF">     -1.00000000</i>
   <i type="logical" name="LESF_SPLINES"> F  </i>
   <i type="int" name="LMAXMP2">    -1</i>
   <i name="SCISSOR">      0.00000000</i>
   <i type="int" name="NOMEGA">     0</i>
   <i type="int" name="NOMEGAR">     0</i>
   <i type="int" name="NBANDSGW">    -1</i>
   <i type="int" name="NBANDSO">    -1</i>
   <i type="int" name="NBANDSV">    -1</i>
   <i type="int" name="NELMGW">     1</i>
   <i type="int" name="NELMHF">     1</i>
   <i type="int" name="DIM">     3</i>
   <i type="int" name="IESPILON">     4</i>
   <i type="int" name="ANTIRES">     0</i>
   <i name="OMEGAMAX">    -30.00000000</i>
   <i name="OMEGAMIN">    -30.00000000</i>
   <i name="OMEGATL">   -200.00000000</i>
   <i type="int" name="OMEGAGRID">     0</i>
   <i name="CSHIFT">     -0.10000000</i>
   <i type="logical" name="LSELFENERGY"> F  </i>
   <i type="logical" name="LSPECTRAL"> F  </i>
   <i type="logical" name="LSPECTRALGW"> F  </i>
   <i type="logical" name="LSINGLES"> F  </i>
   <i type="logical" name="LFERMIGW"> F  </i>
   <i type="logical" name="ODDONLYGW"> F  </i>
   <i type="logical" name="EVENONLYGW"> F  </i>
   <i type="int" name="NKREDLFX">     1</i>
   <i type="int" name="NKREDLFY">     1</i>
   <i type="int" name="NKREDLFZ">     1</i>
   <i type="int" name="MAXMEM">  2800</i>
   <i type="int" name="TELESCOPE">     0</i>
   <i type="int" name="NTAUPAR">    -1</i>
   <i type="int" name="NOMEGAPAR">    -1</i>
   <i name="DAMP_NEWTON">      0.80000001</i>
   <i name="LAMBDA">      1.00000000</i>
  </separator>
  <separator name="External order field" >
   <i name="OFIELD_KAPPA">      0.00000000</i>
   <v name="OFIELD_K">      0.00000000      0.00000000      0.00000000</v>
   <i name="OFIELD_Q6_NEAR">      0.00000000</i>
   <i name="OFIELD_Q6_FAR">      0.00000000</i>
   <i name="OFIELD_A">      0.00000000</i>
  </separator>
  <separator name="optional k-points parameters" >
   <i type="int" name="KPOINTS_OPT_MODE">     1</i>
   <i type="logical" name="LKPOINTS_OPT"> F  </i>
  </separator>
 </parameters>
 <atominfo>
  <atoms>       2 </atoms>
  <types>       1 </types>
  <array name="atoms" >
   <dimension dim="1">ion</dimension>
   <field type="string">element</field>
   <field type="int">atomtype</field>
   <set>
    <rc><c>Si</c><c>   1</c></rc>
    <rc><c>Si</c><c>   1</c></rc>
   </set>
  </array>
  <array name="atomtypes" >
   <dimension dim="1">type</dimension>
   <field type="int">atomspertype</field>
   <field type="string">element</field>
   <field>mass</field>
   <field>valence</field>
   <field type="string">pseudopotential</field>
   <set>
    <rc><c>   2</c><c>Si</c><c>     28.08500000</c><c>      4.00000000</c><c>  PAW_PBE Si 05Jan2001                  </c></rc>
   </set>
  </array>
 </atominfo>
 <structure name="initialpos" >
  <crystal>
   <varray name="basis" >
    <v>       0.00000000       2.71500000       2.71500000 </v>
    <v>       2.71500000       0.00000000       2.71500000 </v>
    <v>       2.71500000       2.71500000       0.00000000 </v>
   </varray>
   <i name="volume">     40.02575175 </i>
   <varray name="rec_basis" >
    <v>      -0.18416206       0.18416206       0.18416206 </v>
    <v>       0.18416206      -0.18416206       0.18416206 </v>
    <v>       0.18416206       0.18416206      -0.18416206 </v>
   </varray>
  </crystal>
  <varray name="positions" >
   <v>       0.00000000       0.00000000       0.00000000 </v>
   <v>       0.25000000       0.25000000       0.25000000 </v>
  </varray>
 </structure>
 <calculation>
  <scstep>
   <time name="dav">    0.65    0.65</time>
   <time name="total">    0.70    0.70</time>
   <energy>
    <i name="alphaZ">      3.36414726 </i>
    <i name="ewald">   -228.56352493 </i>
    <i name="hartreedc">    -14.92811417 </i>
    <i name="XCdc">    -17.95897557 </i>
    <i name="pawpsdc">    894.42842651 </i>
    <i name="pawaedc">   -859.46775928 </i>
    <i name="eentropy">     -0.00172552 </i>
    <i name="bandstr">     17.52175164 </i>
    <i name="atom">    206.13066687 </i>
    <i name="e_fr_energy">      0.52489281 </i>
    <i name="e_wo_entrp">      0.52661833 </i>
    <i name="e_0_energy">      0.52575557 </i>
   </energy>
  </scstep>
  <scstep>
   <time name="dav">    0.86    0.86</time>
   <time name="total">    0.86    0.86</time>
   <energy>
    <i name="e_fr_energy">    -12.22323136 </i>
    <i name="e_wo_entrp">    -12.22323136 </i>
    <i name="e_0_energy">    -12.22323136 </i>
   </energy>
  </scstep>
  <scstep>
   <time name="dav">    1.03    1.03</time>
   <time name="total">    1.03    1.03</time>
   <energy>
    <i name="e_fr_energy">    -12.38619763 </i>
    <i name="e_wo_entrp">    -12.38619763 </i>
    <i name="e_0_energy">    -12.38619763 </i>
   </energy>
  </scstep>
  <scstep>
   <time name="dav">    0.86    0.86</time>
   <time name="total">    0.86    0.86</time>
   <energy>
    <i name="e_fr_energy">    -12.38629095 </i>
    <i name="e_wo_entrp">    -12.38629095 </i>
    <i name="e_0_energy">    -12.38629095 </i>
   </energy>
  </scstep>
  <scstep>
   <time name="dav">    0.98    0.98</time>
   <time name="total">    0.98    0.98</time>
   <energy>
    <i name="e_fr_energy">    -12.38629102 </i>
    <i name="e_wo_entrp">    -12.38629102 </i>
    <i name="e_0_energy">    -12.38629102 </i>
   </energy>
  </scstep>
  <scstep>
   <time name="dav">    0.88    0.88</time>
   <time name="total">    0.88    0.88</time>
   <energy>
    <i name="alphaZ">      3.36414726 </i>
    <i name="ewald">   -228.56352493 </i>
    <i name="hartreedc">    -14.92811417 </i>
    <i name="XCdc">    -17.95897557 </i>
    <i name="pawpsdc">    894.42842651 </i>
    <i name="pawaedc">   -859.46775928 </i>
    <i name="eentropy">     -0.00000000 </i>
    <i name="bandstr">      4.60884228 </i>
    <i name="atom">    206.13066687 </i>
    <i name="e_fr_energy">    -12.38629102 </i>
    <i name="e_wo_entrp">    -12.38629102 </i>
    <i name="e_0_energy">    -12.38629102 </i>
   </energy>
  </scstep>
  <structure>
   <crystal>
    <varray name="basis" >
     <v>       0.00000000       2.71500000       2.71500000 </v>
     <v>       2.71500000       0.00000000       2.71500000 </v>
     <v>       2.71500000       2.71500000       0.00000000 </v>
    </varray>
    <i name="volume">     40.02575175 </i>
    <varray name="rec_basis" >
     <v>      -0.18416206       0.18416206       0.18416206 </v>
     <v>       0.18416206      -0.18416206       0.18416206 </v>
     <v>       0.18416206       0.18416206      -0.18416206 </v>
    </varray>
   </crystal>
   <varray name="positions" >
    <v>       0.00000000       0.00000000       0.00000000 </v>
    <v>       0.25000000       0.25000000       0.25000000 </v>
   </varray>
  </structure>
  <varray name="forces" >
   <v>       0.00000735      -0.00011372       0.00010485 </v>
   <v>      -0.00000735       0.00011372      -0.00010485 </v>
  </varray>
  <varray name="stress" >
   <v>    -119.18154955      -0.01727293       0.01871720 </v>
   <v>      -0.01727293     143.82710035      -0.00417310 </v>
   <v>       0.01871726      -0.00417304     145.35670379 </v>
  </varray>
  <energy>
   <i name="e_fr_energy">    -12.38629102 </i>
   <i name="e_wo_entrp">    -12.38629102 </i>
   <i name="e_0_energy">    -12.38629102 </i>
  </energy>
  <time name="totalsc">    5.82    5.82</time>
  <eigenvalues>
   <array>
    <dimension dim="1">band</dimension>
    <dimension dim="2">kpoint</dimension>
    <dimension dim="3">spin</dimension>
    <field>eigene</field>
    <field>occ</field>
    <set>
     <set comment="spin 1">
      <set comment="kpoint 1">
       <r>   -3.3340    1.0000 </r>
       <r>   -0.4496    1.0000 </r>
       <r>    3.1201    1.0000 </r>
       <r>    3.1201    1.0000 </r>
       <r>    6.4102    0.0000 </r>
       <r>    7.0934    0.0000 </r>
       <r>   14.4724    0.0000 </r>
       <r>   14.4724    0.0000 </r>
      </set>
      <set comment="kpoint 2">
       <r>   -3.3186    1.0000 </r>
       <r>   -0.4695    1.0000 </r>
       <r>    3.1167    1.0000 </r>
       <r>    3.1167    1.0000 </r>
       <r>    6.4095    0.0000 </r>
       <r>    7.0839    0.0000 </r>
       <r>   14.4944    0.0000 </r>
       <r>   14.4944    0.0000 </r>
      </set>
      <set comment="kpoint 3">
       <r>   -3.3032    1.0000 </r>
       <r>   -0.4893    1.0000 </r>
       <r>    3.1134    1.0000 </r>
       <r>    3.1134    1.0000 </r>
       <r>    6.4089    0.0000 </r>
       <r>    7.0745    0.0000 </r>
       <r>   14.5164    0.0000 </r>
       <r>   14.5164    0.0000 </r>
      </set>
      <set comment="kpoint 4">
       <r>   -3.2877    1.0000 </r>
       <r>   -0.5091    1.0000 </r>
       <r>    3.1100    1.0000 </r>
       <r>    3.1100    1.0000 </r>
       <r>    6.4083    0.0000 </r>
       <r>    7.0651    0.0000 </r>
       <r>   14.5384    0.0000 </r>
       <r>   14.5384    0.0000 </r>
      </set>
      <set comment="kpoint 5">
       <r>   -3.2722    1.0000 </r>
       <r>   -0.5289    1.0000 </r>
       <r>    3.1068    1.0000 </r>
       <r>    3.1068    1.0000 </r>
       <r>    6.4077    0.0000 </r>
       <r>    7.0558    0.0000 </r>
       <r>   14.5604    0.0000 </r>
       <r>   14.5604    0.0000 </r>
      </set>
      <set comment="kpoint 6">
       <r>   -3.2567    1.0000 </r>
       <r>   -0.5487    1.0000 </r>
       <r>    3.1035    1.0000 </r>
       <r>    3.1035    1.0000 </r>
       <r>    6.4073    0.0000 </r>
       <r>    7.0466    0.0000 </r>
       <r>   14.5824    0.0000 </r>
       <r>   14.5824    0.0000 </r>
      </set>
      <set comment="kpoint 7">
       <r>   -3.2411    1.0000 </r>
       <r>   -0.5685    1.0000 </r>
       <r>    3.1003    1.0000 </r>
       <r>    3.1003    1.0000 </r>
       <r>    6.4068    0.0000 </r>
       <r>    7.0374    0.0000 </r>
       <r>   14.6041    0.0000 </r>
       <r>   14.6041    0.0000 </r>
      </set>
      <set comment="kpoint 8">
       <r>   -3.2255    1.0000 </r>
       <r>   -0.5882    1.0000 </r>
       <r>    3.0971    1.0000 </r>
       <r>    3.0971    1.0000 </r>
       <r>    6.4065    0.0000 </r>
       <r>    7.0283    0.0000 </r>
       <r>   14.6261    0.0000 </r>
       <r>   14.6261    0.0000 </r>
      </set>
      <set comment="kpoint 9">
       <r>   -3.2098    1.0000 </r>
       <r>   -0.6079    1.0000 </r>
       <r>    3.0940    1.0000 </r>
       <r>    3.0940    1.0000 </r>
       <r>    6.4062    0.0000 </r>
       <r>    7.0193    0.0000 </r>
       <r>   14.6480    0.0000 </r>
       <r>   14.6480    0.0000 </r>
      </set>
      <set comment="kpoint 10">
       <r>   -3.1942    1.0000 </r>
       <r>   -0.6276    1.0000 </r>
       <r>    3.0909    1.0000 </r>
       <r>    3.0909    1.0000 </r>
       <r>    6.4059    0.0000 </r>
       <r>    7.0103    0.0000 </r>
       <r>   14.6700    0.0000 </r>
       <r>   14.6700    0.0000 </r>
      </set>
      <set comment="kpoint 11">
       <r>   -3.1785    1.0000 </r>
       <r>   -0.6473    1.0000 </r>
       <r>    3.0879    1.0000 </r>
       <r>    3.0879    1.0000 </r>
       <r>    6.4058    0.0000 </r>
       <r>    7.0015    0.0000 </r>
       <r>   14.6920    0.0000 </r>
       <r>   14.6920    0.0000 </r>
      </set>
      <set comment="kpoint 12">
       <r>   -3.1627    1.0000 </r>
       <r>   -0.6670    1.0000 </r>
       <r>    3.0849    1.0000 </r>
       <r>    3.0849    1.0000 </r>
       <r>    6.4056    0.0000 </r>
       <r>    6.9928    0.0000 </r>
       <r>   14.7151    0.0000 </r>
       <r>   14.7151    0.0000 </r>
      </set>
      <set comment="kpoint 13">
       <r>   -3.1469    1.0000 </r>
       <r>   -0.6866    1.0000 </r>
       <r>    3.0820    1.0000 </r>
       <r>    3.0820    1.0000 </r>
       <r>    6.4056    0.0000 </r>
       <r>    6.9841    0.0000 </r>
       <r>   14.7371    0.0000 </r>
       <r>   14.7371    0.0000 </r>
      </set>
      <set comment="kpoint 14">
       <r>   -3.1311    1.0000 </r>
       <r>   -0.7062    1.0000 </r>
       <r>    3.0791    1.0000 </r>
       <r>    3.0791    1.0000 </r>
       <r>    6.4056    0.0000 </r>
       <r>    6.9754    0.0000 </r>
       <r>   14.7590    0.0000 </r>
       <r>   14.7591    0.0000 </r>
      </set>
      <set comment="kpoint 15">
       <r>   -3.1152    1.0000 </r>
       <r>   -0.7258    1.0000 </r>
       <r>    3.0762    1.0000 </r>
       <r>    3.0762    1.0000 </r>
       <r>    6.4056    0.0000 </r>
       <r>    6.9668    0.0000 </r>
       <r>   14.7810    0.0000 </r>
       <r>   14.7810    0.0000 </r>
      </set>
      <set comment="kpoint 16">
       <r>   -3.0994    1.0000 </r>
       <r>   -0.7454    1.0000 </r>
       <r>    3.0734    1.0000 </r>
       <r>    3.0734    1.0000 </r>
       <r>    6.4057    0.0000 </r>
       <r>    6.9582    0.0000 </r>
       <r>   14.8029    0.0000 </r>
       <r>   14.8029    0.0000 </r>
      </set>
      <set comment="kpoint 17">
       <r>   -3.0834    1.0000 </r>
       <r>   -0.7650    1.0000 </r>
       <r>    3.0706    1.0000 </r>
       <r>    3.0706    1.0000 </r>
       <r>    6.4059    0.0000 </r>
       <r>    6.9497    0.0000 </r>
       <r>   14.8249    0.0000 </r>
       <r>   14.8249    0.0000 </r>
      </set>
      <set comment="kpoint 18">
       <r>   -3.0675    1.0000 </r>
       <r>   -0.7845    1.0000 </r>
       <r>    3.0679    1.0000 </r>
       <r>    3.0679    1.0000 </r>
       <r>    6.4061    0.0000 </r>
       <r>    6.9413    0.0000 </r>
       <r>   14.8468    0.0000 </r>
       <r>   14.8468    0.0000 </r>
      </set>
      <set comment="kpoint 19">
       <r>   -3.0515    1.0000 </r>
       <r>   -0.8041    1.0000 </r>
       <r>    3.0652    1.0000 </r>
       <r>    3.0652    1.0000 </r>
       <r>    6.4064    0.0000 </r>
       <r>    6.9330    0.0000 </r>
       <r>   14.8687    0.0000 </r>
       <r>   14.8687    0.0000 </r>
      </set>
      <set comment="kpoint 20">
       <r>   -3.0354    1.0000 </r>
       <r>   -0.8236    1.0000 </r>
       <r>    3.0625    1.0000 </r>
       <r>    3.0625    1.0000 </r>
       <r>    6.4067    0.0000 </r>
       <r>    6.9247    0.0000 </r>
       <r>   14.8906    0.0000 </r>
       <r>   14.8906    0.0000 </r>
      </set>
      <set comment="kpoint 21">
       <r>   -3.0194    1.0000 </r>
       <r>   -0.8431    1.0000 </r>
       <r>    3.0599    1.0000 </r>
       <r>    3.0599    1.0000 </r>
       <r>    6.4071    0.0000 </r>
       <r>    6.9165    0.0000 </r>
       <r>   14.9125    0.0000 </r>
       <r>   14.9125    0.0000 </r>
      </set>
      <set comment="kpoint 22">
       <r>   -3.0033    1.0000 </r>
       <r>   -0.8625    1.0000 </r>
       <r>    3.0574    1.0000 </r>
       <r>    3.0574    1.0000 </r>
       <r>    6.4076    0.0000 </r>
       <r>    6.9084    0.0000 </r>
       <r>   14.9343    0.0000 </r>
       <r>   14.9343    0.0000 </r>
      </set>
      <set comment="kpoint 23">
       <r>   -2.9871    1.0000 </r>
       <r>   -0.8820    1.0000 </r>
       <r>    3.0548    1.0000 </r>
       <r>    3.0548    1.0000 </r>
       <r>    6.4081    0.0000 </r>
       <r>    6.9003    0.0000 </r>
       <r>   14.9562    0.0000 </r>
       <r>   14.9564    0.0000 </r>
      </set>
      <set comment="kpoint 24">
       <r>   -2.9710    1.0000 </r>
       <r>   -0.9014    1.0000 </r>
       <r>    3.0524    1.0000 </r>
       <r>    3.0524    1.0000 </r>
       <r>    6.4086    0.0000 </r>
       <r>    6.8923    0.0000 </r>
       <r>   14.9780    0.0000 </r>
       <r>   14.9780    0.0000 </r>
      </set>
      <set comment="kpoint 25">
       <r>   -2.9548    1.0000 </r>
       <r>   -0.9208    1.0000 </r>
       <r>    3.0499    1.0000 </r>
       <r>    3.0499    1.0000 </r>
       <r>    6.4093    0.0000 </r>
       <r>    6.8844    0.0000 </r>
       <r>   14.9998    0.0000 </r>
       <r>   14.9998    0.0000 </r>
      </set>
      <set comment="kpoint 26">
       <r>   -2.9385    1.0000 </r>
       <r>   -0.9402    1.0000 </r>
       <r>    3.0475    1.0000 </r>
       <r>    3.0475    1.0000 </r>
       <r>    6.4099    0.0000 </r>
       <r>    6.8766    0.0000 </r>
       <r>   15.0216    0.0000 </r>
       <r>   15.0216    0.0000 </r>
      </set>
      <set comment="kpoint 27">
       <r>   -2.9223    1.0000 </r>
       <r>   -0.9595    1.0000 </r>
       <r>    3.0452    1.0000 </r>
       <r>    3.0452    1.0000 </r>
       <r>    6.4107    0.0000 </r>
       <r>    6.8688    0.0000 </r>
       <r>   15.0433    0.0000 </r>
       <r>   15.0433    0.0000 </r>
      </set>
      <set comment="kpoint 28">
       <r>   -2.9060    1.0000 </r>
       <r>   -0.9789    1.0000 </r>
       <r>    3.0429    1.0000 </r>
       <r>    3.0429    1.0000 </r>
       <r>    6.4115    0.0000 </r>
       <r>    6.8610    0.0000 </r>
       <r>   15.0650    0.0000 </r>
       <r>   15.0650    0.0000 </r>
      </set>
      <set comment="kpoint 29">
       <r>   -2.8896    1.0000 </r>
       <r>   -0.9982    1.0000 </r>
       <r>    3.0406    1.0000 </r>
       <r>    3.0406    1.0000 </r>
       <r>    6.4124    0.0000 </r>
       <r>    6.8534    0.0000 </r>
       <r>   15.0867    0.0000 </r>
       <r>   15.0867    0.0000 </r>
      </set>
      <set comment="kpoint 30">
       <r>   -2.8733    1.0000 </r>
       <r>   -1.0175    1.0000 </r>
       <r>    3.0384    1.0000 </r>
       <r>    3.0384    1.0000 </r>
       <r>    6.4133    0.0000 </r>
       <r>    6.8458    0.0000 </r>
       <r>   15.1084    0.0000 </r>
       <r>   15.1085    0.0000 </r>
      </set>
      <set comment="kpoint 31">
       <r>   -3.1035    1.0000 </r>
       <r>   -0.7375    1.0000 </r>
       <r>    3.0559    1.0000 </r>
       <r>    3.0647    1.0000 </r>
       <r>    6.4356    0.0000 </r>
       <r>    6.9871    0.0000 </r>
       <r>   14.7042    0.0000 </r>
       <r>   14.7930    0.0000 </r>
      </set>
      <set comment="kpoint 32">
       <r>   -3.1039    1.0000 </r>
       <r>   -0.7373    1.0000 </r>
       <r>    3.0584    1.0000 </r>
       <r>    3.0660    1.0000 </r>
       <r>    6.4316    0.0000 </r>
       <r>    6.9838    0.0000 </r>
       <r>   14.7156    0.0000 </r>
       <r>   14.7930    0.0000 </r>
      </set>
      <set comment="kpoint 33">
       <r>   -3.1043    1.0000 </r>
       <r>   -0.7372    1.0000 </r>
       <r>    3.0607    1.0000 </r>
       <r>    3.0673    1.0000 </r>
       <r>    6.4280    0.0000 </r>
       <r>    6.9807    0.0000 </r>
       <r>   14.7262    0.0000 </r>
       <r>   14.7929    0.0000 </r>
      </set>
      <set comment="kpoint 34">
       <r>   -3.1047    1.0000 </r>
       <r>   -0.7370    1.0000 </r>
       <r>    3.0629    1.0000 </r>
       <r>    3.0684    1.0000 </r>
       <r>    6.4245    0.0000 </r>
       <r>    6.9779    0.0000 </r>
       <r>   14.7360    0.0000 </r>
       <r>   14.7929    0.0000 </r>
      </set>
      <set comment="kpoint 35">
       <r>   -3.1050    1.0000 </r>
       <r>   -0.7369    1.0000 </r>
       <r>    3.0648    1.0000 </r>
       <r>    3.0694    1.0000 </r>
       <r>    6.4214    0.0000 </r>
       <r>    6.9753    0.0000 </r>
       <r>   14.7452    0.0000 </r>
       <r>   14.7929    0.0000 </r>
      </set>
      <set comment="kpoint 36">
       <r>   -3.1054    1.0000 </r>
       <r>   -0.7368    1.0000 </r>
       <r>    3.0666    1.0000 </r>
       <r>    3.0704    1.0000 </r>
       <r>    6.4186    0.0000 </r>
       <r>    6.9729    0.0000 </r>
       <r>   14.7536    0.0000 </r>
       <r>   14.7929    0.0000 </r>
      </set>
      <set comment="kpoint 37">
       <r>   -3.1057    1.0000 </r>
       <r>   -0.7367    1.0000 </r>
       <r>    3.0682    1.0000 </r>
       <r>    3.0712    1.0000 </r>
       <r>    6.4160    0.0000 </r>
       <r>    6.9708    0.0000 </r>
       <r>   14.7612    0.0000 </r>
       <r>   14.7928    0.0000 </r>
      </set>
      <set comment="kpoint 38">
       <r>   -3.1059    1.0000 </r>
       <r>   -0.7365    1.0000 </r>
       <r>    3.0697    1.0000 </r>
       <r>    3.0720    1.0000 </r>
       <r>    6.4137    0.0000 </r>
       <r>    6.9689    0.0000 </r>
       <r>   14.7685    0.0000 </r>
       <r>   14.7928    0.0000 </r>
      </set>
      <set comment="kpoint 39">
       <r>   -3.1062    1.0000 </r>
       <r>   -0.7365    1.0000 </r>
       <r>    3.0709    1.0000 </r>
       <r>    3.0727    1.0000 </r>
       <r>    6.4117    0.0000 </r>
       <r>    6.9673    0.0000 </r>
       <r>   14.7745    0.0000 </r>
       <r>   14.7928    0.0000 </r>
      </set>
      <set comment="kpoint 40">
       <r>   -3.1064    1.0000 </r>
       <r>   -0.7364    1.0000 </r>
       <r>    3.0720    1.0000 </r>
       <r>    3.0732    1.0000 </r>
       <r>    6.4100    0.0000 </r>
       <r>    6.9659    0.0000 </r>
       <r>   14.7795    0.0000 </r>
       <r>   14.7927    0.0000 </r>
      </set>
      <set comment="kpoint 41">
       <r>   -3.1065    1.0000 </r>
       <r>   -0.7363    1.0000 </r>
       <r>    3.0729    1.0000 </r>
       <r>    3.0737    1.0000 </r>
       <r>    6.4086    0.0000 </r>
       <r>    6.9647    0.0000 </r>
       <r>   14.7838    0.0000 </r>
       <r>   14.7927    0.0000 </r>
      </set>
      <set comment="kpoint 42">
       <r>   -3.1067    1.0000 </r>
       <r>   -0.7362    1.0000 </r>
       <r>    3.0736    1.0000 </r>
       <r>    3.0741    1.0000 </r>
       <r>    6.4074    0.0000 </r>
       <r>    6.9637    0.0000 </r>
       <r>   14.7873    0.0000 </r>
       <r>   14.7926    0.0000 </r>
      </set>
      <set comment="kpoint 43">
       <r>   -3.1068    1.0000 </r>
       <r>   -0.7362    1.0000 </r>
       <r>    3.0741    1.0000 </r>
       <r>    3.0744    1.0000 </r>
       <r>    6.4066    0.0000 </r>
       <r>    6.9630    0.0000 </r>
       <r>   14.7898    0.0000 </r>
       <r>   14.7926    0.0000 </r>
      </set>
      <set comment="kpoint 44">
       <r>   -3.1069    1.0000 </r>
       <r>   -0.7361    1.0000 </r>
       <r>    3.0745    1.0000 </r>
       <r>    3.0746    1.0000 </r>
       <r>    6.4060    0.0000 </r>
       <r>    6.9626    0.0000 </r>
       <r>   14.7915    0.0000 </r>
       <r>   14.7925    0.0000 </r>
      </set>
      <set comment="kpoint 45">
       <r>   -3.1069    1.0000 </r>
       <r>   -0.7361    1.0000 </r>
       <r>    3.0747    1.0000 </r>
       <r>    3.0747    1.0000 </r>
       <r>    6.4057    0.0000 </r>
       <r>    6.9623    0.0000 </r>
       <r>   14.7923    0.0000 </r>
       <r>   14.7925    0.0000 </r>
      </set>
      <set comment="kpoint 46">
       <r>   -3.1070    1.0000 </r>
       <r>   -0.7361    1.0000 </r>
       <r>    3.0747    1.0000 </r>
       <r>    3.0747    1.0000 </r>
       <r>    6.4057    0.0000 </r>
       <r>    6.9623    0.0000 </r>
       <r>   14.7923    0.0000 </r>
       <r>   14.7924    0.0000 </r>
      </set>
      <set comment="kpoint 47">
       <r>   -3.1070    1.0000 </r>
       <r>   -0.7360    1.0000 </r>
       <r>    3.0745    1.0000 </r>
       <r>    3.0746    1.0000 </r>
       <r>    6.4060    0.0000 </r>
       <r>    6.9626    0.0000 </r>
       <r>   14.7914    0.0000 </r>
       <r>   14.7924    0.0000 </r>
      </set>
      <set comment="kpoint 48">
       <r>   -3.1069    1.0000 </r>
       <r>   -0.7360    1.0000 </r>
       <r>    3.0742    1.0000 </r>
       <r>    3.0744    1.0000 </r>
       <r>    6.4065    0.0000 </r>
       <r>    6.9631    0.0000 </r>
       <r>   14.7897    0.0000 </r>
       <r>   14.7924    0.0000 </r>
      </set>
      <set comment="kpoint 49">
       <r>   -3.1069    1.0000 </r>
       <r>   -0.7360    1.0000 </r>
       <r>    3.0737    1.0000 </r>
       <r>    3.0742    1.0000 </r>
       <r>    6.4074    0.0000 </r>
       <r>    6.9638    0.0000 </r>
       <r>   14.7872    0.0000 </r>
       <r>   14.7924    0.0000 </r>
      </set>
      <set comment="kpoint 50">
       <r>   -3.1068    1.0000 </r>
       <r>   -0.7360    1.0000 </r>
       <r>    3.0729    1.0000 </r>
       <r>    3.0738    1.0000 </r>
       <r>    6.4085    0.0000 </r>
       <r>    6.9647    0.0000 </r>
       <r>   14.7837    0.0000 </r>
       <r>   14.7923    0.0000 </r>
      </set>
      <set comment="kpoint 51">
       <r>   -3.1066    1.0000 </r>
       <r>   -0.7360    1.0000 </r>
       <r>    3.0721    1.0000 </r>
       <r>    3.0733    1.0000 </r>
       <r>    6.4099    0.0000 </r>
       <r>    6.9659    0.0000 </r>
       <r>   14.7794    0.0000 </r>
       <r>   14.7923    0.0000 </r>
      </set>
      <set comment="kpoint 52">
       <r>   -3.1065    1.0000 </r>
       <r>   -0.7361    1.0000 </r>
       <r>    3.0710    1.0000 </r>
       <r>    3.0728    1.0000 </r>
       <r>    6.4116    0.0000 </r>
       <r>    6.9674    0.0000 </r>
       <r>   14.7743    0.0000 </r>
       <r>   14.7924    0.0000 </r>
      </set>
      <set comment="kpoint 53">
       <r>   -3.1063    1.0000 </r>
       <r>   -0.7361    1.0000 </r>
       <r>    3.0698    1.0000 </r>
       <r>    3.0721    1.0000 </r>
       <r>    6.4136    0.0000 </r>
       <r>    6.9690    0.0000 </r>
       <r>   14.7683    0.0000 </r>
       <r>   14.7923    0.0000 </r>
      </set>
      <set comment="kpoint 54">
       <r>   -3.1061    1.0000 </r>
       <r>   -0.7362    1.0000 </r>
       <r>    3.0684    1.0000 </r>
       <r>    3.0713    1.0000 </r>
       <r>    6.4159    0.0000 </r>
       <r>    6.9709    0.0000 </r>
       <r>   14.7609    0.0000 </r>
       <r>   14.7923    0.0000 </r>
      </set>
      <set comment="kpoint 55">
       <r>   -3.1058    1.0000 </r>
       <r>   -0.7362    1.0000 </r>
       <r>    3.0668    1.0000 </r>
       <r>    3.0705    1.0000 </r>
       <r>    6.4185    0.0000 </r>
       <r>    6.9731    0.0000 </r>
       <r>   14.7533    0.0000 </r>
       <r>   14.7922    0.0000 </r>
      </set>
      <set comment="kpoint 56">
       <r>   -3.1056    1.0000 </r>
       <r>   -0.7363    1.0000 </r>
       <r>    3.0650    1.0000 </r>
       <r>    3.0696    1.0000 </r>
       <r>    6.4213    0.0000 </r>
       <r>    6.9754    0.0000 </r>
       <r>   14.7449    0.0000 </r>
       <r>   14.7922    0.0000 </r>
      </set>
      <set comment="kpoint 57">
       <r>   -3.1052    1.0000 </r>
       <r>   -0.7364    1.0000 </r>
       <r>    3.0630    1.0000 </r>
       <r>    3.0685    1.0000 </r>
       <r>    6.4244    0.0000 </r>
       <r>    6.9780    0.0000 </r>
       <r>   14.7357    0.0000 </r>
       <r>   14.7921    0.0000 </r>
      </set>
      <set comment="kpoint 58">
       <r>   -3.1049    1.0000 </r>
       <r>   -0.7365    1.0000 </r>
       <r>    3.0609    1.0000 </r>
       <r>    3.0674    1.0000 </r>
       <r>    6.4278    0.0000 </r>
       <r>    6.9809    0.0000 </r>
       <r>   14.7258    0.0000 </r>
       <r>   14.7922    0.0000 </r>
      </set>
      <set comment="kpoint 59">
       <r>   -3.1045    1.0000 </r>
       <r>   -0.7366    1.0000 </r>
       <r>    3.0586    1.0000 </r>
       <r>    3.0662    1.0000 </r>
       <r>    6.4315    0.0000 </r>
       <r>    6.9840    0.0000 </r>
       <r>   14.7151    0.0000 </r>
       <r>   14.7921    0.0000 </r>
      </set>
      <set comment="kpoint 60">
       <r>   -3.1042    1.0000 </r>
       <r>   -0.7367    1.0000 </r>
       <r>    3.0562    1.0000 </r>
       <r>    3.0649    1.0000 </r>
       <r>    6.4354    0.0000 </r>
       <r>    6.9873    0.0000 </r>
       <r>   14.7037    0.0000 </r>
       <r>   14.7920    0.0000 </r>
      </set>
     </set>
    </set>
   </array>
  </eigenvalues>
  <separator name="orbital magnetization" >
   <v name="MAGDIPOLOUT">      0.00000000      0.00000000      0.00000000</v>
  </separator>
  <dos>
   <i name="efermi">      3.38945035 </i>
   <total>
    <array>
     <dimension dim="1">gridpoints</dimension>
     <dimension dim="2">spin</dimension>
     <field>energy</field>
     <field>total</field>
     <field>integrated</field>
     <set>
      <set comment="spin 1">
       <r>    -4.2561     0.0000     0.0000 </r>
       <r>    -4.1885     0.0000     0.0000 </r>
       <r>    -4.1209     0.0000     0.0000 </r>
       <r>    -4.0532     0.0000     0.0000 </r>
       <r>    -3.9856     0.0000     0.0000 </r>
       <r>    -3.9180     0.0000     0.0000 </r>
       <r>    -3.8504     0.0000     0.0000 </r>
       <r>    -3.7827     0.0000     0.0000 </r>
       <r>    -3.7151     0.0000     0.0000 </r>
       <r>    -3.6475     0.0000     0.0000 </r>
       <r>    -3.5799     0.0000     0.0000 </r>
       <r>    -3.5123     0.0000     0.0000 </r>
       <r>    -3.4446     0.0005     0.0000 </r>
       <r>    -3.3770     0.0917     0.0062 </r>
       <r>    -3.3094     1.0474     0.0771 </r>
       <r>    -3.2418     2.0418     0.2151 </r>
       <r>    -3.1741     2.5216     0.3856 </r>
       <r>    -3.1065     8.9910     0.9936 </r>
       <r>    -3.0389     9.1651     1.6134 </r>
       <r>    -2.9713     2.4999     1.7825 </r>
       <r>    -2.9037     1.9804     1.9164 </r>
       <r>    -2.8360     1.1161     1.9918 </r>
       <r>    -2.7684     0.1196     1.9999 </r>
       <r>    -2.7008     0.0009     2.0000 </r>
       <r>    -2.6332     0.0000     2.0000 </r>
       <r>    -2.5655     0.0000     2.0000 </r>
       <r>    -2.4979     0.0000     2.0000 </r>
       <r>    -2.4303     0.0000     2.0000 </r>
       <r>    -2.3627     0.0000     2.0000 </r>
       <r>    -2.2951     0.0000     2.0000 </r>
       <r>    -2.2274     0.0000     2.0000 </r>
       <r>    -2.1598     0.0000     2.0000 </r>
       <r>    -2.0922     0.0000     2.0000 </r>
       <r>    -2.0246     0.0000     2.0000 </r>
       <r>    -1.9569     0.0000     2.0000 </r>
       <r>    -1.8893     0.0000     2.0000 </r>
       <r>    -1.8217     0.0000     2.0000 </r>
       <r>    -1.7541     0.0000     2.0000 </r>
       <r>    -1.6865     0.0000     2.0000 </r>
       <r>    -1.6188     0.0000     2.0000 </r>
       <r>    -1.5512     0.0000     2.0000 </r>
       <r>    -1.4836     0.0000     2.0000 </r>
       <r>    -1.4160     0.0000     2.0000 </r>
       <r>    -1.3483     0.0000     2.0000 </r>
       <r>    -1.2807     0.0000     2.0000 </r>
       <r>    -1.2131     0.0000     2.0000 </r>
       <r>    -1.1455     0.0001     2.0000 </r>
       <r>    -1.0779     0.0290     2.0020 </r>
       <r>    -1.0102     0.5834     2.0414 </r>
       <r>    -0.9426     1.5454     2.1459 </r>
       <r>    -0.8750     1.7161     2.2620 </r>
       <r>    -0.8074     2.0421     2.4001 </r>
       <r>    -0.7397     8.2152     2.9556 </r>
       <r>    -0.6721     9.1362     3.5734 </r>
       <r>    -0.6045     2.2021     3.7223 </r>
       <r>    -0.5369     1.6885     3.8365 </r>
       <r>    -0.4693     1.5878     3.9439 </r>
       <r>    -0.4016     0.7696     3.9959 </r>
       <r>    -0.3340     0.0602     4.0000 </r>
       <r>    -0.2664     0.0003     4.0000 </r>
       <r>    -0.1988     0.0000     4.0000 </r>
       <r>    -0.1311     0.0000     4.0000 </r>
       <r>    -0.0635     0.0000     4.0000 </r>
       <r>     0.0041     0.0000     4.0000 </r>
       <r>     0.0717     0.0000     4.0000 </r>
       <r>     0.1394     0.0000     4.0000 </r>
       <r>     0.2070     0.0000     4.0000 </r>
       <r>     0.2746     0.0000     4.0000 </r>
       <r>     0.3422     0.0000     4.0000 </r>
       <r>     0.4098     0.0000     4.0000 </r>
       <r>     0.4775     0.0000     4.0000 </r>
       <r>     0.5451     0.0000     4.0000 </r>
       <r>     0.6127     0.0000     4.0000 </r>
       <r>     0.6803     0.0000     4.0000 </r>
       <r>     0.7480     0.0000     4.0000 </r>
       <r>     0.8156     0.0000     4.0000 </r>
       <r>     0.8832     0.0000     4.0000 </r>
       <r>     0.9508     0.0000     4.0000 </r>
       <r>     1.0184     0.0000     4.0000 </r>
       <r>     1.0861     0.0000     4.0000 </r>
       <r>     1.1537     0.0000     4.0000 </r>
       <r>     1.2213     0.0000     4.0000 </r>
       <r>     1.2889     0.0000     4.0000 </r>
       <r>     1.3566     0.0000     4.0000 </r>
       <r>     1.4242     0.0000     4.0000 </r>
       <r>     1.4918     0.0000     4.0000 </r>
       <r>     1.5594     0.0000     4.0000 </r>
       <r>     1.6270     0.0000     4.0000 </r>
       <r>     1.6947     0.0000     4.0000 </r>
       <r>     1.7623     0.0000     4.0000 </r>
       <r>     1.8299     0.0000     4.0000 </r>
       <r>     1.8975     0.0000     4.0000 </r>
       <r>     1.9652     0.0000     4.0000 </r>
       <r>     2.0328     0.0000     4.0000 </r>
       <r>     2.1004     0.0000     4.0000 </r>
       <r>     2.1680     0.0000     4.0000 </r>
       <r>     2.2356     0.0000     4.0000 </r>
       <r>     2.3033     0.0000     4.0000 </r>
       <r>     2.3709     0.0000     4.0000 </r>
       <r>     2.4385     0.0000     4.0000 </r>
       <r>     2.5061     0.0000     4.0000 </r>
       <r>     2.5738     0.0000     4.0000 </r>
       <r>     2.6414     0.0000     4.0000 </r>
       <r>     2.7090     0.0000     4.0000 </r>
       <r>     2.7766     0.0000     4.0000 </r>
       <r>     2.8442     0.0000     4.0000 </r>
       <r>     2.9119     0.0009     4.0001 </r>
       <r>     2.9795     0.4822     4.0327 </r>
       <r>     3.0471    14.7976     5.0333 </r>
       <r>     3.1147    35.2186     7.4149 </r>
       <r>     3.1824     8.4409     7.9857 </r>
       <r>     3.2500     0.2115     8.0000 </r>
       <r>     3.3176     0.0004     8.0000 </r>
       <r>     3.3852     0.0000     8.0000 </r>
       <r>     3.4528     0.0000     8.0000 </r>
       <r>     3.5205     0.0000     8.0000 </r>
       <r>     3.5881     0.0000     8.0000 </r>
       <r>     3.6557     0.0000     8.0000 </r>
       <r>     3.7233     0.0000     8.0000 </r>
       <r>     3.7910     0.0000     8.0000 </r>
       <r>     3.8586     0.0000     8.0000 </r>
       <r>     3.9262     0.0000     8.0000 </r>
       <r>     3.9938     0.0000     8.0000 </r>
       <r>     4.0614     0.0000     8.0000 </r>
       <r>     4.1291     0.0000     8.0000 </r>
       <r>     4.1967     0.0000     8.0000 </r>
       <r>     4.2643     0.0000     8.0000 </r>
       <r>     4.3319     0.0000     8.0000 </r>
       <r>     4.3996     0.0000     8.0000 </r>
       <r>     4.4672     0.0000     8.0000 </r>
       <r>     4.5348     0.0000     8.0000 </r>
       <r>     4.6024     0.0000     8.0000 </r>
       <r>     4.6700     0.0000     8.0000 </r>
       <r>     4.7377     0.0000     8.0000 </r>
       <r>     4.8053     0.0000     8.0000 </r>
       <r>     4.8729     0.0000     8.0000 </r>
       <r>     4.9405     0.0000     8.0000 </r>
       <r>     5.0082     0.0000     8.0000 </r>
       <r>     5.0758     0.0000     8.0000 </r>
       <r>     5.1434     0.0000     8.0000 </r>
       <r>     5.2110     0.0000     8.0000 </r>
       <r>     5.2787     0.0000     8.0000 </r>
       <r>     5.3463     0.0000     8.0000 </r>
       <r>     5.4139     0.0000     8.0000 </r>
       <r>     5.4815     0.0000     8.0000 </r>
       <r>     5.5491     0.0000     8.0000 </r>
       <r>     5.6168     0.0000     8.0000 </r>
       <r>     5.6844     0.0000     8.0000 </r>
       <r>     5.7520     0.0000     8.0000 </r>
       <r>     5.8196     0.0000     8.0000 </r>
       <r>     5.8873     0.0000     8.0000 </r>
       <r>     5.9549     0.0000     8.0000 </r>
       <r>     6.0225     0.0000     8.0000 </r>
       <r>     6.0901     0.0000     8.0000 </r>
       <r>     6.1577     0.0000     8.0000 </r>
       <r>     6.2254     0.0000     8.0000 </r>
       <r>     6.2930     0.0139     8.0009 </r>
       <r>     6.3606     2.2789     8.1550 </r>
       <r>     6.4282    17.6116     9.3460 </r>
       <r>     6.4959     9.3519     9.9784 </r>
       <r>     6.5635     0.3191    10.0000 </r>
       <r>     6.6311     0.0005    10.0000 </r>
       <r>     6.6987     0.0000    10.0000 </r>
       <r>     6.7663     0.0130    10.0009 </r>
       <r>     6.8340     0.6547    10.0452 </r>
       <r>     6.9016     3.5116    10.2826 </r>
       <r>     6.9692    10.6510    11.0029 </r>
       <r>     7.0368    10.9311    11.7420 </r>
       <r>     7.1045     3.2293    11.9604 </r>
       <r>     7.1721     0.5734    11.9992 </r>
       <r>     7.2397     0.0120    12.0000 </r>
       <r>     7.3073     0.0000    12.0000 </r>
       <r>     7.3749     0.0000    12.0000 </r>
       <r>     7.4426     0.0000    12.0000 </r>
       <r>     7.5102     0.0000    12.0000 </r>
       <r>     7.5778     0.0000    12.0000 </r>
       <r>     7.6454     0.0000    12.0000 </r>
       <r>     7.7131     0.0000    12.0000 </r>
       <r>     7.7807     0.0000    12.0000 </r>
       <r>     7.8483     0.0000    12.0000 </r>
       <r>     7.9159     0.0000    12.0000 </r>
       <r>     7.9835     0.0000    12.0000 </r>
       <r>     8.0512     0.0000    12.0000 </r>
       <r>     8.1188     0.0000    12.0000 </r>
       <r>     8.1864     0.0000    12.0000 </r>
       <r>     8.2540     0.0000    12.0000 </r>
       <r>     8.3217     0.0000    12.0000 </r>
       <r>     8.3893     0.0000    12.0000 </r>
       <r>     8.4569     0.0000    12.0000 </r>
       <r>     8.5245     0.0000    12.0000 </r>
       <r>     8.5921     0.0000    12.0000 </r>
       <r>     8.6598     0.0000    12.0000 </r>
       <r>     8.7274     0.0000    12.0000 </r>
       <r>     8.7950     0.0000    12.0000 </r>
       <r>     8.8626     0.0000    12.0000 </r>
       <r>     8.9303     0.0000    12.0000 </r>
       <r>     8.9979     0.0000    12.0000 </r>
       <r>     9.0655     0.0000    12.0000 </r>
       <r>     9.1331     0.0000    12.0000 </r>
       <r>     9.2007     0.0000    12.0000 </r>
       <r>     9.2684     0.0000    12.0000 </r>
       <r>     9.3360     0.0000    12.0000 </r>
       <r>     9.4036     0.0000    12.0000 </r>
       <r>     9.4712     0.0000    12.0000 </r>
       <r>     9.5389     0.0000    12.0000 </r>
       <r>     9.6065     0.0000    12.0000 </r>
       <r>     9.6741     0.0000    12.0000 </r>
       <r>     9.7417     0.0000    12.0000 </r>
       <r>     9.8093     0.0000    12.0000 </r>
       <r>     9.8770     0.0000    12.0000 </r>
       <r>     9.9446     0.0000    12.0000 </r>
       <r>    10.0122     0.0000    12.0000 </r>
       <r>    10.0798     0.0000    12.0000 </r>
       <r>    10.1475     0.0000    12.0000 </r>
       <r>    10.2151     0.0000    12.0000 </r>
       <r>    10.2827     0.0000    12.0000 </r>
       <r>    10.3503     0.0000    12.0000 </r>
       <r>    10.4180     0.0000    12.0000 </r>
       <r>    10.4856     0.0000    12.0000 </r>
       <r>    10.5532     0.0000    12.0000 </r>
       <r>    10.6208     0.0000    12.0000 </r>
       <r>    10.6884     0.0000    12.0000 </r>
       <r>    10.7561     0.0000    12.0000 </r>
       <r>    10.8237     0.0000    12.0000 </r>
       <r>    10.8913     0.0000    12.0000 </r>
       <r>    10.9589     0.0000    12.0000 </r>
       <r>    11.0266     0.0000    12.0000 </r>
       <r>    11.0942     0.0000    12.0000 </r>
       <r>    11.1618     0.0000    12.0000 </r>
       <r>    11.2294     0.0000    12.0000 </r>
       <r>    11.2970     0.0000    12.0000 </r>
       <r>    11.3647     0.0000    12.0000 </r>
       <r>    11.4323     0.0000    12.0000 </r>
       <r>    11.4999     0.0000    12.0000 </r>
       <r>    11.5675     0.0000    12.0000 </r>
       <r>    11.6352     0.0000    12.0000 </r>
       <r>    11.7028     0.0000    12.0000 </r>
       <r>    11.7704     0.0000    12.0000 </r>
       <r>    11.8380     0.0000    12.0000 </r>
       <r>    11.9056     0.0000    12.0000 </r>
       <r>    11.9733     0.0000    12.0000 </r>
       <r>    12.0409     0.0000    12.0000 </r>
       <r>    12.1085     0.0000    12.0000 </r>
       <r>    12.1761     0.0000    12.0000 </r>
       <r>    12.2438     0.0000    12.0000 </r>
       <r>    12.3114     0.0000    12.0000 </r>
       <r>    12.3790     0.0000    12.0000 </r>
       <r>    12.4466     0.0000    12.0000 </r>
       <r>    12.5142     0.0000    12.0000 </r>
       <r>    12.5819     0.0000    12.0000 </r>
       <r>    12.6495     0.0000    12.0000 </r>
       <r>    12.7171     0.0000    12.0000 </r>
       <r>    12.7847     0.0000    12.0000 </r>
       <r>    12.8524     0.0000    12.0000 </r>
       <r>    12.9200     0.0000    12.0000 </r>
       <r>    12.9876     0.0000    12.0000 </r>
       <r>    13.0552     0.0000    12.0000 </r>
       <r>    13.1228     0.0000    12.0000 </r>
       <r>    13.1905     0.0000    12.0000 </r>
       <r>    13.2581     0.0000    12.0000 </r>
       <r>    13.3257     0.0000    12.0000 </r>
       <r>    13.3933     0.0000    12.0000 </r>
       <r>    13.4610     0.0000    12.0000 </r>
       <r>    13.5286     0.0000    12.0000 </r>
       <r>    13.5962     0.0000    12.0000 </r>
       <r>    13.6638     0.0000    12.0000 </r>
       <r>    13.7314     0.0000    12.0000 </r>
       <r>    13.7991     0.0000    12.0000 </r>
       <r>    13.8667     0.0000    12.0000 </r>
       <r>    13.9343     0.0000    12.0000 </r>
       <r>    14.0019     0.0000    12.0000 </r>
       <r>    14.0696     0.0000    12.0000 </r>
       <r>    14.1372     0.0000    12.0000 </r>
       <r>    14.2048     0.0000    12.0000 </r>
       <r>    14.2724     0.0000    12.0000 </r>
       <r>    14.3400     0.0001    12.0000 </r>
       <r>    14.4077     0.0411    12.0028 </r>
       <r>    14.4753     0.9414    12.0664 </r>
       <r>    14.5429     2.6777    12.2475 </r>
       <r>    14.6105     3.0397    12.4531 </r>
       <r>    14.6782     3.6090    12.6971 </r>
       <r>    14.7458     9.1780    13.3178 </r>
       <r>    14.8134    19.9706    14.6682 </r>
       <r>    14.8810     8.7941    15.2629 </r>
       <r>    14.9486     3.1668    15.4770 </r>
       <r>    15.0163     3.0579    15.6838 </r>
       <r>    15.0839     2.9405    15.8827 </r>
       <r>    15.1515     1.5838    15.9898 </r>
       <r>    15.2191     0.1503    15.9999 </r>
       <r>    15.2868     0.0010    16.0000 </r>
       <r>    15.3544     0.0000    16.0000 </r>
       <r>    15.4220     0.0000    16.0000 </r>
       <r>    15.4896     0.0000    16.0000 </r>
       <r>    15.5573     0.0000    16.0000 </r>
       <r>    15.6249     0.0000    16.0000 </r>
       <r>    15.6925     0.0000    16.0000 </r>
       <r>    15.7601     0.0000    16.0000 </r>
       <r>    15.8277     0.0000    16.0000 </r>
       <r>    15.8954     0.0000    16.0000 </r>
       <r>    15.9630     0.0000    16.0000 </r>
       <r>    16.0306     0.0000    16.0000 </r>
      </set>
     </set>
    </array>
   </total>
   <partial>
    <array>
     <dimension dim="1">gridpoints</dimension>
     <dimension dim="2">spin</dimension>
     <dimension dim="3">ion</dimension>
     <field>energy</field>
     <field>    s</field>
     <field>   py</field>
     <field>   pz</field>
     <field>   px</field>
     <field>  dxy</field>
     <field>  dyz</field>
     <field>  dz2</field>
     <field>  dxz</field>
     <field>x2-y2</field>
     <set>
      <set comment="ion 1">
       <set comment="spin 1">
        <r>    -4.2561     0.0000     0.0000     0.0000     0.0000     0.0000     0.0000     0.0000     0.0000     0.0000 </r>
        <r>    -4.1885     0.0000     0.0000     0.0000     0.0000     0.0000     0.0000     0.0000     0.0000     0.0000 </r>
        <r>    -4.1209     0.0000     0.0000     0.0000     0.0000     0.0000     0.0000     0.0000     0.0000     0.0000 </r>
        <r>    -4.0532     0.0000     0.0000     0.0000     0.0000     0.0000     0.0000     0.0000     0.0000     0.0000 </r>
        <r>    -3.9856     0.0000     0.0000     0.0000     0.0000     0.0000     0.0000     0.0000     0.0000     0.0000 </r>
        <r>    -3.9180     0.0000     0.0000     0.0000     0.0000     0.0000     0.0000     0.0000     0.0000     0.0000 </r>
        <r>    -3.8504     0.0000     0.0000     0.0000     0.0000     0.0000     0.0000     0.0000     0.0000     0.0000 </r>
        <r>    -3.7827     0.0000     0.0000     0.0000     0.0000     0.0000     0.0000     0.0000     0.0000     0.0000 </r>
        <r>    -3.7151     0.0000     0.0000     0.0000     0.0000     0.0000     0.0000     0.0000     0.0000     0.0000 </r>
        <r>    -3.6475     0.0000     0.0000     0.0000     0.0000     0.0000     0.0000     0.0000     0.0000     0.0000 </r>
        <r>    -3.5799     0.0000     0.0000     0.0000     0.0000     0.0000     0.0000     0.0000     0.0000     0.0000 </r>
        <r>    -3.5123     0.0000     0.0000     0.0000     0.0000     0.0000     0.0000     0.0000     0.0000     0.0000 </r>
        <r>    -3.4446     0.0001     0.0000     0.0000     0.0000     0.0000     0.0000     0.0000     0.0000     0.0000 </r>
        <r>    -3.3770     0.0183     0.0000     0.0000     0.0028     0.0000     0.0000     0.0000     0.0000     0.0000 </r>
        <r>    -3.3094     0.2092     0.0000     0.0000     0.0325     0.0000     0.0000     0.0000     0.0000     0.0000 </r>
        <r>    -3.2418     0.4075     0.0000     0.0000     0.0641     0.0000     0.0000     0.0000     0.0000     0.0000 </r>
        <r>    -3.1741     0.5024     0.0000     0.0000     0.0814     0.0000     0.0000     0.0000     0.0000     0.0000 </r>
        <r>    -3.1065     1.7880     0.0000     0.0001     0.2976     0.0000     0.0000     0.0000     0.0000     0.0000 </r>
        <r>    -3.0389     1.8220     0.0000     0.0001     0.3049     0.0000     0.0000     0.0000     0.0000     0.0000 </r>
        <r>    -2.9713     0.4960     0.0000     0.0000     0.0853     0.0000     0.0000     0.0000     0.0000     0.0000 </r>
        <r>    -2.9037     0.3922     0.0000     0.0000     0.0694     0.0000     0.0000     0.0000     0.0000     0.0000 </r>
        <r>    -2.8360     0.2208     0.0000     0.0000     0.0396     0.0000     0.0000     0.0000     0.0000     0.0000 </r>
        <r>    -2.7684     0.0237     0.0000     0.0000     0.0043     0.0000     0.0000     0.0000     0.0000     0.0000 </r>
        <r>    -2.7008     0.0002     0.0000     0.0000     0.0000     0.0000     0.0000     0.0000     0.0000     0.0000 </r>
        <r>    -2.6332     0.0000     0.0000     0.0000     0.0000     0.0000     0.0000     0.0000     0.0000     0.0000 </r>
        <r>    -2.5655     0.0000     0.0000     0.0000     0.0000     0.0000     0.0000     0.0000     0.0000     0.0000 </r>
        <r>    -2.4979     0.0000     0.0000     0.0000     0.0000     0.0000     0.0000     0.0000     0.0000     0.0000 </r>
        <r>    -2.4303     0.0000     0.0000     0.0000     0.0000     0.0000     0.0000     0.0000     0.0000     0.0000 </r>
        <r>    -2.3627     0.0000     0.0000     0.0000     0.0000     0.0000     0.0000     0.0000     0.0000     0.0000 </r>
        <r>    -2.2951     0.0000     0.0000     0.0000     0.0000     0.0000     0.0000     0.0000     0.0000     0.0000 </r>
        <r>    -2.2274     0.0000     0.0000     0.0000     0.0000     0.0000     0.0000     0.0000     0.0000     0.0000 </r>
        <r>    -2.1598     0.0000     0.0000     0.0000     0.0000     0.0000     0.0000     0.0000     0.0000     0.0000 </r>
        <r>    -2.0922     0.0000     0.0000     0.0000     0.0000     0.0000     0.0000     0.0000     0.0000     0.0000 </r>
        <r>    -2.0246     0.0000     0.0000     0.0000     0.0000     0.0000     0.0000     0.0000     0.0000     0.0000 </r>
        <r>    -1.9569     0.0000     0.0000     0.0000     0.0000     0.0000     0.0000     0.0000     0.0000     0.0000 </r>
        <r>    -1.8893     0.0000     0.0000     0.0000     0.0000     0.0000     0.0000     0.0000     0.0000     0.0000 </r>
        <r>    -1.8217     0.0000     0.0000     0.0000     0.0000     0.0000     0.0000     0.0000     0.0000     0.0000 </r>
        <r>    -1.7541     0.0000     0.0000     0.0000     0.0000     0.0000     0.0000     0.0000     0.0000     0.0000 </r>
        <r>    -1.6865     0.0000     0.0000     0.0000     0.0000     0.0000     0.0000     0.0000     0.0000     0.0000 </r>
        <r>    -1.6188     0.0000     0.0000     0.0000     0.0000     0.0000     0.0000     0.0000     0.0000     0.0000 </r>
        <r>    -1.5512     0.0000     0.0000     0.0000     0.0000     0.0000     0.0000     0.0000     0.0000     0.0000 </r>
        <r>    -1.4836     0.0000     0.0000     0.0000     0.0000     0.0000     0.0000     0.0000     0.0000     0.0000 </r>
        <r>    -1.4160     0.0000     0.0000     0.0000     0.0000     0.0000     0.0000     0.0000     0.0000     0.0000 </r>
        <r>    -1.3483     0.0000     0.0000     0.0000     0.0000     0.0000     0.0000     0.0000     0.0000     0.0000 </r>
        <r>    -1.2807     0.0000     0.0000     0.0000     0.0000     0.0000     0.0000     0.0000     0.0000     0.0000 </r>
        <r>    -1.2131     0.0000     0.0000     0.0000     0.0000     0.0000     0.0000     0.0000     0.0000     0.0000 </r>
        <r>    -1.1455     0.0000     0.0000     0.0000     0.0000     0.0000     0.0000     0.0000     0.0000     0.0000 </r>
        <r>    -1.0779     0.0055     0.0000     0.0000     0.0016     0.0000     0.0000     0.0000     0.0000     0.0000 </r>
        <r>    -1.0102     0.1097     0.0000     0.0000     0.0332     0.0000     0.0000     0.0000     0.0000     0.0000 </r>
        <r>    -0.9426     0.2903     0.0000     0.0000     0.0885     0.0000     0.0000     0.0000     0.0000     0.0000 </r>
        <r>    -0.8750     0.3217     0.0000     0.0000     0.0994     0.0000     0.0000     0.0000     0.0000     0.0000 </r>
        <r>    -0.8074     0.3818     0.0000     0.0000     0.1203     0.0000     0.0000     0.0000     0.0000     0.0000 </r>
        <r>    -0.7397     1.5319     0.0000     0.0004     0.4911     0.0000     0.0000     0.0000     0.0000     0.0000 </r>
        <r>    -0.6721     1.7028     0.0000     0.0005     0.5476     0.0000     0.0000     0.0000     0.0000     0.0000 </r>
        <r>    -0.6045     0.4094     0.0000     0.0000     0.1339     0.0000     0.0000     0.0000     0.0000     0.0000 </r>
        <r>    -0.5369     0.3129     0.0000     0.0000     0.1045     0.0000     0.0000     0.0000     0.0000     0.0000 </r>
        <r>    -0.4693     0.2936     0.0000     0.0000     0.0994     0.0000     0.0000     0.0000     0.0000     0.0000 </r>
        <r>    -0.4016     0.1421     0.0000     0.0000     0.0485     0.0000     0.0000     0.0000     0.0000     0.0000 </r>
        <r>    -0.3340     0.0111     0.0000     0.0000     0.0038     0.0000     0.0000     0.0000     0.0000     0.0000 </r>
        <r>    -0.2664     0.0001     0.0000     0.0000     0.0000     0.0000     0.0000     0.0000     0.0000     0.0000 </r>
        <r>    -0.1988     0.0000     0.0000     0.0000     0.0000     0.0000     0.0000     0.0000     0.0000     0.0000 </r>
        <r>    -0.1311     0.0000     0.0000     0.0000     0.0000     0.0000     0.0000     0.0000     0.0000     0.0000 </r>
        <r>    -0.0635     0.0000     0.0000     0.0000     0.0000     0.0000     0.0000     0.0000     0.0000     0.0000 </r>
        <r>     0.0041     0.0000     0.0000     0.0000     0.0000     0.0000     0.0000     0.0000     0.0000     0.0000 </r>
        <r>     0.0717     0.0000     0.0000     0.0000     0.0000     0.0000     0.0000     0.0000     0.0000     0.0000 </r>
        <r>     0.1394     0.0000     0.0000     0.0000     0.0000     0.0000     0.0000     0.0000     0.0000     0.0000 </r>
        <r>     0.2070     0.0000     0.0000     0.0000     0.0000     0.0000     0.0000     0.0000     0.0000     0.0000 </r>
        <r>     0.2746     0.0000     0.0000     0.0000     0.0000     0.0000     0.0000     0.0000     0.0000     0.0000 </r>
        <r>     0.3422     0.0000     0.0000     0.0000     0.0000     0.0000     0.0000     0.0000     0.0000     0.0000 </r>
        <r>     0.4098     0.0000     0.0000     0.0000     0.0000     0.0000     0.0000     0.0000     0.0000     0.0000 </r>
        <r>     0.4775     0.0000     0.0000     0.0000     0.0000     0.0000     0.0000     0.0000     0.0000     0.0000 </r>
        <r>     0.5451     0.0000     0.0000     0.0000     0.0000     0.0000     0.0000     0.0000     0.0000     0.0000 </r>
        <r>     0.6127     0.0000     0.0000     0.0000     0.0000     0.0000     0.0000     0.0000     0.0000     0.0000 </r>
        <r>     0.6803     0.0000     0.0000     0.0000     0.0000     0.0000     0.0000     0.0000     0.0000     0.0000 </r>
        <r>     0.7480     0.0000     0.0000     0.0000     0.0000     0.0000     0.0000     0.0000     0.0000     0.0000 </r>
        <r>     0.8156     0.0000     0.0000     0.0000     0.0000     0.0000     0.0000     0.0000     0.0000     0.0000 </r>
        <r>     0.8832     0.0000     0.0000     0.0000     0.0000     0.0000     0.0000     0.0000     0.0000     0.0000 </r>
        <r>     0.9508     0.0000     0.0000     0.0000     0.0000     0.0000     0.0000     0.0000     0.0000     0.0000 </r>
        <r>     1.0184     0.0000     0.0000     0.0000     0.0000     0.0000     0.0000     0.0000     0.0000     0.0000 </r>
        <r>     1.0861     0.0000     0.0000     0.0000     0.0000     0.0000     0.0000     0.0000     0.0000     0.0000 </r>
        <r>     1.1537     0.0000     0.0000     0.0000     0.0000     0.0000     0.0000     0.0000     0.0000     0.0000 </r>
        <r>     1.2213     0.0000     0.0000     0.0000     0.0000     0.0000     0.0000     0.0000     0.0000     0.0000 </r>
        <r>     1.2889     0.0000     0.0000     0.0000     0.0000     0.0000     0.0000     0.0000     0.0000     0.0000 </r>
        <r>     1.3566     0.0000     0.0000     0.0000     0.0000     0.0000     0.0000     0.0000     0.0000     0.0000 </r>
        <r>     1.4242     0.0000     0.0000     0.0000     0.0000     0.0000     0.0000     0.0000     0.0000     0.0000 </r>
        <r>     1.4918     0.0000     0.0000     0.0000     0.0000     0.0000     0.0000     0.0000     0.0000     0.0000 </r>
        <r>     1.5594     0.0000     0.0000     0.0000     0.0000     0.0000     0.0000     0.0000     0.0000     0.0000 </r>
        <r>     1.6270     0.0000     0.0000     0.0000     0.0000     0.0000     0.0000     0.0000     0.0000     0.0000 </r>
        <r>     1.6947     0.0000     0.0000     0.0000     0.0000     0.0000     0.0000     0.0000     0.0000     0.0000 </r>
        <r>     1.7623     0.0000     0.0000     0.0000     0.0000     0.0000     0.0000     0.0000     0.0000     0.0000 </r>
        <r>     1.8299     0.0000     0.0000     0.0000     0.0000     0.0000     0.0000     0.0000     0.0000     0.0000 </r>
        <r>     1.8975     0.0000     0.0000     0.0000     0.0000     0.0000     0.0000     0.0000     0.0000     0.0000 </r>
        <r>     1.9652     0.0000     0.0000     0.0000     0.0000     0.0000     0.0000     0.0000     0.0000     0.0000 </r>
        <r>     2.0328     0.0000     0.0000     0.0000     0.0000     0.0000     0.0000     0.0000     0.0000     0.0000 </r>
        <r>     2.1004     0.0000     0.0000     0.0000     0.0000     0.0000     0.0000     0.0000     0.0000     0.0000 </r>
        <r>     2.1680     0.0000     0.0000     0.0000     0.0000     0.0000     0.0000     0.0000     0.0000     0.0000 </r>
        <r>     2.2356     0.0000     0.0000     0.0000     0.0000     0.0000     0.0000     0.0000     0.0000     0.0000 </r>
        <r>     2.3033     0.0000     0.0000     0.0000     0.0000     0.0000     0.0000     0.0000     0.0000     0.0000 </r>
        <r>     2.3709     0.0000     0.0000     0.0000     0.0000     0.0000     0.0000     0.0000     0.0000     0.0000 </r>
        <r>     2.4385     0.0000     0.0000     0.0000     0.0000     0.0000     0.0000     0.0000     0.0000     0.0000 </r>
        <r>     2.5061     0.0000     0.0000     0.0000     0.0000     0.0000     0.0000     0.0000     0.0000     0.0000 </r>
        <r>     2.5738     0.0000     0.0000     0.0000     0.0000     0.0000     0.0000     0.0000     0.0000     0.0000 </r>
        <r>     2.6414     0.0000     0.0000     0.0000     0.0000     0.0000     0.0000     0.0000     0.0000     0.0000 </r>
        <r>     2.7090     0.0000     0.0000     0.0000     0.0000     0.0000     0.0000     0.0000     0.0000     0.0000 </r>
        <r>     2.7766     0.0000     0.0000     0.0000     0.0000     0.0000     0.0000     0.0000     0.0000     0.0000 </r>
        <r>     2.8442     0.0000     0.0000     0.0000     0.0000     0.0000     0.0000     0.0000     0.0000     0.0000 </r>
        <r>     2.9119     0.0000     0.0001     0.0001     0.0000     0.0000     0.0000     0.0000     0.0000     0.0000 </r>
        <r>     2.9795     0.0000     0.0475     0.0479     0.0000     0.0000     0.0000     0.0000     0.0000     0.0000 </r>
        <r>     3.0471     0.0006     1.4598     1.4663     0.0016     0.0000     0.0000     0.0000     0.0000     0.0000 </r>
        <r>     3.1147     0.0012     3.4851     3.4808     0.0033     0.0000     0.0000     0.0000     0.0000     0.0000 </r>
        <r>     3.1824     0.0001     0.8369     0.8337     0.0004     0.0000     0.0000     0.0000     0.0000     0.0000 </r>
        <r>     3.2500     0.0000     0.0210     0.0209     0.0000     0.0000     0.0000     0.0000     0.0000     0.0000 </r>
        <r>     3.3176     0.0000     0.0000     0.0000     0.0000     0.0000     0.0000     0.0000     0.0000     0.0000 </r>
        <r>     3.3852     0.0000     0.0000     0.0000     0.0000     0.0000     0.0000     0.0000     0.0000     0.0000 </r>
        <r>     3.4528     0.0000     0.0000     0.0000     0.0000     0.0000     0.0000     0.0000     0.0000     0.0000 </r>
        <r>     3.5205     0.0000     0.0000     0.0000     0.0000     0.0000     0.0000     0.0000     0.0000     0.0000 </r>
        <r>     3.5881     0.0000     0.0000     0.0000     0.0000     0.0000     0.0000     0.0000     0.0000     0.0000 </r>
        <r>     3.6557     0.0000     0.0000     0.0000     0.0000     0.0000     0.0000     0.0000     0.0000     0.0000 </r>
        <r>     3.7233     0.0000     0.0000     0.0000     0.0000     0.0000     0.0000     0.0000     0.0000     0.0000 </r>
        <r>     3.7910     0.0000     0.0000     0.0000     0.0000     0.0000     0.0000     0.0000     0.0000     0.0000 </r>
        <r>     3.8586     0.0000     0.0000     0.0000     0.0000     0.0000     0.0000     0.0000     0.0000     0.0000 </r>
        <r>     3.9262     0.0000     0.0000     0.0000     0.0000     0.0000     0.0000     0.0000     0.0000     0.0000 </r>
        <r>     3.9938     0.0000     0.0000     0.0000     0.0000     0.0000     0.0000     0.0000     0.0000     0.0000 </r>
        <r>     4.0614     0.0000     0.0000     0.0000     0.0000     0.0000     0.0000     0.0000     0.0000     0.0000 </r>
        <r>     4.1291     0.0000     0.0000     0.0000     0.0000     0.0000     0.0000     0.0000     0.0000     0.0000 </r>
        <r>     4.1967     0.0000     0.0000     0.0000     0.0000     0.0000     0.0000     0.0000     0.0000     0.0000 </r>
        <r>     4.2643     0.0000     0.0000     0.0000     0.0000     0.0000     0.0000     0.0000     0.0000     0.0000 </r>
        <r>     4.3319     0.0000     0.0000     0.0000     0.0000     0.0000     0.0000     0.0000     0.0000     0.0000 </r>
        <r>     4.3996     0.0000     0.0000     0.0000     0.0000     0.0000     0.0000     0.0000     0.0000     0.0000 </r>
        <r>     4.4672     0.0000     0.0000     0.0000     0.0000     0.0000     0.0000     0.0000     0.0000     0.0000 </r>
        <r>     4.5348     0.0000     0.0000     0.0000     0.0000     0.0000     0.0000     0.0000     0.0000     0.0000 </r>
        <r>     4.6024     0.0000     0.0000     0.0000     0.0000     0.0000     0.0000     0.0000     0.0000     0.0000 </r>
        <r>     4.6700     0.0000     0.0000     0.0000     0.0000     0.0000     0.0000     0.0000     0.0000     0.0000 </r>
        <r>     4.7377     0.0000     0.0000     0.0000     0.0000     0.0000     0.0000     0.0000     0.0000     0.0000 </r>
        <r>     4.8053     0.0000     0.0000     0.0000     0.0000     0.0000     0.0000     0.0000     0.0000     0.0000 </r>
        <r>     4.8729     0.0000     0.0000     0.0000     0.0000     0.0000     0.0000     0.0000     0.0000     0.0000 </r>
        <r>     4.9405     0.0000     0.0000     0.0000     0.0000     0.0000     0.0000     0.0000     0.0000     0.0000 </r>
        <r>     5.0082     0.0000     0.0000     0.0000     0.0000     0.0000     0.0000     0.0000     0.0000     0.0000 </r>
        <r>     5.0758     0.0000     0.0000     0.0000     0.0000     0.0000     0.0000     0.0000     0.0000     0.0000 </r>
        <r>     5.1434     0.0000     0.0000     0.0000     0.0000     0.0000     0.0000     0.0000     0.0000     0.0000 </r>
        <r>     5.2110     0.0000     0.0000     0.0000     0.0000     0.0000     0.0000     0.0000     0.0000     0.0000 </r>
        <r>     5.2787     0.0000     0.0000     0.0000     0.0000     0.0000     0.0000     0.0000     0.0000     0.0000 </r>
        <r>     5.3463     0.0000     0.0000     0.0000     0.0000     0.0000     0.0000     0.0000     0.0000     0.0000 </r>
        <r>     5.4139     0.0000     0.0000     0.0000     0.0000     0.0000     0.0000     0.0000     0.0000     0.0000 </r>
        <r>     5.4815     0.0000     0.0000     0.0000     0.0000     0.0000     0.0000     0.0000     0.0000     0.0000 </r>
        <r>     5.5491     0.0000     0.0000     0.0000     0.0000     0.0000     0.0000     0.0000     0.0000     0.0000 </r>
        <r>     5.6168     0.0000     0.0000     0.0000     0.0000     0.0000     0.0000     0.0000     0.0000     0.0000 </r>
        <r>     5.6844     0.0000     0.0000     0.0000     0.0000     0.0000     0.0000     0.0000     0.0000     0.0000 </r>
        <r>     5.7520     0.0000     0.0000     0.0000     0.0000     0.0000     0.0000     0.0000     0.0000     0.0000 </r>
        <r>     5.8196     0.0000     0.0000     0.0000     0.0000     0.0000     0.0000     0.0000     0.0000     0.0000 </r>
        <r>     5.8873     0.0000     0.0000     0.0000     0.0000     0.0000     0.0000     0.0000     0.0000     0.0000 </r>
        <r>     5.9549     0.0000     0.0000     0.0000     0.0000     0.0000     0.0000     0.0000     0.0000     0.0000 </r>
        <r>     6.0225     0.0000     0.0000     0.0000     0.0000     0.0000     0.0000     0.0000     0.0000     0.0000 </r>
        <r>     6.0901     0.0000     0.0000     0.0000     0.0000     0.0000     0.0000     0.0000     0.0000     0.0000 </r>
        <r>     6.1577     0.0000     0.0000     0.0000     0.0000     0.0000     0.0000     0.0000     0.0000     0.0000 </r>
        <r>     6.2254     0.0000     0.0000     0.0000     0.0000     0.0000     0.0000     0.0000     0.0000     0.0000 </r>
        <r>     6.2930     0.0007     0.0000     0.0000     0.0006     0.0000     0.0000     0.0000     0.0000     0.0000 </r>
        <r>     6.3606     0.1214     0.0002     0.0002     0.0985     0.0000     0.0000     0.0000     0.0000     0.0000 </r>
        <r>     6.4282     0.9376     0.0023     0.0020     0.7603     0.0000     0.0000     0.0000     0.0000     0.0000 </r>
        <r>     6.4959     0.4975     0.0020     0.0017     0.4031     0.0000     0.0000     0.0000     0.0000     0.0000 </r>
        <r>     6.5635     0.0169     0.0001     0.0001     0.0137     0.0000     0.0000     0.0000     0.0000     0.0000 </r>
        <r>     6.6311     0.0000     0.0000     0.0000     0.0000     0.0000     0.0000     0.0000     0.0000     0.0000 </r>
        <r>     6.6987     0.0000     0.0000     0.0000     0.0000     0.0000     0.0000     0.0000     0.0000     0.0000 </r>
        <r>     6.7663     0.0006     0.0000     0.0000     0.0004     0.0000     0.0000     0.0000     0.0000     0.0000 </r>
        <r>     6.8340     0.0319     0.0000     0.0000     0.0205     0.0000     0.0000     0.0000     0.0000     0.0000 </r>
        <r>     6.9016     0.1701     0.0001     0.0000     0.1092     0.0000     0.0000     0.0000     0.0000     0.0000 </r>
        <r>     6.9692     0.5105     0.0014     0.0008     0.3275     0.0000     0.0000     0.0000     0.0000     0.0000 </r>
        <r>     7.0368     0.5218     0.0019     0.0012     0.3349     0.0000     0.0000     0.0000     0.0000     0.0000 </r>
        <r>     7.1045     0.1528     0.0002     0.0001     0.0985     0.0000     0.0000     0.0000     0.0000     0.0000 </r>
        <r>     7.1721     0.0270     0.0000     0.0000     0.0174     0.0000     0.0000     0.0000     0.0000     0.0000 </r>
        <r>     7.2397     0.0006     0.0000     0.0000     0.0004     0.0000     0.0000     0.0000     0.0000     0.0000 </r>
        <r>     7.3073     0.0000     0.0000     0.0000     0.0000     0.0000     0.0000     0.0000     0.0000     0.0000 </r>
        <r>     7.3749     0.0000     0.0000     0.0000     0.0000     0.0000     0.0000     0.0000     0.0000     0.0000 </r>
        <r>     7.4426     0.0000     0.0000     0.0000     0.0000     0.0000     0.0000     0.0000     0.0000     0.0000 </r>
        <r>     7.5102     0.0000     0.0000     0.0000     0.0000     0.0000     0.0000     0.0000     0.0000     0.0000 </r>
        <r>     7.5778     0.0000     0.0000     0.0000     0.0000     0.0000     0.0000     0.0000     0.0000     0.0000 </r>
        <r>     7.6454     0.0000     0.0000     0.0000     0.0000     0.0000     0.0000     0.0000     0.0000     0.0000 </r>
        <r>     7.7131     0.0000     0.0000     0.0000     0.0000     0.0000     0.0000     0.0000     0.0000     0.0000 </r>
        <r>     7.7807     0.0000     0.0000     0.0000     0.0000     0.0000     0.0000     0.0000     0.0000     0.0000 </r>
        <r>     7.8483     0.0000     0.0000     0.0000     0.0000     0.0000     0.0000     0.0000     0.0000     0.0000 </r>
        <r>     7.9159     0.0000     0.0000     0.0000     0.0000     0.0000     0.0000     0.0000     0.0000     0.0000 </r>
        <r>     7.9835     0.0000     0.0000     0.0000     0.0000     0.0000     0.0000     0.0000     0.0000     0.0000 </r>
        <r>     8.0512     0.0000     0.0000     0.0000     0.0000     0.0000     0.0000     0.0000     0.0000     0.0000 </r>
        <r>     8.1188     0.0000     0.0000     0.0000     0.0000     0.0000     0.0000     0.0000     0.0000     0.0000 </r>
        <r>     8.1864     0.0000     0.0000     0.0000     0.0000     0.0000     0.0000     0.0000     0.0000     0.0000 </r>
        <r>     8.2540     0.0000     0.0000     0.0000     0.0000     0.0000     0.0000     0.0000     0.0000     0.0000 </r>
        <r>     8.3217     0.0000     0.0000     0.0000     0.0000     0.0000     0.0000     0.0000     0.0000     0.0000 </r>
        <r>     8.3893     0.0000     0.0000     0.0000     0.0000     0.0000     0.0000     0.0000     0.0000     0.0000 </r>
        <r>     8.4569     0.0000     0.0000     0.0000     0.0000     0.0000     0.0000     0.0000     0.0000     0.0000 </r>
        <r>     8.5245     0.0000     0.0000     0.0000     0.0000     0.0000     0.0000     0.0000     0.0000     0.0000 </r>
        <r>     8.5921     0.0000     0.0000     0.0000     0.0000     0.0000     0.0000     0.0000     0.0000     0.0000 </r>
        <r>     8.6598     0.0000     0.0000     0.0000     0.0000     0.0000     0.0000     0.0000     0.0000     0.0000 </r>
        <r>     8.7274     0.0000     0.0000     0.0000     0.0000     0.0000     0.0000     0.0000     0.0000     0.0000 </r>
        <r>     8.7950     0.0000     0.0000     0.0000     0.0000     0.0000     0.0000     0.0000     0.0000     0.0000 </r>
        <r>     8.8626     0.0000     0.0000     0.0000     0.0000     0.0000     0.0000     0.0000     0.0000     0.0000 </r>
        <r>     8.9303     0.0000     0.0000     0.0000     0.0000     0.0000     0.0000     0.0000     0.0000     0.0000 </r>
        <r>     8.9979     0.0000     0.0000     0.0000     0.0000     0.0000     0.0000     0.0000     0.0000     0.0000 </r>
        <r>     9.0655     0.0000     0.0000     0.0000     0.0000     0.0000     0.0000     0.0000     0.0000     0.0000 </r>
        <r>     9.1331     0.0000     0.0000     0.0000     0.0000     0.0000     0.0000     0.0000     0.0000     0.0000 </r>
        <r>     9.2007     0.0000     0.0000     0.0000     0.0000     0.0000     0.0000     0.0000     0.0000     0.0000 </r>
        <r>     9.2684     0.0000     0.0000     0.0000     0.0000     0.0000     0.0000     0.0000     0.0000     0.0000 </r>
        <r>     9.3360     0.0000     0.0000     0.0000     0.0000     0.0000     0.0000     0.0000     0.0000     0.0000 </r>
        <r>     9.4036     0.0000     0.0000     0.0000     0.0000     0.0000     0.0000     0.0000     0.0000     0.0000 </r>
        <r>     9.4712     0.0000     0.0000     0.0000     0.0000     0.0000     0.0000     0.0000     0.0000     0.0000 </r>
        <r>     9.5389     0.0000     0.0000     0.0000     0.0000     0.0000     0.0000     0.0000     0.0000     0.0000 </r>
        <r>     9.6065     0.0000     0.0000     0.0000     0.0000     0.0000     0.0000     0.0000     0.0000     0.0000 </r>
        <r>     9.6741     0.0000     0.0000     0.0000     0.0000     0.0000     0.0000     0.0000     0.0000     0.0000 </r>
        <r>     9.7417     0.0000     0.0000     0.0000     0.0000     0.0000     0.0000     0.0000     0.0000     0.0000 </r>
        <r>     9.8093     0.0000     0.0000     0.0000     0.0000     0.0000     0.0000     0.0000     0.0000     0.0000 </r>
        <r>     9.8770     0.0000     0.0000     0.0000     0.0000     0.0000     0.0000     0.0000     0.0000     0.0000 </r>
        <r>     9.9446     0.0000     0.0000     0.0000     0.0000     0.0000     0.0000     0.0000     0.0000     0.0000 </r>
        <r>    10.0122     0.0000     0.0000     0.0000     0.0000     0.0000     0.0000     0.0000     0.0000     0.0000 </r>
        <r>    10.0798     0.0000     0.0000     0.0000     0.0000     0.0000     0.0000     0.0000     0.0000     0.0000 </r>
        <r>    10.1475     0.0000     0.0000     0.0000     0.0000     0.0000     0.0000     0.0000     0.0000     0.0000 </r>
        <r>    10.2151     0.0000     0.0000     0.0000     0.0000     0.0000     0.0000     0.0000     0.0000     0.0000 </r>
        <r>    10.2827     0.0000     0.0000     0.0000     0.0000     0.0000     0.0000     0.0000     0.0000     0.0000 </r>
        <r>    10.3503     0.0000     0.0000     0.0000     0.0000     0.0000     0.0000     0.0000     0.0000     0.0000 </r>
        <r>    10.4180     0.0000     0.0000     0.0000     0.0000     0.0000     0.0000     0.0000     0.0000     0.0000 </r>
        <r>    10.4856     0.0000     0.0000     0.0000     0.0000     0.0000     0.0000     0.0000     0.0000     0.0000 </r>
        <r>    10.5532     0.0000     0.0000     0.0000     0.0000     0.0000     0.0000     0.0000     0.0000     0.0000 </r>
        <r>    10.6208     0.0000     0.0000     0.0000     0.0000     0.0000     0.0000     0.0000     0.0000     0.0000 </r>
        <r>    10.6884     0.0000     0.0000     0.0000     0.0000     0.0000     0.0000     0.0000     0.0000     0.0000 </r>
        <r>    10.7561     0.0000     0.0000     0.0000     0.0000     0.0000     0.0000     0.0000     0.0000     0.0000 </r>
        <r>    10.8237     0.0000     0.0000     0.0000     0.0000     0.0000     0.0000     0.0000     0.0000     0.0000 </r>
        <r>    10.8913     0.0000     0.0000     0.0000     0.0000     0.0000     0.0000     0.0000     0.0000     0.0000 </r>
        <r>    10.9589     0.0000     0.0000     0.0000     0.0000     0.0000     0.0000     0.0000     0.0000     0.0000 </r>
        <r>    11.0266     0.0000     0.0000     0.0000     0.0000     0.0000     0.0000     0.0000     0.0000     0.0000 </r>
        <r>    11.0942     0.0000     0.0000     0.0000     0.0000     0.0000     0.0000     0.0000     0.0000     0.0000 </r>
        <r>    11.1618     0.0000     0.0000     0.0000     0.0000     0.0000     0.0000     0.0000     0.0000     0.0000 </r>
        <r>    11.2294     0.0000     0.0000     0.0000     0.0000     0.0000     0.0000     0.0000     0.0000     0.0000 </r>
        <r>    11.2970     0.0000     0.0000     0.0000     0.0000     0.0000     0.0000     0.0000     0.0000     0.0000 </r>
        <r>    11.3647     0.0000     0.0000     0.0000     0.0000     0.0000     0.0000     0.0000     0.0000     0.0000 </r>
        <r>    11.4323     0.0000     0.0000     0.0000     0.0000     0.0000     0.0000     0.0000     0.0000     0.0000 </r>
        <r>    11.4999     0.0000     0.0000     0.0000     0.0000     0.0000     0.0000     0.0000     0.0000     0.0000 </r>
        <r>    11.5675     0.0000     0.0000     0.0000     0.0000     0.0000     0.0000     0.0000     0.0000     0.0000 </r>
        <r>    11.6352     0.0000     0.0000     0.0000     0.0000     0.0000     0.0000     0.0000     0.0000     0.0000 </r>
        <r>    11.7028     0.0000     0.0000     0.0000     0.0000     0.0000     0.0000     0.0000     0.0000     0.0000 </r>
        <r>    11.7704     0.0000     0.0000     0.0000     0.0000     0.0000     0.0000     0.0000     0.0000     0.0000 </r>
        <r>    11.8380     0.0000     0.0000     0.0000     0.0000     0.0000     0.0000     0.0000     0.0000     0.0000 </r>
        <r>    11.9056     0.0000     0.0000     0.0000     0.0000     0.0000     0.0000     0.0000     0.0000     0.0000 </r>
        <r>    11.9733     0.0000     0.0000     0.0000     0.0000     0.0000     0.0000     0.0000     0.0000     0.0000 </r>
        <r>    12.0409     0.0000     0.0000     0.0000     0.0000     0.0000     0.0000     0.0000     0.0000     0.0000 </r>
        <r>    12.1085     0.0000     0.0000     0.0000     0.0000     0.0000     0.0000     0.0000     0.0000     0.0000 </r>
        <r>    12.1761     0.0000     0.0000     0.0000     0.0000     0.0000     0.0000     0.0000     0.0000     0.0000 </r>
        <r>    12.2438     0.0000     0.0000     0.0000     0.0000     0.0000     0.0000     0.0000     0.0000     0.0000 </r>
        <r>    12.3114     0.0000     0.0000     0.0000     0.0000     0.0000     0.0000     0.0000     0.0000     0.0000 </r>
        <r>    12.3790     0.0000     0.0000     0.0000     0.0000     0.0000     0.0000     0.0000     0.0000     0.0000 </r>
        <r>    12.4466     0.0000     0.0000     0.0000     0.0000     0.0000     0.0000     0.0000     0.0000     0.0000 </r>
        <r>    12.5142     0.0000     0.0000     0.0000     0.0000     0.0000     0.0000     0.0000     0.0000     0.0000 </r>
        <r>    12.5819     0.0000     0.0000     0.0000     0.0000     0.0000     0.0000     0.0000     0.0000     0.0000 </r>
        <r>    12.6495     0.0000     0.0000     0.0000     0.0000     0.0000     0.0000     0.0000     0.0000     0.0000 </r>
        <r>    12.7171     0.0000     0.0000     0.0000     0.0000     0.0000     0.0000     0.0000     0.0000     0.0000 </r>
        <r>    12.7847     0.0000     0.0000     0.0000     0.0000     0.0000     0.0000     0.0000     0.0000     0.0000 </r>
        <r>    12.8524     0.0000     0.0000     0.0000     0.0000     0.0000     0.0000     0.0000     0.0000     0.0000 </r>
        <r>    12.9200     0.0000     0.0000     0.0000     0.0000     0.0000     0.0000     0.0000     0.0000     0.0000 </r>
        <r>    12.9876     0.0000     0.0000     0.0000     0.0000     0.0000     0.0000     0.0000     0.0000     0.0000 </r>
        <r>    13.0552     0.0000     0.0000     0.0000     0.0000     0.0000     0.0000     0.0000     0.0000     0.0000 </r>
        <r>    13.1228     0.0000     0.0000     0.0000     0.0000     0.0000     0.0000     0.0000     0.0000     0.0000 </r>
        <r>    13.1905     0.0000     0.0000     0.0000     0.0000     0.0000     0.0000     0.0000     0.0000     0.0000 </r>
        <r>    13.2581     0.0000     0.0000     0.0000     0.0000     0.0000     0.0000     0.0000     0.0000     0.0000 </r>
        <r>    13.3257     0.0000     0.0000     0.0000     0.0000     0.0000     0.0000     0.0000     0.0000     0.0000 </r>
        <r>    13.3933     0.0000     0.0000     0.0000     0.0000     0.0000     0.0000     0.0000     0.0000     0.0000 </r>
        <r>    13.4610     0.0000     0.0000     0.0000     0.0000     0.0000     0.0000     0.0000     0.0000     0.0000 </r>
        <r>    13.5286     0.0000     0.0000     0.0000     0.0000     0.0000     0.0000     0.0000     0.0000     0.0000 </r>
        <r>    13.5962     0.0000     0.0000     0.0000     0.0000     0.0000     0.0000     0.0000     0.0000     0.0000 </r>
        <r>    13.6638     0.0000     0.0000     0.0000     0.0000     0.0000     0.0000     0.0000     0.0000     0.0000 </r>
        <r>    13.7314     0.0000     0.0000     0.0000     0.0000     0.0000     0.0000     0.0000     0.0000     0.0000 </r>
        <r>    13.7991     0.0000     0.0000     0.0000     0.0000     0.0000     0.0000     0.0000     0.0000     0.0000 </r>
        <r>    13.8667     0.0000     0.0000     0.0000     0.0000     0.0000     0.0000     0.0000     0.0000     0.0000 </r>
        <r>    13.9343     0.0000     0.0000     0.0000     0.0000     0.0000     0.0000     0.0000     0.0000     0.0000 </r>
        <r>    14.0019     0.0000     0.0000     0.0000     0.0000     0.0000     0.0000     0.0000     0.0000     0.0000 </r>
        <r>    14.0696     0.0000     0.0000     0.0000     0.0000     0.0000     0.0000     0.0000     0.0000     0.0000 </r>
        <r>    14.1372     0.0000     0.0000     0.0000     0.0000     0.0000     0.0000     0.0000     0.0000     0.0000 </r>
        <r>    14.2048     0.0000     0.0000     0.0000     0.0000     0.0000     0.0000     0.0000     0.0000     0.0000 </r>
        <r>    14.2724     0.0000     0.0000     0.0000     0.0000     0.0000     0.0000     0.0000     0.0000     0.0000 </r>
        <r>    14.3400     0.0000     0.0000     0.0000     0.0000     0.0000     0.0000     0.0000     0.0000     0.0000 </r>
        <r>    14.4077     0.0000     0.0034     0.0034     0.0000     0.0000     0.0000     0.0000     0.0000     0.0000 </r>
        <r>    14.4753     0.0000     0.0787     0.0787     0.0000     0.0000     0.0000     0.0000     0.0000     0.0000 </r>
        <r>    14.5429     0.0000     0.2241     0.2240     0.0000     0.0000     0.0000     0.0000     0.0000     0.0000 </r>
        <r>    14.6105     0.0000     0.2552     0.2548     0.0000     0.0000     0.0000     0.0000     0.0000     0.0000 </r>
        <r>    14.6782     0.0010     0.3161     0.2891     0.0011     0.0000     0.0000     0.0000     0.0000     0.0000 </r>
        <r>    14.7458     0.0055     0.8511     0.6862     0.0064     0.0000     0.0000     0.0000     0.0000     0.0000 </r>
        <r>    14.8134     0.0041     1.6458     1.7324     0.0049     0.0000     0.0000     0.0000     0.0000     0.0000 </r>
        <r>    14.8810     0.0005     0.6912     0.8035     0.0006     0.0000     0.0000     0.0000     0.0000     0.0000 </r>
        <r>    14.9486     0.0000     0.2698     0.2730     0.0000     0.0000     0.0000     0.0000     0.0000     0.0000 </r>
        <r>    15.0163     0.0000     0.2637     0.2637     0.0000     0.0000     0.0000     0.0000     0.0000     0.0000 </r>
        <r>    15.0839     0.0000     0.2553     0.2551     0.0000     0.0000     0.0000     0.0000     0.0000     0.0000 </r>
        <r>    15.1515     0.0000     0.1381     0.1380     0.0000     0.0000     0.0000     0.0000     0.0000     0.0000 </r>
        <r>    15.2191     0.0000     0.0131     0.0131     0.0000     0.0000     0.0000     0.0000     0.0000     0.0000 </r>
        <r>    15.2868     0.0000     0.0001     0.0001     0.0000     0.0000     0.0000     0.0000     0.0000     0.0000 </r>
        <r>    15.3544     0.0000     0.0000     0.0000     0.0000     0.0000     0.0000     0.0000     0.0000     0.0000 </r>
        <r>    15.4220     0.0000     0.0000     0.0000     0.0000     0.0000     0.0000     0.0000     0.0000     0.0000 </r>
        <r>    15.4896     0.0000     0.0000     0.0000     0.0000     0.0000     0.0000     0.0000     0.0000     0.0000 </r>
        <r>    15.5573     0.0000     0.0000     0.0000     0.0000     0.0000     0.0000     0.0000     0.0000     0.0000 </r>
        <r>    15.6249     0.0000     0.0000     0.0000     0.0000     0.0000     0.0000     0.0000     0.0000     0.0000 </r>
        <r>    15.6925     0.0000     0.0000     0.0000     0.0000     0.0000     0.0000     0.0000     0.0000     0.0000 </r>
        <r>    15.7601     0.0000     0.0000     0.0000     0.0000     0.0000     0.0000     0.0000     0.0000     0.0000 </r>
        <r>    15.8277     0.0000     0.0000     0.0000     0.0000     0.0000     0.0000     0.0000     0.0000     0.0000 </r>
        <r>    15.8954     0.0000     0.0000     0.0000     0.0000     0.0000     0.0000     0.0000     0.0000     0.0000 </r>
        <r>    15.9630     0.0000     0.0000     0.0000     0.0000     0.0000     0.0000     0.0000     0.0000     0.0000 </r>
        <r>    16.0306     0.0000     0.0000     0.0000     0.0000     0.0000     0.0000     0.0000     0.0000     0.0000 </r>
       </set>
      </set>
      <set comment="ion 2">
       <set comment="spin 1">
        <r>    -4.2561     0.0000     0.0000     0.0000     0.0000     0.0000     0.0000     0.0000     0.0000     0.0000 </r>
        <r>    -4.1885     0.0000     0.0000     0.0000     0.0000     0.0000     0.0000     0.0000     0.0000     0.0000 </r>
        <r>    -4.1209     0.0000     0.0000     0.0000     0.0000     0.0000     0.0000     0.0000     0.0000     0.0000 </r>
        <r>    -4.0532     0.0000     0.0000     0.0000     0.0000     0.0000     0.0000     0.0000     0.0000     0.0000 </r>
        <r>    -3.9856     0.0000     0.0000     0.0000     0.0000     0.0000     0.0000     0.0000     0.0000     0.0000 </r>
        <r>    -3.9180     0.0000     0.0000     0.0000     0.0000     0.0000     0.0000     0.0000     0.0000     0.0000 </r>
        <r>    -3.8504     0.0000     0.0000     0.0000     0.0000     0.0000     0.0000     0.0000     0.0000     0.0000 </r>
        <r>    -3.7827     0.0000     0.0000     0.0000     0.0000     0.0000     0.0000     0.0000     0.0000     0.0000 </r>
        <r>    -3.7151     0.0000     0.0000     0.0000     0.0000     0.0000     0.0000     0.0000     0.0000     0.0000 </r>
        <r>    -3.6475     0.0000     0.0000     0.0000     0.0000     0.0000     0.0000     0.0000     0.0000     0.0000 </r>
        <r>    -3.5799     0.0000     0.0000     0.0000     0.0000     0.0000     0.0000     0.0000     0.0000     0.0000 </r>
        <r>    -3.5123     0.0000     0.0000     0.0000     0.0000     0.0000     0.0000     0.0000     0.0000     0.0000 </r>
        <r>    -3.4446     0.0001     0.0000     0.0000     0.0000     0.0000     0.0000     0.0000     0.0000     0.0000 </r>
        <r>    -3.3770     0.0183     0.0000     0.0000     0.0028     0.0000     0.0000     0.0000     0.0000     0.0000 </r>
        <r>    -3.3094     0.2092     0.0000     0.0000     0.0325     0.0000     0.0000     0.0000     0.0000     0.0000 </r>
        <r>    -3.2418     0.4075     0.0000     0.0000     0.0641     0.0000     0.0000     0.0000     0.0000     0.0000 </r>
        <r>    -3.1741     0.5024     0.0000     0.0000     0.0814     0.0000     0.0000     0.0000     0.0000     0.0000 </r>
        <r>    -3.1065     1.7880     0.0000     0.0001     0.2976     0.0000     0.0000     0.0000     0.0000     0.0000 </r>
        <r>    -3.0389     1.8220     0.0000     0.0001     0.3049     0.0000     0.0000     0.0000     0.0000     0.0000 </r>
        <r>    -2.9713     0.4960     0.0000     0.0000     0.0853     0.0000     0.0000     0.0000     0.0000     0.0000 </r>
        <r>    -2.9037     0.3922     0.0000     0.0000     0.0694     0.0000     0.0000     0.0000     0.0000     0.0000 </r>
        <r>    -2.8360     0.2208     0.0000     0.0000     0.0396     0.0000     0.0000     0.0000     0.0000     0.0000 </r>
        <r>    -2.7684     0.0237     0.0000     0.0000     0.0043     0.0000     0.0000     0.0000     0.0000     0.0000 </r>
        <r>    -2.7008     0.0002     0.0000     0.0000     0.0000     0.0000     0.0000     0.0000     0.0000     0.0000 </r>
        <r>    -2.6332     0.0000     0.0000     0.0000     0.0000     0.0000     0.0000     0.0000     0.0000     0.0000 </r>
        <r>    -2.5655     0.0000     0.0000     0.0000     0.0000     0.0000     0.0000     0.0000     0.0000     0.0000 </r>
        <r>    -2.4979     0.0000     0.0000     0.0000     0.0000     0.0000     0.0000     0.0000     0.0000     0.0000 </r>
        <r>    -2.4303     0.0000     0.0000     0.0000     0.0000     0.0000     0.0000     0.0000     0.0000     0.0000 </r>
        <r>    -2.3627     0.0000     0.0000     0.0000     0.0000     0.0000     0.0000     0.0000     0.0000     0.0000 </r>
        <r>    -2.2951     0.0000     0.0000     0.0000     0.0000     0.0000     0.0000     0.0000     0.0000     0.0000 </r>
        <r>    -2.2274     0.0000     0.0000     0.0000     0.0000     0.0000     0.0000     0.0000     0.0000     0.0000 </r>
        <r>    -2.1598     0.0000     0.0000     0.0000     0.0000     0.0000     0.0000     0.0000     0.0000     0.0000 </r>
        <r>    -2.0922     0.0000     0.0000     0.0000     0.0000     0.0000     0.0000     0.0000     0.0000     0.0000 </r>
        <r>    -2.0246     0.0000     0.0000     0.0000     0.0000     0.0000     0.0000     0.0000     0.0000     0.0000 </r>
        <r>    -1.9569     0.0000     0.0000     0.0000     0.0000     0.0000     0.0000     0.0000     0.0000     0.0000 </r>
        <r>    -1.8893     0.0000     0.0000     0.0000     0.0000     0.0000     0.0000     0.0000     0.0000     0.0000 </r>
        <r>    -1.8217     0.0000     0.0000     0.0000     0.0000     0.0000     0.0000     0.0000     0.0000     0.0000 </r>
        <r>    -1.7541     0.0000     0.0000     0.0000     0.0000     0.0000     0.0000     0.0000     0.0000     0.0000 </r>
        <r>    -1.6865     0.0000     0.0000     0.0000     0.0000     0.0000     0.0000     0.0000     0.0000     0.0000 </r>
        <r>    -1.6188     0.0000     0.0000     0.0000     0.0000     0.0000     0.0000     0.0000     0.0000     0.0000 </r>
        <r>    -1.5512     0.0000     0.0000     0.0000     0.0000     0.0000     0.0000     0.0000     0.0000     0.0000 </r>
        <r>    -1.4836     0.0000     0.0000     0.0000     0.0000     0.0000     0.0000     0.0000     0.0000     0.0000 </r>
        <r>    -1.4160     0.0000     0.0000     0.0000     0.0000     0.0000     0.0000     0.0000     0.0000     0.0000 </r>
        <r>    -1.3483     0.0000     0.0000     0.0000     0.0000     0.0000     0.0000     0.0000     0.0000     0.0000 </r>
        <r>    -1.2807     0.0000     0.0000     0.0000     0.0000     0.0000     0.0000     0.0000     0.0000     0.0000 </r>
        <r>    -1.2131     0.0000     0.0000     0.0000     0.0000     0.0000     0.0000     0.0000     0.0000     0.0000 </r>
        <r>    -1.1455     0.0000     0.0000     0.0000     0.0000     0.0000     0.0000     0.0000     0.0000     0.0000 </r>
        <r>    -1.0779     0.0055     0.0000     0.0000     0.0016     0.0000     0.0000     0.0000     0.0000     0.0000 </r>
        <r>    -1.0102     0.1097     0.0000     0.0000     0.0332     0.0000     0.0000     0.0000     0.0000     0.0000 </r>
        <r>    -0.9426     0.2903     0.0000     0.0000     0.0885     0.0000     0.0000     0.0000     0.0000     0.0000 </r>
        <r>    -0.8750     0.3217     0.0000     0.0000     0.0994     0.0000     0.0000     0.0000     0.0000     0.0000 </r>
        <r>    -0.8074     0.3818     0.0000     0.0000     0.1203     0.0000     0.0000     0.0000     0.0000     0.0000 </r>
        <r>    -0.7397     1.5319     0.0000     0.0004     0.4911     0.0000     0.0000     0.0000     0.0000     0.0000 </r>
        <r>    -0.6721     1.7028     0.0000     0.0005     0.5476     0.0000     0.0000     0.0000     0.0000     0.0000 </r>
        <r>    -0.6045     0.4094     0.0000     0.0000     0.1339     0.0000     0.0000     0.0000     0.0000     0.0000 </r>
        <r>    -0.5369     0.3129     0.0000     0.0000     0.1045     0.0000     0.0000     0.0000     0.0000     0.0000 </r>
        <r>    -0.4693     0.2936     0.0000     0.0000     0.0994     0.0000     0.0000     0.0000     0.0000     0.0000 </r>
        <r>    -0.4016     0.1421     0.0000     0.0000     0.0485     0.0000     0.0000     0.0000     0.0000     0.0000 </r>
        <r>    -0.3340     0.0111     0.0000     0.0000     0.0038     0.0000     0.0000     0.0000     0.0000     0.0000 </r>
        <r>    -0.2664     0.0001     0.0000     0.0000     0.0000     0.0000     0.0000     0.0000     0.0000     0.0000 </r>
        <r>    -0.1988     0.0000     0.0000     0.0000     0.0000     0.0000     0.0000     0.0000     0.0000     0.0000 </r>
        <r>    -0.1311     0.0000     0.0000     0.0000     0.0000     0.0000     0.0000     0.0000     0.0000     0.0000 </r>
        <r>    -0.0635     0.0000     0.0000     0.0000     0.0000     0.0000     0.0000     0.0000     0.0000     0.0000 </r>
        <r>     0.0041     0.0000     0.0000     0.0000     0.0000     0.0000     0.0000     0.0000     0.0000     0.0000 </r>
        <r>     0.0717     0.0000     0.0000     0.0000     0.0000     0.0000     0.0000     0.0000     0.0000     0.0000 </r>
        <r>     0.1394     0.0000     0.0000     0.0000     0.0000     0.0000     0.0000     0.0000     0.0000     0.0000 </r>
        <r>     0.2070     0.0000     0.0000     0.0000     0.0000     0.0000     0.0000     0.0000     0.0000     0.0000 </r>
        <r>     0.2746     0.0000     0.0000     0.0000     0.0000     0.0000     0.0000     0.0000     0.0000     0.0000 </r>
        <r>     0.3422     0.0000     0.0000     0.0000     0.0000     0.0000     0.0000     0.0000     0.0000     0.0000 </r>
        <r>     0.4098     0.0000     0.0000     0.0000     0.0000     0.0000     0.0000     0.0000     0.0000     0.0000 </r>
        <r>     0.4775     0.0000     0.0000     0.0000     0.0000     0.0000     0.0000     0.0000     0.0000     0.0000 </r>
        <r>     0.5451     0.0000     0.0000     0.0000     0.0000     0.0000     0.0000     0.0000     0.0000     0.0000 </r>
        <r>     0.6127     0.0000     0.0000     0.0000     0.0000     0.0000     0.0000     0.0000     0.0000     0.0000 </r>
        <r>     0.6803     0.0000     0.0000     0.0000     0.0000     0.0000     0.0000     0.0000     0.0000     0.0000 </r>
        <r>     0.7480     0.0000     0.0000     0.0000     0.0000     0.0000     0.0000     0.0000     0.0000     0.0000 </r>
        <r>     0.8156     0.0000     0.0000     0.0000     0.0000     0.0000     0.0000     0.0000     0.0000     0.0000 </r>
        <r>     0.8832     0.0000     0.0000     0.0000     0.0000     0.0000     0.0000     0.0000     0.0000     0.0000 </r>
        <r>     0.9508     0.0000     0.0000     0.0000     0.0000     0.0000     0.0000     0.0000     0.0000     0.0000 </r>
        <r>     1.0184     0.0000     0.0000     0.0000     0.0000     0.0000     0.0000     0.0000     0.0000     0.0000 </r>
        <r>     1.0861     0.0000     0.0000     0.0000     0.0000     0.0000     0.0000     0.0000     0.0000     0.0000 </r>
        <r>     1.1537     0.0000     0.0000     0.0000     0.0000     0.0000     0.0000     0.0000     0.0000     0.0000 </r>
        <r>     1.2213     0.0000     0.0000     0.0000     0.0000     0.0000     0.0000     0.0000     0.0000     0.0000 </r>
        <r>     1.2889     0.0000     0.0000     0.0000     0.0000     0.0000     0.0000     0.0000     0.0000     0.0000 </r>
        <r>     1.3566     0.0000     0.0000     0.0000     0.0000     0.0000     0.0000     0.0000     0.0000     0.0000 </r>
        <r>     1.4242     0.0000     0.0000     0.0000     0.0000     0.0000     0.0000     0.0000     0.0000     0.0000 </r>
        <r>     1.4918     0.0000     0.0000     0.0000     0.0000     0.0000     0.0000     0.0000     0.0000     0.0000 </r>
        <r>     1.5594     0.0000     0.0000     0.0000     0.0000     0.0000     0.0000     0.0000     0.0000     0.0000 </r>
        <r>     1.6270     0.0000     0.0000     0.0000     0.0000     0.0000     0.0000     0.0000     0.0000     0.0000 </r>
        <r>     1.6947     0.0000     0.0000     0.0000     0.0000     0.0000     0.0000     0.0000     0.0000     0.0000 </r>
        <r>     1.7623     0.0000     0.0000     0.0000     0.0000     0.0000     0.0000     0.0000     0.0000     0.0000 </r>
        <r>     1.8299     0.0000     0.0000     0.0000     0.0000     0.0000     0.0000     0.0000     0.0000     0.0000 </r>
        <r>     1.8975     0.0000     0.0000     0.0000     0.0000     0.0000     0.0000     0.0000     0.0000     0.0000 </r>
        <r>     1.9652     0.0000     0.0000     0.0000     0.0000     0.0000     0.0000     0.0000     0.0000     0.0000 </r>
        <r>     2.0328     0.0000     0.0000     0.0000     0.0000     0.0000     0.0000     0.0000     0.0000     0.0000 </r>
        <r>     2.1004     0.0000     0.0000     0.0000     0.0000     0.0000     0.0000     0.0000     0.0000     0.0000 </r>
        <r>     2.1680     0.0000     0.0000     0.0000     0.0000     0.0000     0.0000     0.0000     0.0000     0.0000 </r>
        <r>     2.2356     0.0000     0.0000     0.0000     0.0000     0.0000     0.0000     0.0000     0.0000     0.0000 </r>
        <r>     2.3033     0.0000     0.0000     0.0000     0.0000     0.0000     0.0000     0.0000     0.0000     0.0000 </r>
        <r>     2.3709     0.0000     0.0000     0.0000     0.0000     0.0000     0.0000     0.0000     0.0000     0.0000 </r>
        <r>     2.4385     0.0000     0.0000     0.0000     0.0000     0.0000     0.0000     0.0000     0.0000     0.0000 </r>
        <r>     2.5061     0.0000     0.0000     0.0000     0.0000     0.0000     0.0000     0.0000     0.0000     0.0000 </r>
        <r>     2.5738     0.0000     0.0000     0.0000     0.0000     0.0000     0.0000     0.0000     0.0000     0.0000 </r>
        <r>     2.6414     0.0000     0.0000     0.0000     0.0000     0.0000     0.0000     0.0000     0.0000     0.0000 </r>
        <r>     2.7090     0.0000     0.0000     0.0000     0.0000     0.0000     0.0000     0.0000     0.0000     0.0000 </r>
        <r>     2.7766     0.0000     0.0000     0.0000     0.0000     0.0000     0.0000     0.0000     0.0000     0.0000 </r>
        <r>     2.8442     0.0000     0.0000     0.0000     0.0000     0.0000     0.0000     0.0000     0.0000     0.0000 </r>
        <r>     2.9119     0.0000     0.0001     0.0001     0.0000     0.0000     0.0000     0.0000     0.0000     0.0000 </r>
        <r>     2.9795     0.0000     0.0475     0.0479     0.0000     0.0000     0.0000     0.0000     0.0000     0.0000 </r>
        <r>     3.0471     0.0006     1.4598     1.4663     0.0016     0.0000     0.0000     0.0000     0.0000     0.0000 </r>
        <r>     3.1147     0.0012     3.4851     3.4808     0.0033     0.0000     0.0000     0.0000     0.0000     0.0000 </r>
        <r>     3.1824     0.0001     0.8369     0.8337     0.0004     0.0000     0.0000     0.0000     0.0000     0.0000 </r>
        <r>     3.2500     0.0000     0.0210     0.0209     0.0000     0.0000     0.0000     0.0000     0.0000     0.0000 </r>
        <r>     3.3176     0.0000     0.0000     0.0000     0.0000     0.0000     0.0000     0.0000     0.0000     0.0000 </r>
        <r>     3.3852     0.0000     0.0000     0.0000     0.0000     0.0000     0.0000     0.0000     0.0000     0.0000 </r>
        <r>     3.4528     0.0000     0.0000     0.0000     0.0000     0.0000     0.0000     0.0000     0.0000     0.0000 </r>
        <r>     3.5205     0.0000     0.0000     0.0000     0.0000     0.0000     0.0000     0.0000     0.0000     0.0000 </r>
        <r>     3.5881     0.0000     0.0000     0.0000     0.0000     0.0000     0.0000     0.0000     0.0000     0.0000 </r>
        <r>     3.6557     0.0000     0.0000     0.0000     0.0000     0.0000     0.0000     0.0000     0.0000     0.0000 </r>
        <r>     3.7233     0.0000     0.0000     0.0000     0.0000     0.0000     0.0000     0.0000     0.0000     0.0000 </r>
        <r>     3.7910     0.0000     0.0000     0.0000     0.0000     0.0000     0.0000     0.0000     0.0000     0.0000 </r>
        <r>     3.8586     0.0000     0.0000     0.0000     0.0000     0.0000     0.0000     0.0000     0.0000     0.0000 </r>
        <r>     3.9262     0.0000     0.0000     0.0000     0.0000     0.0000     0.0000     0.0000     0.0000     0.0000 </r>
        <r>     3.9938     0.0000     0.0000     0.0000     0.0000     0.0000     0.0000     0.0000     0.0000     0.0000 </r>
        <r>     4.0614     0.0000     0.0000     0.0000     0.0000     0.0000     0.0000     0.0000     0.0000     0.0000 </r>
        <r>     4.1291     0.0000     0.0000     0.0000     0.0000     0.0000     0.0000     0.0000     0.0000     0.0000 </r>
        <r>     4.1967     0.0000     0.0000     0.0000     0.0000     0.0000     0.0000     0.0000     0.0000     0.0000 </r>
        <r>     4.2643     0.0000     0.0000     0.0000     0.0000     0.0000     0.0000     0.0000     0.0000     0.0000 </r>
        <r>     4.3319     0.0000     0.0000     0.0000     0.0000     0.0000     0.0000     0.0000     0.0000     0.0000 </r>
        <r>     4.3996     0.0000     0.0000     0.0000     0.0000     0.0000     0.0000     0.0000     0.0000     0.0000 </r>
        <r>     4.4672     0.0000     0.0000     0.0000     0.0000     0.0000     0.0000     0.0000     0.0000     0.0000 </r>
        <r>     4.5348     0.0000     0.0000     0.0000     0.0000     0.0000     0.0000     0.0000     0.0000     0.0000 </r>
        <r>     4.6024     0.0000     0.0000     0.0000     0.0000     0.0000     0.0000     0.0000     0.0000     0.0000 </r>
        <r>     4.6700     0.0000     0.0000     0.0000     0.0000     0.0000     0.0000     0.0000     0.0000     0.0000 </r>
        <r>     4.7377     0.0000     0.0000     0.0000     0.0000     0.0000     0.0000     0.0000     0.0000     0.0000 </r>
        <r>     4.8053     0.0000     0.0000     0.0000     0.0000     0.0000     0.0000     0.0000     0.0000     0.0000 </r>
        <r>     4.8729     0.0000     0.0000     0.0000     0.0000     0.0000     0.0000     0.0000     0.0000     0.0000 </r>
        <r>     4.9405     0.0000     0.0000     0.0000     0.0000     0.0000     0.0000     0.0000     0.0000     0.0000 </r>
        <r>     5.0082     0.0000     0.0000     0.0000     0.0000     0.0000     0.0000     0.0000     0.0000     0.0000 </r>
        <r>     5.0758     0.0000     0.0000     0.0000     0.0000     0.0000     0.0000     0.0000     0.0000     0.0000 </r>
        <r>     5.1434     0.0000     0.0000     0.0000     0.0000     0.0000     0.0000     0.0000     0.0000     0.0000 </r>
        <r>     5.2110     0.0000     0.0000     0.0000     0.0000     0.0000     0.0000     0.0000     0.0000     0.0000 </r>
        <r>     5.2787     0.0000     0.0000     0.0000     0.0000     0.0000     0.0000     0.0000     0.0000     0.0000 </r>
        <r>     5.3463     0.0000     0.0000     0.0000     0.0000     0.0000     0.0000     0.0000     0.0000     0.0000 </r>
        <r>     5.4139     0.0000     0.0000     0.0000     0.0000     0.0000     0.0000     0.0000     0.0000     0.0000 </r>
        <r>     5.4815     0.0000     0.0000     0.0000     0.0000     0.0000     0.0000     0.0000     0.0000     0.0000 </r>
        <r>     5.5491     0.0000     0.0000     0.0000     0.0000     0.0000     0.0000     0.0000     0.0000     0.0000 </r>
        <r>     5.6168     0.0000     0.0000     0.0000     0.0000     0.0000     0.0000     0.0000     0.0000     0.0000 </r>
        <r>     5.6844     0.0000     0.0000     0.0000     0.0000     0.0000     0.0000     0.0000     0.0000     0.0000 </r>
        <r>     5.7520     0.0000     0.0000     0.0000     0.0000     0.0000     0.0000     0.0000     0.0000     0.0000 </r>
        <r>     5.8196     0.0000     0.0000     0.0000     0.0000     0.0000     0.0000     0.0000     0.0000     0.0000 </r>
        <r>     5.8873     0.0000     0.0000     0.0000     0.0000     0.0000     0.0000     0.0000     0.0000     0.0000 </r>
        <r>     5.9549     0.0000     0.0000     0.0000     0.0000     0.0000     0.0000     0.0000     0.0000     0.0000 </r>
        <r>     6.0225     0.0000     0.0000     0.0000     0.0000     0.0000     0.0000     0.0000     0.0000     0.0000 </r>
        <r>     6.0901     0.0000     0.0000     0.0000     0.0000     0.0000     0.0000     0.0000     0.0000     0.0000 </r>
        <r>     6.1577     0.0000     0.0000     0.0000     0.0000     0.0000     0.0000     0.0000     0.0000     0.0000 </r>
        <r>     6.2254     0.0000     0.0000     0.0000     0.0000     0.0000     0.0000     0.0000     0.0000     0.0000 </r>
        <r>     6.2930     0.0007     0.0000     0.0000     0.0006     0.0000     0.0000     0.0000     0.0000     0.0000 </r>
        <r>     6.3606     0.1214     0.0002     0.0002     0.0985     0.0000     0.0000     0.0000     0.0000     0.0000 </r>
        <r>     6.4282     0.9376     0.0023     0.0020     0.7603     0.0000     0.0000     0.0000     0.0000     0.0000 </r>
        <r>     6.4959     0.4975     0.0020     0.0017     0.4031     0.0000     0.0000     0.0000     0.0000     0.0000 </r>
        <r>     6.5635     0.0169     0.0001     0.0001     0.0137     0.0000     0.0000     0.0000     0.0000     0.0000 </r>
        <r>     6.6311     0.0000     0.0000     0.0000     0.0000     0.0000     0.0000     0.0000     0.0000     0.0000 </r>
        <r>     6.6987     0.0000     0.0000     0.0000     0.0000     0.0000     0.0000     0.0000     0.0000     0.0000 </r>
        <r>     6.7663     0.0006     0.0000     0.0000     0.0004     0.0000     0.0000     0.0000     0.0000     0.0000 </r>
        <r>     6.8340     0.0319     0.0000     0.0000     0.0205     0.0000     0.0000     0.0000     0.0000     0.0000 </r>
        <r>     6.9016     0.1701     0.0001     0.0000     0.1092     0.0000     0.0000     0.0000     0.0000     0.0000 </r>
        <r>     6.9692     0.5105     0.0014     0.0008     0.3275     0.0000     0.0000     0.0000     0.0000     0.0000 </r>
        <r>     7.0368     0.5218     0.0019     0.0012     0.3349     0.0000     0.0000     0.0000     0.0000     0.0000 </r>
        <r>     7.1045     0.1528     0.0002     0.0001     0.0985     0.0000     0.0000     0.0000     0.0000     0.0000 </r>
        <r>     7.1721     0.0270     0.0000     0.0000     0.0174     0.0000     0.0000     0.0000     0.0000     0.0000 </r>
        <r>     7.2397     0.0006     0.0000     0.0000     0.0004     0.0000     0.0000     0.0000     0.0000     0.0000 </r>
        <r>     7.3073     0.0000     0.0000     0.0000     0.0000     0.0000     0.0000     0.0000     0.0000     0.0000 </r>
        <r>     7.3749     0.0000     0.0000     0.0000     0.0000     0.0000     0.0000     0.0000     0.0000     0.0000 </r>
        <r>     7.4426     0.0000     0.0000     0.0000     0.0000     0.0000     0.0000     0.0000     0.0000     0.0000 </r>
        <r>     7.5102     0.0000     0.0000     0.0000     0.0000     0.0000     0.0000     0.0000     0.0000     0.0000 </r>
        <r>     7.5778     0.0000     0.0000     0.0000     0.0000     0.0000     0.0000     0.0000     0.0000     0.0000 </r>
        <r>     7.6454     0.0000     0.0000     0.0000     0.0000     0.0000     0.0000     0.0000     0.0000     0.0000 </r>
        <r>     7.7131     0.0000     0.0000     0.0000     0.0000     0.0000     0.0000     0.0000     0.0000     0.0000 </r>
        <r>     7.7807     0.0000     0.0000     0.0000     0.0000     0.0000     0.0000     0.0000     0.0000     0.0000 </r>
        <r>     7.8483     0.0000     0.0000     0.0000     0.0000     0.0000     0.0000     0.0000     0.0000     0.0000 </r>
        <r>     7.9159     0.0000     0.0000     0.0000     0.0000     0.0000     0.0000     0.0000     0.0000     0.0000 </r>
        <r>     7.9835     0.0000     0.0000     0.0000     0.0000     0.0000     0.0000     0.0000     0.0000     0.0000 </r>
        <r>     8.0512     0.0000     0.0000     0.0000     0.0000     0.0000     0.0000     0.0000     0.0000     0.0000 </r>
        <r>     8.1188     0.0000     0.0000     0.0000     0.0000     0.0000     0.0000     0.0000     0.0000     0.0000 </r>
        <r>     8.1864     0.0000     0.0000     0.0000     0.0000     0.0000     0.0000     0.0000     0.0000     0.0000 </r>
        <r>     8.2540     0.0000     0.0000     0.0000     0.0000     0.0000     0.0000     0.0000     0.0000     0.0000 </r>
        <r>     8.3217     0.0000     0.0000     0.0000     0.0000     0.0000     0.0000     0.0000     0.0000     0.0000 </r>
        <r>     8.3893     0.0000     0.0000     0.0000     0.0000     0.0000     0.0000     0.0000     0.0000     0.0000 </r>
        <r>     8.4569     0.0000     0.0000     0.0000     0.0000     0.0000     0.0000     0.0000     0.0000     0.0000 </r>
        <r>     8.5245     0.0000     0.0000     0.0000     0.0000     0.0000     0.0000     0.0000     0.0000     0.0000 </r>
        <r>     8.5921     0.0000     0.0000     0.0000     0.0000     0.0000     0.0000     0.0000     0.0000     0.0000 </r>
        <r>     8.6598     0.0000     0.0000     0.0000     0.0000     0.0000     0.0000     0.0000     0.0000     0.0000 </r>
        <r>     8.7274     0.0000     0.0000     0.0000     0.0000     0.0000     0.0000     0.0000     0.0000     0.0000 </r>
        <r>     8.7950     0.0000     0.0000     0.0000     0.0000     0.0000     0.0000     0.0000     0.0000     0.0000 </r>
        <r>     8.8626     0.0000     0.0000     0.0000     0.0000     0.0000     0.0000     0.0000     0.0000     0.0000 </r>
        <r>     8.9303     0.0000     0.0000     0.0000     0.0000     0.0000     0.0000     0.0000     0.0000     0.0000 </r>
        <r>     8.9979     0.0000     0.0000     0.0000     0.0000     0.0000     0.0000     0.0000     0.0000     0.0000 </r>
        <r>     9.0655     0.0000     0.0000     0.0000     0.0000     0.0000     0.0000     0.0000     0.0000     0.0000 </r>
        <r>     9.1331     0.0000     0.0000     0.0000     0.0000     0.0000     0.0000     0.0000     0.0000     0.0000 </r>
        <r>     9.2007     0.0000     0.0000     0.0000     0.0000     0.0000     0.0000     0.0000     0.0000     0.0000 </r>
        <r>     9.2684     0.0000     0.0000     0.0000     0.0000     0.0000     0.0000     0.0000     0.0000     0.0000 </r>
        <r>     9.3360     0.0000     0.0000     0.0000     0.0000     0.0000     0.0000     0.0000     0.0000     0.0000 </r>
        <r>     9.4036     0.0000     0.0000     0.0000     0.0000     0.0000     0.0000     0.0000     0.0000     0.0000 </r>
        <r>     9.4712     0.0000     0.0000     0.0000     0.0000     0.0000     0.0000     0.0000     0.0000     0.0000 </r>
        <r>     9.5389     0.0000     0.0000     0.0000     0.0000     0.0000     0.0000     0.0000     0.0000     0.0000 </r>
        <r>     9.6065     0.0000     0.0000     0.0000     0.0000     0.0000     0.0000     0.0000     0.0000     0.0000 </r>
        <r>     9.6741     0.0000     0.0000     0.0000     0.0000     0.0000     0.0000     0.0000     0.0000     0.0000 </r>
        <r>     9.7417     0.0000     0.0000     0.0000     0.0000     0.0000     0.0000     0.0000     0.0000     0.0000 </r>
        <r>     9.8093     0.0000     0.0000     0.0000     0.0000     0.0000     0.0000     0.0000     0.0000     0.0000 </r>
        <r>     9.8770     0.0000     0.0000     0.0000     0.0000     0.0000     0.0000     0.0000     0.0000     0.0000 </r>
        <r>     9.9446     0.0000     0.0000     0.0000     0.0000     0.0000     0.0000     0.0000     0.0000     0.0000 </r>
        <r>    10.0122     0.0000     0.0000     0.0000     0.0000     0.0000     0.0000     0.0000     0.0000     0.0000 </r>
        <r>    10.0798     0.0000     0.0000     0.0000     0.0000     0.0000     0.0000     0.0000     0.0000     0.0000 </r>
        <r>    10.1475     0.0000     0.0000     0.0000     0.0000     0.0000     0.0000     0.0000     0.0000     0.0000 </r>
        <r>    10.2151     0.0000     0.0000     0.0000     0.0000     0.0000     0.0000     0.0000     0.0000     0.0000 </r>
        <r>    10.2827     0.0000     0.0000     0.0000     0.0000     0.0000     0.0000     0.0000     0.0000     0.0000 </r>
        <r>    10.3503     0.0000     0.0000     0.0000     0.0000     0.0000     0.0000     0.0000     0.0000     0.0000 </r>
        <r>    10.4180     0.0000     0.0000     0.0000     0.0000     0.0000     0.0000     0.0000     0.0000     0.0000 </r>
        <r>    10.4856     0.0000     0.0000     0.0000     0.0000     0.0000     0.0000     0.0000     0.0000     0.0000 </r>
        <r>    10.5532     0.0000     0.0000     0.0000     0.0000     0.0000     0.0000     0.0000     0.0000     0.0000 </r>
        <r>    10.6208     0.0000     0.0000     0.0000     0.0000     0.0000     0.0000     0.0000     0.0000     0.0000 </r>
        <r>    10.6884     0.0000     0.0000     0.0000     0.0000     0.0000     0.0000     0.0000     0.0000     0.0000 </r>
        <r>    10.7561     0.0000     0.0000     0.0000     0.0000     0.0000     0.0000     0.0000     0.0000     0.0000 </r>
        <r>    10.8237     0.0000     0.0000     0.0000     0.0000     0.0000     0.0000     0.0000     0.0000     0.0000 </r>
        <r>    10.8913     0.0000     0.0000     0.0000     0.0000     0.0000     0.0000     0.0000     0.0000     0.0000 </r>
        <r>    10.9589     0.0000     0.0000     0.0000     0.0000     0.0000     0.0000     0.0000     0.0000     0.0000 </r>
        <r>    11.0266     0.0000     0.0000     0.0000     0.0000     0.0000     0.0000     0.0000     0.0000     0.0000 </r>
        <r>    11.0942     0.0000     0.0000     0.0000     0.0000     0.0000     0.0000     0.0000     0.0000     0.0000 </r>
        <r>    11.1618     0.0000     0.0000     0.0000     0.0000     0.0000     0.0000     0.0000     0.0000     0.0000 </r>
        <r>    11.2294     0.0000     0.0000     0.0000     0.0000     0.0000     0.0000     0.0000     0.0000     0.0000 </r>
        <r>    11.2970     0.0000     0.0000     0.0000     0.0000     0.0000     0.0000     0.0000     0.0000     0.0000 </r>
        <r>    11.3647     0.0000     0.0000     0.0000     0.0000     0.0000     0.0000     0.0000     0.0000     0.0000 </r>
        <r>    11.4323     0.0000     0.0000     0.0000     0.0000     0.0000     0.0000     0.0000     0.0000     0.0000 </r>
        <r>    11.4999     0.0000     0.0000     0.0000     0.0000     0.0000     0.0000     0.0000     0.0000     0.0000 </r>
        <r>    11.5675     0.0000     0.0000     0.0000     0.0000     0.0000     0.0000     0.0000     0.0000     0.0000 </r>
        <r>    11.6352     0.0000     0.0000     0.0000     0.0000     0.0000     0.0000     0.0000     0.0000     0.0000 </r>
        <r>    11.7028     0.0000     0.0000     0.0000     0.0000     0.0000     0.0000     0.0000     0.0000     0.0000 </r>
        <r>    11.7704     0.0000     0.0000     0.0000     0.0000     0.0000     0.0000     0.0000     0.0000     0.0000 </r>
        <r>    11.8380     0.0000     0.0000     0.0000     0.0000     0.0000     0.0000     0.0000     0.0000     0.0000 </r>
        <r>    11.9056     0.0000     0.0000     0.0000     0.0000     0.0000     0.0000     0.0000     0.0000     0.0000 </r>
        <r>    11.9733     0.0000     0.0000     0.0000     0.0000     0.0000     0.0000     0.0000     0.0000     0.0000 </r>
        <r>    12.0409     0.0000     0.0000     0.0000     0.0000     0.0000     0.0000     0.0000     0.0000     0.0000 </r>
        <r>    12.1085     0.0000     0.0000     0.0000     0.0000     0.0000     0.0000     0.0000     0.0000     0.0000 </r>
        <r>    12.1761     0.0000     0.0000     0.0000     0.0000     0.0000     0.0000     0.0000     0.0000     0.0000 </r>
        <r>    12.2438     0.0000     0.0000     0.0000     0.0000     0.0000     0.0000     0.0000     0.0000     0.0000 </r>
        <r>    12.3114     0.0000     0.0000     0.0000     0.0000     0.0000     0.0000     0.0000     0.0000     0.0000 </r>
        <r>    12.3790     0.0000     0.0000     0.0000     0.0000     0.0000     0.0000     0.0000     0.0000     0.0000 </r>
        <r>    12.4466     0.0000     0.0000     0.0000     0.0000     0.0000     0.0000     0.0000     0.0000     0.0000 </r>
        <r>    12.5142     0.0000     0.0000     0.0000     0.0000     0.0000     0.0000     0.0000     0.0000     0.0000 </r>
        <r>    12.5819     0.0000     0.0000     0.0000     0.0000     0.0000     0.0000     0.0000     0.0000     0.0000 </r>
        <r>    12.6495     0.0000     0.0000     0.0000     0.0000     0.0000     0.0000     0.0000     0.0000     0.0000 </r>
        <r>    12.7171     0.0000     0.0000     0.0000     0.0000     0.0000     0.0000     0.0000     0.0000     0.0000 </r>
        <r>    12.7847     0.0000     0.0000     0.0000     0.0000     0.0000     0.0000     0.0000     0.0000     0.0000 </r>
        <r>    12.8524     0.0000     0.0000     0.0000     0.0000     0.0000     0.0000     0.0000     0.0000     0.0000 </r>
        <r>    12.9200     0.0000     0.0000     0.0000     0.0000     0.0000     0.0000     0.0000     0.0000     0.0000 </r>
        <r>    12.9876     0.0000     0.0000     0.0000     0.0000     0.0000     0.0000     0.0000     0.0000     0.0000 </r>
        <r>    13.0552     0.0000     0.0000     0.0000     0.0000     0.0000     0.0000     0.0000     0.0000     0.0000 </r>
        <r>    13.1228     0.0000     0.0000     0.0000     0.0000     0.0000     0.0000     0.0000     0.0000     0.0000 </r>
        <r>    13.1905     0.0000     0.0000     0.0000     0.0000     0.0000     0.0000     0.0000     0.0000     0.0000 </r>
        <r>    13.2581     0.0000     0.0000     0.0000     0.0000     0.0000     0.0000     0.0000     0.0000     0.0000 </r>
        <r>    13.3257     0.0000     0.0000     0.0000     0.0000     0.0000     0.0000     0.0000     0.0000     0.0000 </r>
        <r>    13.3933     0.0000     0.0000     0.0000     0.0000     0.0000     0.0000     0.0000     0.0000     0.0000 </r>
        <r>    13.4610     0.0000     0.0000     0.0000     0.0000     0.0000     0.0000     0.0000     0.0000     0.0000 </r>
        <r>    13.5286     0.0000     0.0000     0.0000     0.0000     0.0000     0.0000     0.0000     0.0000     0.0000 </r>
        <r>    13.5962     0.0000     0.0000     0.0000     0.0000     0.0000     0.0000     0.0000     0.0000     0.0000 </r>
        <r>    13.6638     0.0000     0.0000     0.0000     0.0000     0.0000     0.0000     0.0000     0.0000     0.0000 </r>
        <r>    13.7314     0.0000     0.0000     0.0000     0.0000     0.0000     0.0000     0.0000     0.0000     0.0000 </r>
        <r>    13.7991     0.0000     0.0000     0.0000     0.0000     0.0000     0.0000     0.0000     0.0000     0.0000 </r>
        <r>    13.8667     0.0000     0.0000     0.0000     0.0000     0.0000     0.0000     0.0000     0.0000     0.0000 </r>
        <r>    13.9343     0.0000     0.0000     0.0000     0.0000     0.0000     0.0000     0.0000     0.0000     0.0000 </r>
        <r>    14.0019     0.0000     0.0000     0.0000     0.0000     0.0000     0.0000     0.0000     0.0000     0.0000 </r>
        <r>    14.0696     0.0000     0.0000     0.0000     0.0000     0.0000     0.0000     0.0000     0.0000     0.0000 </r>
        <r>    14.1372     0.0000     0.0000     0.0000     0.0000     0.0000     0.0000     0.0000     0.0000     0.0000 </r>
        <r>    14.2048     0.0000     0.0000     0.0000     0.0000     0.0000     0.0000     0.0000     0.0000     0.0000 </r>
        <r>    14.2724     0.0000     0.0000     0.0000     0.0000     0.0000     0.0000     0.0000     0.0000     0.0000 </r>
        <r>    14.3400     0.0000     0.0000     0.0000     0.0000     0.0000     0.0000     0.0000     0.0000     0.0000 </r>
        <r>    14.4077     0.0000     0.0034     0.0034     0.0000     0.0000     0.0000     0.0000     0.0000     0.0000 </r>
        <r>    14.4753     0.0000     0.0787     0.0787     0.0000     0.0000     0.0000     0.0000     0.0000     0.0000 </r>
        <r>    14.5429     0.0000     0.2240     0.2241     0.0000     0.0000     0.0000     0.0000     0.0000     0.0000 </r>
        <r>    14.6105     0.0000     0.2551     0.2549     0.0000     0.0000     0.0000     0.0000     0.0000     0.0000 </r>
        <r>    14.6782     0.0010     0.3162     0.2890     0.0011     0.0000     0.0000     0.0000     0.0000     0.0000 </r>
        <r>    14.7458     0.0055     0.8511     0.6862     0.0064     0.0000     0.0000     0.0000     0.0000     0.0000 </r>
        <r>    14.8134     0.0041     1.6457     1.7324     0.0049     0.0000     0.0000     0.0000     0.0000     0.0000 </r>
        <r>    14.8810     0.0005     0.6911     0.8034     0.0006     0.0000     0.0000     0.0000     0.0000     0.0000 </r>
        <r>    14.9486     0.0000     0.2698     0.2729     0.0000     0.0000     0.0000     0.0000     0.0000     0.0000 </r>
        <r>    15.0163     0.0000     0.2637     0.2637     0.0000     0.0000     0.0000     0.0000     0.0000     0.0000 </r>
        <r>    15.0839     0.0000     0.2551     0.2552     0.0000     0.0000     0.0000     0.0000     0.0000     0.0000 </r>
        <r>    15.1515     0.0000     0.1380     0.1381     0.0000     0.0000     0.0000     0.0000     0.0000     0.0000 </r>
        <r>    15.2191     0.0000     0.0131     0.0131     0.0000     0.0000     0.0000     0.0000     0.0000     0.0000 </r>
        <r>    15.2868     0.0000     0.0001     0.0001     0.0000     0.0000     0.0000     0.0000     0.0000     0.0000 </r>
        <r>    15.3544     0.0000     0.0000     0.0000     0.0000     0.0000     0.0000     0.0000     0.0000     0.0000 </r>
        <r>    15.4220     0.0000     0.0000     0.0000     0.0000     0.0000     0.0000     0.0000     0.0000     0.0000 </r>
        <r>    15.4896     0.0000     0.0000     0.0000     0.0000     0.0000     0.0000     0.0000     0.0000     0.0000 </r>
        <r>    15.5573     0.0000     0.0000     0.0000     0.0000     0.0000     0.0000     0.0000     0.0000     0.0000 </r>
        <r>    15.6249     0.0000     0.0000     0.0000     0.0000     0.0000     0.0000     0.0000     0.0000     0.0000 </r>
        <r>    15.6925     0.0000     0.0000     0.0000     0.0000     0.0000     0.0000     0.0000     0.0000     0.0000 </r>
        <r>    15.7601     0.0000     0.0000     0.0000     0.0000     0.0000     0.0000     0.0000     0.0000     0.0000 </r>
        <r>    15.8277     0.0000     0.0000     0.0000     0.0000     0.0000     0.0000     0.0000     0.0000     0.0000 </r>
        <r>    15.8954     0.0000     0.0000     0.0000     0.0000     0.0000     0.0000     0.0000     0.0000     0.0000 </r>
        <r>    15.9630     0.0000     0.0000     0.0000     0.0000     0.0000     0.0000     0.0000     0.0000     0.0000 </r>
        <r>    16.0306     0.0000     0.0000     0.0000     0.0000     0.0000     0.0000     0.0000     0.0000     0.0000 </r>
       </set>
      </set>
     </set>
    </array>
   </partial>
  </dos>
  <projected>
   <eigenvalues>
    <array>
     <dimension dim="1">band</dimension>
     <dimension dim="2">kpoint</dimension>
     <dimension dim="3">spin</dimension>
     <field>eigene</field>
     <field>occ</field>
     <set>
      <set comment="spin 1">
       <set comment="kpoint 1">
        <r>   -3.3340    1.0000 </r>
        <r>   -0.4496    1.0000 </r>
        <r>    3.1201    1.0000 </r>
        <r>    3.1201    1.0000 </r>
        <r>    6.4102    0.0000 </r>
        <r>    7.0934    0.0000 </r>
        <r>   14.4724    0.0000 </r>
        <r>   14.4724    0.0000 </r>
       </set>
       <set comment="kpoint 2">
        <r>   -3.3186    1.0000 </r>
        <r>   -0.4695    1.0000 </r>
        <r>    3.1167    1.0000 </r>
        <r>    3.1167    1.0000 </r>
        <r>    6.4095    0.0000 </r>
        <r>    7.0839    0.0000 </r>
        <r>   14.4944    0.0000 </r>
        <r>   14.4944    0.0000 </r>
       </set>
       <set comment="kpoint 3">
        <r>   -3.3032    1.0000 </r>
        <r>   -0.4893    1.0000 </r>
        <r>    3.1134    1.0000 </r>
        <r>    3.1134    1.0000 </r>
        <r>    6.4089    0.0000 </r>
        <r>    7.0745    0.0000 </r>
        <r>   14.5164    0.0000 </r>
        <r>   14.5164    0.0000 </r>
       </set>
       <set comment="kpoint 4">
        <r>   -3.2877    1.0000 </r>
        <r>   -0.5091    1.0000 </r>
        <r>    3.1100    1.0000 </r>
        <r>    3.1100    1.0000 </r>
        <r>    6.4083    0.0000 </r>
        <r>    7.0651    0.0000 </r>
        <r>   14.5384    0.0000 </r>
        <r>   14.5384    0.0000 </r>
       </set>
       <set comment="kpoint 5">
        <r>   -3.2722    1.0000 </r>
        <r>   -0.5289    1.0000 </r>
        <r>    3.1068    1.0000 </r>
        <r>    3.1068    1.0000 </r>
        <r>    6.4077    0.0000 </r>
        <r>    7.0558    0.0000 </r>
        <r>   14.5604    0.0000 </r>
        <r>   14.5604    0.0000 </r>
       </set>
       <set comment="kpoint 6">
        <r>   -3.2567    1.0000 </r>
        <r>   -0.5487    1.0000 </r>
        <r>    3.1035    1.0000 </r>
        <r>    3.1035    1.0000 </r>
        <r>    6.4073    0.0000 </r>
        <r>    7.0466    0.0000 </r>
        <r>   14.5824    0.0000 </r>
        <r>   14.5824    0.0000 </r>
       </set>
       <set comment="kpoint 7">
        <r>   -3.2411    1.0000 </r>
        <r>   -0.5685    1.0000 </r>
        <r>    3.1003    1.0000 </r>
        <r>    3.1003    1.0000 </r>
        <r>    6.4068    0.0000 </r>
        <r>    7.0374    0.0000 </r>
        <r>   14.6041    0.0000 </r>
        <r>   14.6041    0.0000 </r>
       </set>
       <set comment="kpoint 8">
        <r>   -3.2255    1.0000 </r>
        <r>   -0.5882    1.0000 </r>
        <r>    3.0971    1.0000 </r>
        <r>    3.0971    1.0000 </r>
        <r>    6.4065    0.0000 </r>
        <r>    7.0283    0.0000 </r>
        <r>   14.6261    0.0000 </r>
        <r>   14.6261    0.0000 </r>
       </set>
       <set comment="kpoint 9">
        <r>   -3.2098    1.0000 </r>
        <r>   -0.6079    1.0000 </r>
        <r>    3.0940    1.0000 </r>
        <r>    3.0940    1.0000 </r>
        <r>    6.4062    0.0000 </r>
        <r>    7.0193    0.0000 </r>
        <r>   14.6480    0.0000 </r>
        <r>   14.6480    0.0000 </r>
       </set>
       <set comment="kpoint 10">
        <r>   -3.1942    1.0000 </r>
        <r>   -0.6276    1.0000 </r>
        <r>    3.0909    1.0000 </r>
        <r>    3.0909    1.0000 </r>
        <r>    6.4059    0.0000 </r>
        <r>    7.0103    0.0000 </r>
        <r>   14.6700    0.0000 </r>
        <r>   14.6700    0.0000 </r>
       </set>
       <set comment="kpoint 11">
        <r>   -3.1785    1.0000 </r>
        <r>   -0.6473    1.0000 </r>
        <r>    3.0879    1.0000 </r>
        <r>    3.0879    1.0000 </r>
        <r>    6.4058    0.0000 </r>
        <r>    7.0015    0.0000 </r>
        <r>   14.6920    0.0000 </r>
        <r>   14.6920    0.0000 </r>
       </set>
       <set comment="kpoint 12">
        <r>   -3.1627    1.0000 </r>
        <r>   -0.6670    1.0000 </r>
        <r>    3.0849    1.0000 </r>
        <r>    3.0849    1.0000 </r>
        <r>    6.4056    0.0000 </r>
        <r>    6.9928    0.0000 </r>
        <r>   14.7151    0.0000 </r>
        <r>   14.7151    0.0000 </r>
       </set>
       <set comment="kpoint 13">
        <r>   -3.1469    1.0000 </r>
        <r>   -0.6866    1.0000 </r>
        <r>    3.0820    1.0000 </r>
        <r>    3.0820    1.0000 </r>
        <r>    6.4056    0.0000 </r>
        <r>    6.9841    0.0000 </r>
        <r>   14.7371    0.0000 </r>
        <r>   14.7371    0.0000 </r>
       </set>
       <set comment="kpoint 14">
        <r>   -3.1311    1.0000 </r>
        <r>   -0.7062    1.0000 </r>
        <r>    3.0791    1.0000 </r>
        <r>    3.0791    1.0000 </r>
        <r>    6.4056    0.0000 </r>
        <r>    6.9754    0.0000 </r>
        <r>   14.7590    0.0000 </r>
        <r>   14.7591    0.0000 </r>
       </set>
       <set comment="kpoint 15">
        <r>   -3.1152    1.0000 </r>
        <r>   -0.7258    1.0000 </r>
        <r>    3.0762    1.0000 </r>
        <r>    3.0762    1.0000 </r>
        <r>    6.4056    0.0000 </r>
        <r>    6.9668    0.0000 </r>
        <r>   14.7810    0.0000 </r>
        <r>   14.7810    0.0000 </r>
       </set>
       <set comment="kpoint 16">
        <r>   -3.0994    1.0000 </r>
        <r>   -0.7454    1.0000 </r>
        <r>    3.0734    1.0000 </r>
        <r>    3.0734    1.0000 </r>
        <r>    6.4057    0.0000 </r>
        <r>    6.9582    0.0000 </r>
        <r>   14.8029    0.0000 </r>
        <r>   14.8029    0.0000 </r>
       </set>
       <set comment="kpoint 17">
        <r>   -3.0834    1.0000 </r>
        <r>   -0.7650    1.0000 </r>
        <r>    3.0706    1.0000 </r>
        <r>    3.0706    1.0000 </r>
        <r>    6.4059    0.0000 </r>
        <r>    6.9497    0.0000 </r>
        <r>   14.8249    0.0000 </r>
        <r>   14.8249    0.0000 </r>
       </set>
       <set comment="kpoint 18">
        <r>   -3.0675    1.0000 </r>
        <r>   -0.7845    1.0000 </r>
        <r>    3.0679    1.0000 </r>
        <r>    3.0679    1.0000 </r>
        <r>    6.4061    0.0000 </r>
        <r>    6.9413    0.0000 </r>
        <r>   14.8468    0.0000 </r>
        <r>   14.8468    0.0000 </r>
       </set>
       <set comment="kpoint 19">
        <r>   -3.0515    1.0000 </r>
        <r>   -0.8041    1.0000 </r>
        <r>    3.0652    1.0000 </r>
        <r>    3.0652    1.0000 </r>
        <r>    6.4064    0.0000 </r>
        <r>    6.9330    0.0000 </r>
        <r>   14.8687    0.0000 </r>
        <r>   14.8687    0.0000 </r>
       </set>
       <set comment="kpoint 20">
        <r>   -3.0354    1.0000 </r>
        <r>   -0.8236    1.0000 </r>
        <r>    3.0625    1.0000 </r>
        <r>    3.0625    1.0000 </r>
        <r>    6.4067    0.0000 </r>
        <r>    6.9247    0.0000 </r>
        <r>   14.8906    0.0000 </r>
        <r>   14.8906    0.0000 </r>
       </set>
       <set comment="kpoint 21">
        <r>   -3.0194    1.0000 </r>
        <r>   -0.8431    1.0000 </r>
        <r>    3.0599    1.0000 </r>
        <r>    3.0599    1.0000 </r>
        <r>    6.4071    0.0000 </r>
        <r>    6.9165    0.0000 </r>
        <r>   14.9125    0.0000 </r>
        <r>   14.9125    0.0000 </r>
       </set>
       <set comment="kpoint 22">
        <r>   -3.0033    1.0000 </r>
        <r>   -0.8625    1.0000 </r>
        <r>    3.0574    1.0000 </r>
        <r>    3.0574    1.0000 </r>
        <r>    6.4076    0.0000 </r>
        <r>    6.9084    0.0000 </r>
        <r>   14.9343    0.0000 </r>
        <r>   14.9343    0.0000 </r>
       </set>
       <set comment="kpoint 23">
        <r>   -2.9871    1.0000 </r>
        <r>   -0.8820    1.0000 </r>
        <r>    3.0548    1.0000 </r>
        <r>    3.0548    1.0000 </r>
        <r>    6.4081    0.0000 </r>
        <r>    6.9003    0.0000 </r>
        <r>   14.9562    0.0000 </r>
        <r>   14.9564    0.0000 </r>
       </set>
       <set comment="kpoint 24">
        <r>   -2.9710    1.0000 </r>
        <r>   -0.9014    1.0000 </r>
        <r>    3.0524    1.0000 </r>
        <r>    3.0524    1.0000 </r>
        <r>    6.4086    0.0000 </r>
        <r>    6.8923    0.0000 </r>
        <r>   14.9780    0.0000 </r>
        <r>   14.9780    0.0000 </r>
       </set>
       <set comment="kpoint 25">
        <r>   -2.9548    1.0000 </r>
        <r>   -0.9208    1.0000 </r>
        <r>    3.0499    1.0000 </r>
        <r>    3.0499    1.0000 </r>
        <r>    6.4093    0.0000 </r>
        <r>    6.8844    0.0000 </r>
        <r>   14.9998    0.0000 </r>
        <r>   14.9998    0.0000 </r>
       </set>
       <set comment="kpoint 26">
        <r>   -2.9385    1.0000 </r>
        <r>   -0.9402    1.0000 </r>
        <r>    3.0475    1.0000 </r>
        <r>    3.0475    1.0000 </r>
        <r>    6.4099    0.0000 </r>
        <r>    6.8766    0.0000 </r>
        <r>   15.0216    0.0000 </r>
        <r>   15.0216    0.0000 </r>
       </set>
       <set comment="kpoint 27">
        <r>   -2.9223    1.0000 </r>
        <r>   -0.9595    1.0000 </r>
        <r>    3.0452    1.0000 </r>
        <r>    3.0452    1.0000 </r>
        <r>    6.4107    0.0000 </r>
        <r>    6.8688    0.0000 </r>
        <r>   15.0433    0.0000 </r>
        <r>   15.0433    0.0000 </r>
       </set>
       <set comment="kpoint 28">
        <r>   -2.9060    1.0000 </r>
        <r>   -0.9789    1.0000 </r>
        <r>    3.0429    1.0000 </r>
        <r>    3.0429    1.0000 </r>
        <r>    6.4115    0.0000 </r>
        <r>    6.8610    0.0000 </r>
        <r>   15.0650    0.0000 </r>
        <r>   15.0650    0.0000 </r>
       </set>
       <set comment="kpoint 29">
        <r>   -2.8896    1.0000 </r>
        <r>   -0.9982    1.0000 </r>
        <r>    3.0406    1.0000 </r>
        <r>    3.0406    1.0000 </r>
        <r>    6.4124    0.0000 </r>
        <r>    6.8534    0.0000 </r>
        <r>   15.0867    0.0000 </r>
        <r>   15.0867    0.0000 </r>
       </set>
       <set comment="kpoint 30">
        <r>   -2.8733    1.0000 </r>
        <r>   -1.0175    1.0000 </r>
        <r>    3.0384    1.0000 </r>
        <r>    3.0384    1.0000 </r>
        <r>    6.4133    0.0000 </r>
        <r>    6.8458    0.0000 </r>
        <r>   15.1084    0.0000 </r>
        <r>   15.1085    0.0000 </r>
       </set>
       <set comment="kpoint 31">
        <r>   -3.1035    1.0000 </r>
        <r>   -0.7375    1.0000 </r>
        <r>    3.0559    1.0000 </r>
        <r>    3.0647    1.0000 </r>
        <r>    6.4356    0.0000 </r>
        <r>    6.9871    0.0000 </r>
        <r>   14.7042    0.0000 </r>
        <r>   14.7930    0.0000 </r>
       </set>
       <set comment="kpoint 32">
        <r>   -3.1039    1.0000 </r>
        <r>   -0.7373    1.0000 </r>
        <r>    3.0584    1.0000 </r>
        <r>    3.0660    1.0000 </r>
        <r>    6.4316    0.0000 </r>
        <r>    6.9838    0.0000 </r>
        <r>   14.7156    0.0000 </r>
        <r>   14.7930    0.0000 </r>
       </set>
       <set comment="kpoint 33">
        <r>   -3.1043    1.0000 </r>
        <r>   -0.7372    1.0000 </r>
        <r>    3.0607    1.0000 </r>
        <r>    3.0673    1.0000 </r>
        <r>    6.4280    0.0000 </r>
        <r>    6.9807    0.0000 </r>
        <r>   14.7262    0.0000 </r>
        <r>   14.7929    0.0000 </r>
       </set>
       <set comment="kpoint 34">
        <r>   -3.1047    1.0000 </r>
        <r>   -0.7370    1.0000 </r>
        <r>    3.0629    1.0000 </r>
        <r>    3.0684    1.0000 </r>
        <r>    6.4245    0.0000 </r>
        <r>    6.9779    0.0000 </r>
        <r>   14.7360    0.0000 </r>
        <r>   14.7929    0.0000 </r>
       </set>
       <set comment="kpoint 35">
        <r>   -3.1050    1.0000 </r>
        <r>   -0.7369    1.0000 </r>
        <r>    3.0648    1.0000 </r>
        <r>    3.0694    1.0000 </r>
        <r>    6.4214    0.0000 </r>
        <r>    6.9753    0.0000 </r>
        <r>   14.7452    0.0000 </r>
        <r>   14.7929    0.0000 </r>
       </set>
       <set comment="kpoint 36">
        <r>   -3.1054    1.0000 </r>
        <r>   -0.7368    1.0000 </r>
        <r>    3.0666    1.0000 </r>
        <r>    3.0704    1.0000 </r>
        <r>    6.4186    0.0000 </r>
        <r>    6.9729    0.0000 </r>
        <r>   14.7536    0.0000 </r>
        <r>   14.7929    0.0000 </r>
       </set>
       <set comment="kpoint 37">
        <r>   -3.1057    1.0000 </r>
        <r>   -0.7367    1.0000 </r>
        <r>    3.0682    1.0000 </r>
        <r>    3.0712    1.0000 </r>
        <r>    6.4160    0.0000 </r>
        <r>    6.9708    0.0000 </r>
        <r>   14.7612    0.0000 </r>
        <r>   14.7928    0.0000 </r>
       </set>
       <set comment="kpoint 38">
        <r>   -3.1059    1.0000 </r>
        <r>   -0.7365    1.0000 </r>
        <r>    3.0697    1.0000 </r>
        <r>    3.0720    1.0000 </r>
        <r>    6.4137    0.0000 </r>
        <r>    6.9689    0.0000 </r>
        <r>   14.7685    0.0000 </r>
        <r>   14.7928    0.0000 </r>
       </set>
       <set comment="kpoint 39">
        <r>   -3.1062    1.0000 </r>
        <r>   -0.7365    1.0000 </r>
        <r>    3.0709    1.0000 </r>
        <r>    3.0727    1.0000 </r>
        <r>    6.4117    0.0000 </r>
        <r>    6.9673    0.0000 </r>
        <r>   14.7745    0.0000 </r>
        <r>   14.7928    0.0000 </r>
       </set>
       <set comment="kpoint 40">
        <r>   -3.1064    1.0000 </r>
        <r>   -0.7364    1.0000 </r>
        <r>    3.0720    1.0000 </r>
        <r>    3.0732    1.0000 </r>
        <r>    6.4100    0.0000 </r>
        <r>    6.9659    0.0000 </r>
        <r>   14.7795    0.0000 </r>
        <r>   14.7927    0.0000 </r>
       </set>
       <set comment="kpoint 41">
        <r>   -3.1065    1.0000 </r>
        <r>   -0.7363    1.0000 </r>
        <r>    3.0729    1.0000 </r>
        <r>    3.0737    1.0000 </r>
        <r>    6.4086    0.0000 </r>
        <r>    6.9647    0.0000 </r>
        <r>   14.7838    0.0000 </r>
        <r>   14.7927    0.0000 </r>
       </set>
       <set comment="kpoint 42">
        <r>   -3.1067    1.0000 </r>
        <r>   -0.7362    1.0000 </r>
        <r>    3.0736    1.0000 </r>
        <r>    3.0741    1.0000 </r>
        <r>    6.4074    0.0000 </r>
        <r>    6.9637    0.0000 </r>
        <r>   14.7873    0.0000 </r>
        <r>   14.7926    0.0000 </r>
       </set>
       <set comment="kpoint 43">
        <r>   -3.1068    1.0000 </r>
        <r>   -0.7362    1.0000 </r>
        <r>    3.0741    1.0000 </r>
        <r>    3.0744    1.0000 </r>
        <r>    6.4066    0.0000 </r>
        <r>    6.9630    0.0000 </r>
        <r>   14.7898    0.0000 </r>
        <r>   14.7926    0.0000 </r>
       </set>
       <set comment="kpoint 44">
        <r>   -3.1069    1.0000 </r>
        <r>   -0.7361    1.0000 </r>
        <r>    3.0745    1.0000 </r>
        <r>    3.0746    1.0000 </r>
        <r>    6.4060    0.0000 </r>
        <r>    6.9626    0.0000 </r>
        <r>   14.7915    0.0000 </r>
        <r>   14.7925    0.0000 </r>
       </set>
       <set comment="kpoint 45">
        <r>   -3.1069    1.0000 </r>
        <r>   -0.7361    1.0000 </r>
        <r>    3.0747    1.0000 </r>
        <r>    3.0747    1.0000 </r>
        <r>    6.4057    0.0000 </r>
        <r>    6.9623    0.0000 </r>
        <r>   14.7923    0.0000 </r>
        <r>   14.7925    0.0000 </r>
       </set>
       <set comment="kpoint 46">
        <r>   -3.1070    1.0000 </r>
        <r>   -0.7361    1.0000 </r>
        <r>    3.0747    1.0000 </r>
        <r>    3.0747    1.0000 </r>
        <r>    6.4057    0.0000 </r>
        <r>    6.9623    0.0000 </r>
        <r>   14.7923    0.0000 </r>
        <r>   14.7924    0.0000 </r>
       </set>
       <set comment="kpoint 47">
        <r>   -3.1070    1.0000 </r>
        <r>   -0.7360    1.0000 </r>
        <r>    3.0745    1.0000 </r>
        <r>    3.0746    1.0000 </r>
        <r>    6.4060    0.0000 </r>
        <r>    6.9626    0.0000 </r>
        <r>   14.7914    0.0000 </r>
        <r>   14.7924    0.0000 </r>
       </set>
       <set comment="kpoint 48">
        <r>   -3.1069    1.0000 </r>
        <r>   -0.7360    1.0000 </r>
        <r>    3.0742    1.0000 </r>
        <r>    3.0744    1.0000 </r>
        <r>    6.4065    0.0000 </r>
        <r>    6.9631    0.0000 </r>
        <r>   14.7897    0.0000 </r>
        <r>   14.7924    0.0000 </r>
       </set>
       <set comment="kpoint 49">
        <r>   -3.1069    1.0000 </r>
        <r>   -0.7360    1.0000 </r>
        <r>    3.0737    1.0000 </r>
        <r>    3.0742    1.0000 </r>
        <r>    6.4074    0.0000 </r>
        <r>    6.9638    0.0000 </r>
        <r>   14.7872    0.0000 </r>
        <r>   14.7924    0.0000 </r>
       </set>
       <set comment="kpoint 50">
        <r>   -3.1068    1.0000 </r>
        <r>   -0.7360    1.0000 </r>
        <r>    3.0729    1.0000 </r>
        <r>    3.0738    1.0000 </r>
        <r>    6.4085    0.0000 </r>
        <r>    6.9647    0.0000 </r>
        <r>   14.7837    0.0000 </r>
        <r>   14.7923    0.0000 </r>
       </set>
       <set comment="kpoint 51">
        <r>   -3.1066    1.0000 </r>
        <r>   -0.7360    1.0000 </r>
        <r>    3.0721    1.0000 </r>
        <r>    3.0733    1.0000 </r>
        <r>    6.4099    0.0000 </r>
        <r>    6.9659    0.0000 </r>
        <r>   14.7794    0.0000 </r>
        <r>   14.7923    0.0000 </r>
       </set>
       <set comment="kpoint 52">
        <r>   -3.1065    1.0000 </r>
        <r>   -0.7361    1.0000 </r>
        <r>    3.0710    1.0000 </r>
        <r>    3.0728    1.0000 </r>
        <r>    6.4116    0.0000 </r>
        <r>    6.9674    0.0000 </r>
        <r>   14.7743    0.0000 </r>
        <r>   14.7924    0.0000 </r>
       </set>
       <set comment="kpoint 53">
        <r>   -3.1063    1.0000 </r>
        <r>   -0.7361    1.0000 </r>
        <r>    3.0698    1.0000 </r>
        <r>    3.0721    1.0000 </r>
        <r>    6.4136    0.0000 </r>
        <r>    6.9690    0.0000 </r>
        <r>   14.7683    0.0000 </r>
        <r>   14.7923    0.0000 </r>
       </set>
       <set comment="kpoint 54">
        <r>   -3.1061    1.0000 </r>
        <r>   -0.7362    1.0000 </r>
        <r>    3.0684    1.0000 </r>
        <r>    3.0713    1.0000 </r>
        <r>    6.4159    0.0000 </r>
        <r>    6.9709    0.0000 </r>
        <r>   14.7609    0.0000 </r>
        <r>   14.7923    0.0000 </r>
       </set>
       <set comment="kpoint 55">
        <r>   -3.1058    1.0000 </r>
        <r>   -0.7362    1.0000 </r>
        <r>    3.0668    1.0000 </r>
        <r>    3.0705    1.0000 </r>
        <r>    6.4185    0.0000 </r>
        <r>    6.9731    0.0000 </r>
        <r>   14.7533    0.0000 </r>
        <r>   14.7922    0.0000 </r>
       </set>
       <set comment="kpoint 56">
        <r>   -3.1056    1.0000 </r>
        <r>   -0.7363    1.0000 </r>
        <r>    3.0650    1.0000 </r>
        <r>    3.0696    1.0000 </r>
        <r>    6.4213    0.0000 </r>
        <r>    6.9754    0.0000 </r>
        <r>   14.7449    0.0000 </r>
        <r>   14.7922    0.0000 </r>
       </set>
       <set comment="kpoint 57">
        <r>   -3.1052    1.0000 </r>
        <r>   -0.7364    1.0000 </r>
        <r>    3.0630    1.0000 </r>
        <r>    3.0685    1.0000 </r>
        <r>    6.4244    0.0000 </r>
        <r>    6.9780    0.0000 </r>
        <r>   14.7357    0.0000 </r>
        <r>   14.7921    0.0000 </r>
       </set>
       <set comment="kpoint 58">
        <r>   -3.1049    1.0000 </r>
        <r>   -0.7365    1.0000 </r>
        <r>    3.0609    1.0000 </r>
        <r>    3.0674    1.0000 </r>
        <r>    6.4278    0.0000 </r>
        <r>    6.9809    0.0000 </r>
        <r>   14.7258    0.0000 </r>
        <r>   14.7922    0.0000 </r>
       </set>
       <set comment="kpoint 59">
        <r>   -3.1045    1.0000 </r>
        <r>   -0.7366    1.0000 </r>
        <r>    3.0586    1.0000 </r>
        <r>    3.0662    1.0000 </r>
        <r>    6.4315    0.0000 </r>
        <r>    6.9840    0.0000 </r>
        <r>   14.7151    0.0000 </r>
        <r>   14.7921    0.0000 </r>
       </set>
       <set comment="kpoint 60">
        <r>   -3.1042    1.0000 </r>
        <r>   -0.7367    1.0000 </r>
        <r>    3.0562    1.0000 </r>
        <r>    3.0649    1.0000 </r>
        <r>    6.4354    0.0000 </r>
        <r>    6.9873    0.0000 </r>
        <r>   14.7037    0.0000 </r>
        <r>   14.7920    0.0000 </r>
       </set>
      </set>
     </set>
    </array>
   </eigenvalues>
   <array>
    <dimension dim="1">ion</dimension>
    <dimension dim="2">band</dimension>
    <dimension dim="3">kpoint</dimension>
    <dimension dim="4">spin</dimension>
    <field>    s</field>
    <field>   py</field>
    <field>   pz</field>
    <field>   px</field>
    <field>  dxy</field>
    <field>  dyz</field>
    <field>  dz2</field>
    <field>  dxz</field>
    <field>x2-y2</field>
    <set>
     <set comment="spin1">
      <set comment="kpoint 1">
       <set comment="band 1">
        <r>  0.1999  0.0000  0.0000  0.0307  0.0000  0.0000  0.0000  0.0000  0.0000 </r>
        <r>  0.1999  0.0000  0.0000  0.0307  0.0000  0.0000  0.0000  0.0000  0.0000 </r>
       </set>
       <set comment="band 2">
        <r>  0.1845  0.0000  0.0000  0.0633  0.0000  0.0000  0.0000  0.0000  0.0000 </r>
        <r>  0.1845  0.0000  0.0000  0.0633  0.0000  0.0000  0.0000  0.0000  0.0000 </r>
       </set>
       <set comment="band 3">
        <r>  0.0000  0.1018  0.0963  0.0000  0.0000  0.0000  0.0000  0.0000  0.0000 </r>
        <r>  0.0000  0.0962  0.1018  0.0000  0.0000  0.0000  0.0000  0.0000  0.0000 </r>
       </set>
       <set comment="band 4">
        <r>  0.0000  0.0963  0.1018  0.0000  0.0000  0.0000  0.0000  0.0000  0.0000 </r>
        <r>  0.0000  0.1018  0.0962  0.0000  0.0000  0.0000  0.0000  0.0000  0.0000 </r>
       </set>
       <set comment="band 5">
        <r>  0.0532  0.0000  0.0000  0.0455  0.0000  0.0000  0.0000  0.0000  0.0000 </r>
        <r>  0.0532  0.0000  0.0000  0.0455  0.0000  0.0000  0.0000  0.0000  0.0000 </r>
       </set>
       <set comment="band 6">
        <r>  0.0469  0.0000  0.0000  0.0304  0.0000  0.0000  0.0000  0.0000  0.0000 </r>
        <r>  0.0469  0.0000  0.0000  0.0304  0.0000  0.0000  0.0000  0.0000  0.0000 </r>
       </set>
       <set comment="band 7">
        <r>  0.0000  0.0376  0.1294  0.0000  0.0000  0.0000  0.0000  0.0000  0.0000 </r>
        <r>  0.0000  0.1281  0.0389  0.0000  0.0000  0.0000  0.0000  0.0000  0.0000 </r>
       </set>
       <set comment="band 8">
        <r>  0.0000  0.1297  0.0377  0.0000  0.0000  0.0000  0.0000  0.0000  0.0000 </r>
        <r>  0.0000  0.0389  0.1283  0.0000  0.0000  0.0000  0.0000  0.0000  0.0000 </r>
       </set>
      </set>
      <set comment="kpoint 2">
       <set comment="band 1">
        <r>  0.1998  0.0000  0.0000  0.0309  0.0000  0.0000  0.0000  0.0000  0.0000 </r>
        <r>  0.1998  0.0000  0.0000  0.0309  0.0000  0.0000  0.0000  0.0000  0.0000 </r>
       </set>
       <set comment="band 2">
        <r>  0.1846  0.0000  0.0000  0.0631  0.0000  0.0000  0.0000  0.0000  0.0000 </r>
        <r>  0.1846  0.0000  0.0000  0.0631  0.0000  0.0000  0.0000  0.0000  0.0000 </r>
       </set>
       <set comment="band 3">
        <r>  0.0000  0.1018  0.0963  0.0000  0.0000  0.0000  0.0000  0.0000  0.0000 </r>
        <r>  0.0000  0.0962  0.1018  0.0000  0.0000  0.0000  0.0000  0.0000  0.0000 </r>
       </set>
       <set comment="band 4">
        <r>  0.0000  0.0963  0.1018  0.0000  0.0000  0.0000  0.0000  0.0000  0.0000 </r>
        <r>  0.0000  0.1018  0.0962  0.0000  0.0000  0.0000  0.0000  0.0000  0.0000 </r>
       </set>
       <set comment="band 5">
        <r>  0.0532  0.0000  0.0000  0.0454  0.0000  0.0000  0.0000  0.0000  0.0000 </r>
        <r>  0.0532  0.0000  0.0000  0.0454  0.0000  0.0000  0.0000  0.0000  0.0000 </r>
       </set>
       <set comment="band 6">
        <r>  0.0470  0.0000  0.0000  0.0304  0.0000  0.0000  0.0000  0.0000  0.0000 </r>
        <r>  0.0470  0.0000  0.0000  0.0304  0.0000  0.0000  0.0000  0.0000  0.0000 </r>
       </set>
       <set comment="band 7">
        <r>  0.0000  0.0315  0.1356  0.0000  0.0000  0.0000  0.0000  0.0000  0.0000 </r>
        <r>  0.0000  0.1147  0.0525  0.0000  0.0000  0.0000  0.0000  0.0000  0.0000 </r>
       </set>
       <set comment="band 8">
        <r>  0.0000  0.1357  0.0315  0.0000  0.0000  0.0000  0.0000  0.0000  0.0000 </r>
        <r>  0.0000  0.0526  0.1148  0.0000  0.0000  0.0000  0.0000  0.0000  0.0000 </r>
       </set>
      </set>
      <set comment="kpoint 3">
       <set comment="band 1">
        <r>  0.1997  0.0000  0.0000  0.0311  0.0000  0.0000  0.0000  0.0000  0.0000 </r>
        <r>  0.1997  0.0000  0.0000  0.0311  0.0000  0.0000  0.0000  0.0000  0.0000 </r>
       </set>
       <set comment="band 2">
        <r>  0.1848  0.0000  0.0000  0.0628  0.0000  0.0000  0.0000  0.0000  0.0000 </r>
        <r>  0.1848  0.0000  0.0000  0.0628  0.0000  0.0000  0.0000  0.0000  0.0000 </r>
       </set>
       <set comment="band 3">
        <r>  0.0000  0.1018  0.0963  0.0000  0.0000  0.0000  0.0000  0.0000  0.0000 </r>
        <r>  0.0000  0.0962  0.1019  0.0000  0.0000  0.0000  0.0000  0.0000  0.0000 </r>
       </set>
       <set comment="band 4">
        <r>  0.0000  0.0963  0.1018  0.0000  0.0000  0.0000  0.0000  0.0000  0.0000 </r>
        <r>  0.0000  0.1019  0.0962  0.0000  0.0000  0.0000  0.0000  0.0000  0.0000 </r>
       </set>
       <set comment="band 5">
        <r>  0.0532  0.0000  0.0000  0.0452  0.0000  0.0000  0.0000  0.0000  0.0000 </r>
        <r>  0.0532  0.0000  0.0000  0.0452  0.0000  0.0000  0.0000  0.0000  0.0000 </r>
       </set>
       <set comment="band 6">
        <r>  0.0471  0.0000  0.0000  0.0304  0.0000  0.0000  0.0000  0.0000  0.0000 </r>
        <r>  0.0471  0.0000  0.0000  0.0304  0.0000  0.0000  0.0000  0.0000  0.0000 </r>
       </set>
       <set comment="band 7">
        <r>  0.0000  0.1562  0.0111  0.0000  0.0000  0.0000  0.0000  0.0000  0.0000 </r>
        <r>  0.0000  0.0314  0.1359  0.0000  0.0000  0.0000  0.0000  0.0000  0.0000 </r>
       </set>
       <set comment="band 8">
        <r>  0.0000  0.0111  0.1561  0.0000  0.0000  0.0000  0.0000  0.0000  0.0000 </r>
        <r>  0.0000  0.1359  0.0314  0.0000  0.0000  0.0000  0.0000  0.0000  0.0000 </r>
       </set>
      </set>
      <set comment="kpoint 4">
       <set comment="band 1">
        <r>  0.1997  0.0000  0.0000  0.0312  0.0000  0.0000  0.0000  0.0000  0.0000 </r>
        <r>  0.1997  0.0000  0.0000  0.0312  0.0000  0.0000  0.0000  0.0000  0.0000 </r>
       </set>
       <set comment="band 2">
        <r>  0.1849  0.0000  0.0000  0.0626  0.0000  0.0000  0.0000  0.0000  0.0000 </r>
        <r>  0.1849  0.0000  0.0000  0.0626  0.0000  0.0000  0.0000  0.0000  0.0000 </r>
       </set>
       <set comment="band 3">
        <r>  0.0000  0.1018  0.0963  0.0000  0.0000  0.0000  0.0000  0.0000  0.0000 </r>
        <r>  0.0000  0.0962  0.1019  0.0000  0.0000  0.0000  0.0000  0.0000  0.0000 </r>
       </set>
       <set comment="band 4">
        <r>  0.0000  0.0963  0.1018  0.0000  0.0000  0.0000  0.0000  0.0000  0.0000 </r>
        <r>  0.0000  0.1019  0.0962  0.0000  0.0000  0.0000  0.0000  0.0000  0.0000 </r>
       </set>
       <set comment="band 5">
        <r>  0.0533  0.0000  0.0000  0.0450  0.0000  0.0000  0.0000  0.0000  0.0000 </r>
        <r>  0.0533  0.0000  0.0000  0.0450  0.0000  0.0000  0.0000  0.0000  0.0000 </r>
       </set>
       <set comment="band 6">
        <r>  0.0471  0.0000  0.0000  0.0304  0.0000  0.0000  0.0000  0.0000  0.0000 </r>
        <r>  0.0471  0.0000  0.0000  0.0304  0.0000  0.0000  0.0000  0.0000  0.0000 </r>
       </set>
       <set comment="band 7">
        <r>  0.0000  0.0574  0.1101  0.0000  0.0000  0.0000  0.0000  0.0000  0.0000 </r>
        <r>  0.0000  0.0941  0.0733  0.0000  0.0000  0.0000  0.0000  0.0000  0.0000 </r>
       </set>
       <set comment="band 8">
        <r>  0.0000  0.1101  0.0574  0.0000  0.0000  0.0000  0.0000  0.0000  0.0000 </r>
        <r>  0.0000  0.0734  0.0941  0.0000  0.0000  0.0000  0.0000  0.0000  0.0000 </r>
       </set>
      </set>
      <set comment="kpoint 5">
       <set comment="band 1">
        <r>  0.1996  0.0000  0.0000  0.0314  0.0000  0.0000  0.0000  0.0000  0.0000 </r>
        <r>  0.1996  0.0000  0.0000  0.0314  0.0000  0.0000  0.0000  0.0000  0.0000 </r>
       </set>
       <set comment="band 2">
        <r>  0.1850  0.0000  0.0000  0.0624  0.0000  0.0000  0.0000  0.0000  0.0000 </r>
        <r>  0.1850  0.0000  0.0000  0.0624  0.0000  0.0000  0.0000  0.0000  0.0000 </r>
       </set>
       <set comment="band 3">
        <r>  0.0000  0.1018  0.0963  0.0000  0.0000  0.0000  0.0000  0.0000  0.0000 </r>
        <r>  0.0000  0.0962  0.1019  0.0000  0.0000  0.0000  0.0000  0.0000  0.0000 </r>
       </set>
       <set comment="band 4">
        <r>  0.0000  0.0963  0.1018  0.0000  0.0000  0.0000  0.0000  0.0000  0.0000 </r>
        <r>  0.0000  0.1019  0.0962  0.0000  0.0000  0.0000  0.0000  0.0000  0.0000 </r>
       </set>
       <set comment="band 5">
        <r>  0.0533  0.0000  0.0000  0.0449  0.0000  0.0000  0.0000  0.0000  0.0000 </r>
        <r>  0.0533  0.0000  0.0000  0.0449  0.0000  0.0000  0.0000  0.0000  0.0000 </r>
       </set>
       <set comment="band 6">
        <r>  0.0472  0.0000  0.0000  0.0305  0.0000  0.0000  0.0000  0.0000  0.0000 </r>
        <r>  0.0472  0.0000  0.0000  0.0305  0.0000  0.0000  0.0000  0.0000  0.0000 </r>
       </set>
       <set comment="band 7">
        <r>  0.0000  0.1619  0.0057  0.0000  0.0000  0.0000  0.0000  0.0000  0.0000 </r>
        <r>  0.0000  0.0023  0.1653  0.0000  0.0000  0.0000  0.0000  0.0000  0.0000 </r>
       </set>
       <set comment="band 8">
        <r>  0.0000  0.0057  0.1619  0.0000  0.0000  0.0000  0.0000  0.0000  0.0000 </r>
        <r>  0.0000  0.1653  0.0023  0.0000  0.0000  0.0000  0.0000  0.0000  0.0000 </r>
       </set>
      </set>
      <set comment="kpoint 6">
       <set comment="band 1">
        <r>  0.1995  0.0000  0.0000  0.0316  0.0000  0.0000  0.0000  0.0000  0.0000 </r>
        <r>  0.1995  0.0000  0.0000  0.0316  0.0000  0.0000  0.0000  0.0000  0.0000 </r>
       </set>
       <set comment="band 2">
        <r>  0.1852  0.0000  0.0000  0.0621  0.0000  0.0000  0.0000  0.0000  0.0000 </r>
        <r>  0.1852  0.0000  0.0000  0.0621  0.0000  0.0000  0.0000  0.0000  0.0000 </r>
       </set>
       <set comment="band 3">
        <r>  0.0000  0.1018  0.0963  0.0000  0.0000  0.0000  0.0000  0.0000  0.0000 </r>
        <r>  0.0000  0.0962  0.1019  0.0000  0.0000  0.0000  0.0000  0.0000  0.0000 </r>
       </set>
       <set comment="band 4">
        <r>  0.0000  0.0963  0.1018  0.0000  0.0000  0.0000  0.0000  0.0000  0.0000 </r>
        <r>  0.0000  0.1019  0.0962  0.0000  0.0000  0.0000  0.0000  0.0000  0.0000 </r>
       </set>
       <set comment="band 5">
        <r>  0.0533  0.0000  0.0000  0.0447  0.0000  0.0000  0.0000  0.0000  0.0000 </r>
        <r>  0.0533  0.0000  0.0000  0.0447  0.0000  0.0000  0.0000  0.0000  0.0000 </r>
       </set>
       <set comment="band 6">
        <r>  0.0473  0.0000  0.0000  0.0305  0.0000  0.0000  0.0000  0.0000  0.0000 </r>
        <r>  0.0473  0.0000  0.0000  0.0305  0.0000  0.0000  0.0000  0.0000  0.0000 </r>
       </set>
       <set comment="band 7">
        <r>  0.0000  0.0552  0.1125  0.0000  0.0000  0.0000  0.0000  0.0000  0.0000 </r>
        <r>  0.0000  0.0724  0.0953  0.0000  0.0000  0.0000  0.0000  0.0000  0.0000 </r>
       </set>
       <set comment="band 8">
        <r>  0.0000  0.1125  0.0553  0.0000  0.0000  0.0000  0.0000  0.0000  0.0000 </r>
        <r>  0.0000  0.0953  0.0724  0.0000  0.0000  0.0000  0.0000  0.0000  0.0000 </r>
       </set>
      </set>
      <set comment="kpoint 7">
       <set comment="band 1">
        <r>  0.1995  0.0000  0.0000  0.0317  0.0000  0.0000  0.0000  0.0000  0.0000 </r>
        <r>  0.1995  0.0000  0.0000  0.0317  0.0000  0.0000  0.0000  0.0000  0.0000 </r>
       </set>
       <set comment="band 2">
        <r>  0.1853  0.0000  0.0000  0.0619  0.0000  0.0000  0.0000  0.0000  0.0000 </r>
        <r>  0.1853  0.0000  0.0000  0.0619  0.0000  0.0000  0.0000  0.0000  0.0000 </r>
       </set>
       <set comment="band 3">
        <r>  0.0000  0.1018  0.0962  0.0000  0.0000  0.0000  0.0000  0.0000  0.0000 </r>
        <r>  0.0000  0.0962  0.1018  0.0000  0.0000  0.0000  0.0000  0.0000  0.0000 </r>
       </set>
       <set comment="band 4">
        <r>  0.0000  0.0962  0.1018  0.0000  0.0000  0.0000  0.0000  0.0000  0.0000 </r>
        <r>  0.0000  0.1018  0.0962  0.0000  0.0000  0.0000  0.0000  0.0000  0.0000 </r>
       </set>
       <set comment="band 5">
        <r>  0.0533  0.0000  0.0000  0.0446  0.0000  0.0000  0.0000  0.0000  0.0000 </r>
        <r>  0.0533  0.0000  0.0000  0.0446  0.0000  0.0000  0.0000  0.0000  0.0000 </r>
       </set>
       <set comment="band 6">
        <r>  0.0473  0.0000  0.0000  0.0305  0.0000  0.0000  0.0000  0.0000  0.0000 </r>
        <r>  0.0473  0.0000  0.0000  0.0305  0.0000  0.0000  0.0000  0.0000  0.0000 </r>
       </set>
       <set comment="band 7">
        <r>  0.0000  0.0966  0.0715  0.0000  0.0000  0.0000  0.0000  0.0000  0.0000 </r>
        <r>  0.0000  0.0277  0.1404  0.0000  0.0000  0.0000  0.0000  0.0000  0.0000 </r>
       </set>
       <set comment="band 8">
        <r>  0.0000  0.0715  0.0966  0.0000  0.0000  0.0000  0.0000  0.0000  0.0000 </r>
        <r>  0.0000  0.1403  0.0278  0.0000  0.0000  0.0000  0.0000  0.0000  0.0000 </r>
       </set>
      </set>
      <set comment="kpoint 8">
       <set comment="band 1">
        <r>  0.1994  0.0000  0.0000  0.0319  0.0000  0.0000  0.0000  0.0000  0.0000 </r>
        <r>  0.1994  0.0000  0.0000  0.0319  0.0000  0.0000  0.0000  0.0000  0.0000 </r>
       </set>
       <set comment="band 2">
        <r>  0.1854  0.0000  0.0000  0.0617  0.0000  0.0000  0.0000  0.0000  0.0000 </r>
        <r>  0.1854  0.0000  0.0000  0.0617  0.0000  0.0000  0.0000  0.0000  0.0000 </r>
       </set>
       <set comment="band 3">
        <r>  0.0000  0.1018  0.0962  0.0000  0.0000  0.0000  0.0000  0.0000  0.0000 </r>
        <r>  0.0000  0.0962  0.1018  0.0000  0.0000  0.0000  0.0000  0.0000  0.0000 </r>
       </set>
       <set comment="band 4">
        <r>  0.0000  0.0962  0.1018  0.0000  0.0000  0.0000  0.0000  0.0000  0.0000 </r>
        <r>  0.0000  0.1018  0.0962  0.0000  0.0000  0.0000  0.0000  0.0000  0.0000 </r>
       </set>
       <set comment="band 5">
        <r>  0.0533  0.0000  0.0000  0.0444  0.0000  0.0000  0.0000  0.0000  0.0000 </r>
        <r>  0.0533  0.0000  0.0000  0.0444  0.0000  0.0000  0.0000  0.0000  0.0000 </r>
       </set>
       <set comment="band 6">
        <r>  0.0474  0.0000  0.0000  0.0306  0.0000  0.0000  0.0000  0.0000  0.0000 </r>
        <r>  0.0474  0.0000  0.0000  0.0306  0.0000  0.0000  0.0000  0.0000  0.0000 </r>
       </set>
       <set comment="band 7">
        <r>  0.0000  0.0244  0.1438  0.0000  0.0000  0.0000  0.0000  0.0000  0.0000 </r>
        <r>  0.0000  0.1026  0.0656  0.0000  0.0000  0.0000  0.0000  0.0000  0.0000 </r>
       </set>
       <set comment="band 8">
        <r>  0.0000  0.1438  0.0244  0.0000  0.0000  0.0000  0.0000  0.0000  0.0000 </r>
        <r>  0.0000  0.0656  0.1026  0.0000  0.0000  0.0000  0.0000  0.0000  0.0000 </r>
       </set>
      </set>
      <set comment="kpoint 9">
       <set comment="band 1">
        <r>  0.1993  0.0000  0.0000  0.0321  0.0000  0.0000  0.0000  0.0000  0.0000 </r>
        <r>  0.1993  0.0000  0.0000  0.0321  0.0000  0.0000  0.0000  0.0000  0.0000 </r>
       </set>
       <set comment="band 2">
        <r>  0.1856  0.0000  0.0000  0.0614  0.0000  0.0000  0.0000  0.0000  0.0000 </r>
        <r>  0.1856  0.0000  0.0000  0.0614  0.0000  0.0000  0.0000  0.0000  0.0000 </r>
       </set>
       <set comment="band 3">
        <r>  0.0000  0.1018  0.0962  0.0000  0.0000  0.0000  0.0000  0.0000  0.0000 </r>
        <r>  0.0000  0.0962  0.1018  0.0000  0.0000  0.0000  0.0000  0.0000  0.0000 </r>
       </set>
       <set comment="band 4">
        <r>  0.0000  0.0962  0.1018  0.0000  0.0000  0.0000  0.0000  0.0000  0.0000 </r>
        <r>  0.0000  0.1018  0.0962  0.0000  0.0000  0.0000  0.0000  0.0000  0.0000 </r>
       </set>
       <set comment="band 5">
        <r>  0.0533  0.0000  0.0000  0.0442  0.0000  0.0000  0.0000  0.0000  0.0000 </r>
        <r>  0.0533  0.0000  0.0000  0.0442  0.0000  0.0000  0.0000  0.0000  0.0000 </r>
       </set>
       <set comment="band 6">
        <r>  0.0475  0.0000  0.0000  0.0306  0.0000  0.0000  0.0000  0.0000  0.0000 </r>
        <r>  0.0475  0.0000  0.0000  0.0306  0.0000  0.0000  0.0000  0.0000  0.0000 </r>
       </set>
       <set comment="band 7">
        <r>  0.0000  0.1264  0.0420  0.0000  0.0000  0.0000  0.0000  0.0000  0.0000 </r>
        <r>  0.0000  0.0716  0.0968  0.0000  0.0000  0.0000  0.0000  0.0000  0.0000 </r>
       </set>
       <set comment="band 8">
        <r>  0.0000  0.0419  0.1265  0.0000  0.0000  0.0000  0.0000  0.0000  0.0000 </r>
        <r>  0.0000  0.0969  0.0716  0.0000  0.0000  0.0000  0.0000  0.0000  0.0000 </r>
       </set>
      </set>
      <set comment="kpoint 10">
       <set comment="band 1">
        <r>  0.1992  0.0000  0.0000  0.0322  0.0000  0.0000  0.0000  0.0000  0.0000 </r>
        <r>  0.1992  0.0000  0.0000  0.0322  0.0000  0.0000  0.0000  0.0000  0.0000 </r>
       </set>
       <set comment="band 2">
        <r>  0.1857  0.0000  0.0000  0.0612  0.0000  0.0000  0.0000  0.0000  0.0000 </r>
        <r>  0.1857  0.0000  0.0000  0.0612  0.0000  0.0000  0.0000  0.0000  0.0000 </r>
       </set>
       <set comment="band 3">
        <r>  0.0000  0.1018  0.0962  0.0000  0.0000  0.0000  0.0000  0.0000  0.0000 </r>
        <r>  0.0000  0.0962  0.1018  0.0000  0.0000  0.0000  0.0000  0.0000  0.0000 </r>
       </set>
       <set comment="band 4">
        <r>  0.0000  0.0962  0.1018  0.0000  0.0000  0.0000  0.0000  0.0000  0.0000 </r>
        <r>  0.0000  0.1018  0.0962  0.0000  0.0000  0.0000  0.0000  0.0000  0.0000 </r>
       </set>
       <set comment="band 5">
        <r>  0.0533  0.0000  0.0000  0.0441  0.0000  0.0000  0.0000  0.0000  0.0000 </r>
        <r>  0.0533  0.0000  0.0000  0.0441  0.0000  0.0000  0.0000  0.0000  0.0000 </r>
       </set>
       <set comment="band 6">
        <r>  0.0475  0.0000  0.0000  0.0306  0.0000  0.0000  0.0000  0.0000  0.0000 </r>
        <r>  0.0475  0.0000  0.0000  0.0306  0.0000  0.0000  0.0000  0.0000  0.0000 </r>
       </set>
       <set comment="band 7">
        <r>  0.0000  0.1038  0.0648  0.0000  0.0000  0.0000  0.0000  0.0000  0.0000 </r>
        <r>  0.0000  0.0707  0.0979  0.0000  0.0000  0.0000  0.0000  0.0000  0.0000 </r>
       </set>
       <set comment="band 8">
        <r>  0.0000  0.0648  0.1038  0.0000  0.0000  0.0000  0.0000  0.0000  0.0000 </r>
        <r>  0.0000  0.0979  0.0707  0.0000  0.0000  0.0000  0.0000  0.0000  0.0000 </r>
       </set>
      </set>
      <set comment="kpoint 11">
       <set comment="band 1">
        <r>  0.1992  0.0000  0.0000  0.0324  0.0000  0.0000  0.0000  0.0000  0.0000 </r>
        <r>  0.1992  0.0000  0.0000  0.0324  0.0000  0.0000  0.0000  0.0000  0.0000 </r>
       </set>
       <set comment="band 2">
        <r>  0.1858  0.0000  0.0000  0.0610  0.0000  0.0000  0.0000  0.0000  0.0000 </r>
        <r>  0.1858  0.0000  0.0000  0.0610  0.0000  0.0000  0.0000  0.0000  0.0000 </r>
       </set>
       <set comment="band 3">
        <r>  0.0000  0.1018  0.0962  0.0000  0.0000  0.0000  0.0000  0.0000  0.0000 </r>
        <r>  0.0000  0.0962  0.1018  0.0000  0.0000  0.0000  0.0000  0.0000  0.0000 </r>
       </set>
       <set comment="band 4">
        <r>  0.0000  0.0962  0.1018  0.0000  0.0000  0.0000  0.0000  0.0000  0.0000 </r>
        <r>  0.0000  0.1018  0.0962  0.0000  0.0000  0.0000  0.0000  0.0000  0.0000 </r>
       </set>
       <set comment="band 5">
        <r>  0.0533  0.0000  0.0000  0.0439  0.0000  0.0000  0.0000  0.0000  0.0000 </r>
        <r>  0.0533  0.0000  0.0000  0.0439  0.0000  0.0000  0.0000  0.0000  0.0000 </r>
       </set>
       <set comment="band 6">
        <r>  0.0476  0.0000  0.0000  0.0306  0.0000  0.0000  0.0000  0.0000  0.0000 </r>
        <r>  0.0476  0.0000  0.0000  0.0306  0.0000  0.0000  0.0000  0.0000  0.0000 </r>
       </set>
       <set comment="band 7">
        <r>  0.0000  0.1388  0.0300  0.0000  0.0000  0.0000  0.0000  0.0000  0.0000 </r>
        <r>  0.0000  0.0170  0.1518  0.0000  0.0000  0.0000  0.0000  0.0000  0.0000 </r>
       </set>
       <set comment="band 8">
        <r>  0.0000  0.0299  0.1388  0.0000  0.0000  0.0000  0.0000  0.0000  0.0000 </r>
        <r>  0.0000  0.1518  0.0170  0.0000  0.0000  0.0000  0.0000  0.0000  0.0000 </r>
       </set>
      </set>
      <set comment="kpoint 12">
       <set comment="band 1">
        <r>  0.1991  0.0000  0.0000  0.0326  0.0000  0.0000  0.0000  0.0000  0.0000 </r>
        <r>  0.1991  0.0000  0.0000  0.0326  0.0000  0.0000  0.0000  0.0000  0.0000 </r>
       </set>
       <set comment="band 2">
        <r>  0.1860  0.0000  0.0000  0.0608  0.0000  0.0000  0.0000  0.0000  0.0000 </r>
        <r>  0.1860  0.0000  0.0000  0.0608  0.0000  0.0000  0.0000  0.0000  0.0000 </r>
       </set>
       <set comment="band 3">
        <r>  0.0000  0.1018  0.0962  0.0000  0.0000  0.0000  0.0000  0.0000  0.0000 </r>
        <r>  0.0000  0.0962  0.1018  0.0000  0.0000  0.0000  0.0000  0.0000  0.0000 </r>
       </set>
       <set comment="band 4">
        <r>  0.0000  0.0962  0.1018  0.0000  0.0000  0.0000  0.0000  0.0000  0.0000 </r>
        <r>  0.0000  0.1018  0.0962  0.0000  0.0000  0.0000  0.0000  0.0000  0.0000 </r>
       </set>
       <set comment="band 5">
        <r>  0.0533  0.0000  0.0000  0.0438  0.0000  0.0000  0.0000  0.0000  0.0000 </r>
        <r>  0.0533  0.0000  0.0000  0.0438  0.0000  0.0000  0.0000  0.0000  0.0000 </r>
       </set>
       <set comment="band 6">
        <r>  0.0477  0.0000  0.0000  0.0306  0.0000  0.0000  0.0000  0.0000  0.0000 </r>
        <r>  0.0477  0.0000  0.0000  0.0306  0.0000  0.0000  0.0000  0.0000  0.0000 </r>
       </set>
       <set comment="band 7">
        <r>  0.0000  0.0239  0.1452  0.0000  0.0000  0.0000  0.0000  0.0000  0.0000 </r>
        <r>  0.0000  0.1067  0.0625  0.0000  0.0000  0.0000  0.0000  0.0000  0.0000 </r>
       </set>
       <set comment="band 8">
        <r>  0.0000  0.1452  0.0240  0.0000  0.0000  0.0000  0.0000  0.0000  0.0000 </r>
        <r>  0.0000  0.0625  0.1067  0.0000  0.0000  0.0000  0.0000  0.0000  0.0000 </r>
       </set>
      </set>
      <set comment="kpoint 13">
       <set comment="band 1">
        <r>  0.1990  0.0000  0.0000  0.0328  0.0000  0.0000  0.0000  0.0000  0.0000 </r>
        <r>  0.1990  0.0000  0.0000  0.0328  0.0000  0.0000  0.0000  0.0000  0.0000 </r>
       </set>
       <set comment="band 2">
        <r>  0.1861  0.0000  0.0000  0.0605  0.0000  0.0000  0.0000  0.0000  0.0000 </r>
        <r>  0.1861  0.0000  0.0000  0.0605  0.0000  0.0000  0.0000  0.0000  0.0000 </r>
       </set>
       <set comment="band 3">
        <r>  0.0000  0.1018  0.0962  0.0000  0.0000  0.0000  0.0000  0.0000  0.0000 </r>
        <r>  0.0000  0.0962  0.1018  0.0000  0.0000  0.0000  0.0000  0.0000  0.0000 </r>
       </set>
       <set comment="band 4">
        <r>  0.0000  0.0962  0.1018  0.0000  0.0000  0.0000  0.0000  0.0000  0.0000 </r>
        <r>  0.0000  0.1018  0.0962  0.0000  0.0000  0.0000  0.0000  0.0000  0.0000 </r>
       </set>
       <set comment="band 5">
        <r>  0.0533  0.0000  0.0000  0.0436  0.0000  0.0000  0.0000  0.0000  0.0000 </r>
        <r>  0.0533  0.0000  0.0000  0.0436  0.0000  0.0000  0.0000  0.0000  0.0000 </r>
       </set>
       <set comment="band 6">
        <r>  0.0477  0.0000  0.0000  0.0307  0.0000  0.0000  0.0000  0.0000  0.0000 </r>
        <r>  0.0477  0.0000  0.0000  0.0307  0.0000  0.0000  0.0000  0.0000  0.0000 </r>
       </set>
       <set comment="band 7">
        <r>  0.0000  0.0092  0.1602  0.0000  0.0000  0.0000  0.0000  0.0000  0.0000 </r>
        <r>  0.0000  0.1312  0.0382  0.0000  0.0000  0.0000  0.0000  0.0000  0.0000 </r>
       </set>
       <set comment="band 8">
        <r>  0.0000  0.1601  0.0091  0.0000  0.0000  0.0000  0.0000  0.0000  0.0000 </r>
        <r>  0.0000  0.0382  0.1312  0.0000  0.0000  0.0000  0.0000  0.0000  0.0000 </r>
       </set>
      </set>
      <set comment="kpoint 14">
       <set comment="band 1">
        <r>  0.1989  0.0000  0.0000  0.0329  0.0000  0.0000  0.0000  0.0000  0.0000 </r>
        <r>  0.1989  0.0000  0.0000  0.0329  0.0000  0.0000  0.0000  0.0000  0.0000 </r>
       </set>
       <set comment="band 2">
        <r>  0.1862  0.0000  0.0000  0.0603  0.0000  0.0000  0.0000  0.0000  0.0000 </r>
        <r>  0.1862  0.0000  0.0000  0.0603  0.0000  0.0000  0.0000  0.0000  0.0000 </r>
       </set>
       <set comment="band 3">
        <r>  0.0000  0.1018  0.0962  0.0000  0.0000  0.0000  0.0000  0.0000  0.0000 </r>
        <r>  0.0000  0.0962  0.1018  0.0000  0.0000  0.0000  0.0000  0.0000  0.0000 </r>
       </set>
       <set comment="band 4">
        <r>  0.0000  0.0962  0.1018  0.0000  0.0000  0.0000  0.0000  0.0000  0.0000 </r>
        <r>  0.0000  0.1018  0.0962  0.0000  0.0000  0.0000  0.0000  0.0000  0.0000 </r>
       </set>
       <set comment="band 5">
        <r>  0.0533  0.0000  0.0000  0.0434  0.0000  0.0000  0.0000  0.0000  0.0000 </r>
        <r>  0.0533  0.0000  0.0000  0.0434  0.0000  0.0000  0.0000  0.0000  0.0000 </r>
       </set>
       <set comment="band 6">
        <r>  0.0478  0.0000  0.0000  0.0307  0.0000  0.0000  0.0000  0.0000  0.0000 </r>
        <r>  0.0478  0.0000  0.0000  0.0307  0.0000  0.0000  0.0000  0.0000  0.0000 </r>
       </set>
       <set comment="band 7">
        <r>  0.0000  0.1507  0.0189  0.0000  0.0000  0.0000  0.0000  0.0000  0.0000 </r>
        <r>  0.0000  0.0580  0.1115  0.0000  0.0000  0.0000  0.0000  0.0000  0.0000 </r>
       </set>
       <set comment="band 8">
        <r>  0.0000  0.0188  0.1506  0.0000  0.0000  0.0000  0.0000  0.0000  0.0000 </r>
        <r>  0.0000  0.1115  0.0581  0.0000  0.0000  0.0000  0.0000  0.0000  0.0000 </r>
       </set>
      </set>
      <set comment="kpoint 15">
       <set comment="band 1">
        <r>  0.1989  0.0000  0.0000  0.0331  0.0000  0.0000  0.0000  0.0000  0.0000 </r>
        <r>  0.1989  0.0000  0.0000  0.0331  0.0000  0.0000  0.0000  0.0000  0.0000 </r>
       </set>
       <set comment="band 2">
        <r>  0.1863  0.0000  0.0000  0.0601  0.0000  0.0000  0.0000  0.0000  0.0000 </r>
        <r>  0.1863  0.0000  0.0000  0.0601  0.0000  0.0000  0.0000  0.0000  0.0000 </r>
       </set>
       <set comment="band 3">
        <r>  0.0000  0.1018  0.0962  0.0000  0.0000  0.0000  0.0000  0.0000  0.0000 </r>
        <r>  0.0000  0.0962  0.1018  0.0000  0.0000  0.0000  0.0000  0.0000  0.0000 </r>
       </set>
       <set comment="band 4">
        <r>  0.0000  0.0962  0.1018  0.0000  0.0000  0.0000  0.0000  0.0000  0.0000 </r>
        <r>  0.0000  0.1018  0.0962  0.0000  0.0000  0.0000  0.0000  0.0000  0.0000 </r>
       </set>
       <set comment="band 5">
        <r>  0.0533  0.0000  0.0000  0.0433  0.0000  0.0000  0.0000  0.0000  0.0000 </r>
        <r>  0.0533  0.0000  0.0000  0.0433  0.0000  0.0000  0.0000  0.0000  0.0000 </r>
       </set>
       <set comment="band 6">
        <r>  0.0479  0.0000  0.0000  0.0307  0.0000  0.0000  0.0000  0.0000  0.0000 </r>
        <r>  0.0479  0.0000  0.0000  0.0307  0.0000  0.0000  0.0000  0.0000  0.0000 </r>
       </set>
       <set comment="band 7">
        <r>  0.0000  0.1011  0.0687  0.0000  0.0000  0.0000  0.0000  0.0000  0.0000 </r>
        <r>  0.0000  0.0830  0.0868  0.0000  0.0000  0.0000  0.0000  0.0000  0.0000 </r>
       </set>
       <set comment="band 8">
        <r>  0.0000  0.0687  0.1011  0.0000  0.0000  0.0000  0.0000  0.0000  0.0000 </r>
        <r>  0.0000  0.0868  0.0831  0.0000  0.0000  0.0000  0.0000  0.0000  0.0000 </r>
       </set>
      </set>
      <set comment="kpoint 16">
       <set comment="band 1">
        <r>  0.1988  0.0000  0.0000  0.0333  0.0000  0.0000  0.0000  0.0000  0.0000 </r>
        <r>  0.1988  0.0000  0.0000  0.0333  0.0000  0.0000  0.0000  0.0000  0.0000 </r>
       </set>
       <set comment="band 2">
        <r>  0.1865  0.0000  0.0000  0.0598  0.0000  0.0000  0.0000  0.0000  0.0000 </r>
        <r>  0.1865  0.0000  0.0000  0.0598  0.0000  0.0000  0.0000  0.0000  0.0000 </r>
       </set>
       <set comment="band 3">
        <r>  0.0000  0.1018  0.0962  0.0000  0.0000  0.0000  0.0000  0.0000  0.0000 </r>
        <r>  0.0000  0.0962  0.1018  0.0000  0.0000  0.0000  0.0000  0.0000  0.0000 </r>
       </set>
       <set comment="band 4">
        <r>  0.0000  0.0962  0.1018  0.0000  0.0000  0.0000  0.0000  0.0000  0.0000 </r>
        <r>  0.0000  0.1018  0.0962  0.0000  0.0000  0.0000  0.0000  0.0000  0.0000 </r>
       </set>
       <set comment="band 5">
        <r>  0.0533  0.0000  0.0000  0.0431  0.0000  0.0000  0.0000  0.0000  0.0000 </r>
        <r>  0.0533  0.0000  0.0000  0.0431  0.0000  0.0000  0.0000  0.0000  0.0000 </r>
       </set>
       <set comment="band 6">
        <r>  0.0479  0.0000  0.0000  0.0308  0.0000  0.0000  0.0000  0.0000  0.0000 </r>
        <r>  0.0479  0.0000  0.0000  0.0308  0.0000  0.0000  0.0000  0.0000  0.0000 </r>
       </set>
       <set comment="band 7">
        <r>  0.0000  0.1313  0.0387  0.0000  0.0000  0.0000  0.0000  0.0000  0.0000 </r>
        <r>  0.0000  0.0511  0.1189  0.0000  0.0000  0.0000  0.0000  0.0000  0.0000 </r>
       </set>
       <set comment="band 8">
        <r>  0.0000  0.0387  0.1313  0.0000  0.0000  0.0000  0.0000  0.0000  0.0000 </r>
        <r>  0.0000  0.1189  0.0511  0.0000  0.0000  0.0000  0.0000  0.0000  0.0000 </r>
       </set>
      </set>
      <set comment="kpoint 17">
       <set comment="band 1">
        <r>  0.1987  0.0000  0.0000  0.0335  0.0000  0.0000  0.0000  0.0000  0.0000 </r>
        <r>  0.1987  0.0000  0.0000  0.0335  0.0000  0.0000  0.0000  0.0000  0.0000 </r>
       </set>
       <set comment="band 2">
        <r>  0.1866  0.0000  0.0000  0.0596  0.0000  0.0000  0.0000  0.0000  0.0000 </r>
        <r>  0.1866  0.0000  0.0000  0.0596  0.0000  0.0000  0.0000  0.0000  0.0000 </r>
       </set>
       <set comment="band 3">
        <r>  0.0000  0.1018  0.0962  0.0000  0.0000  0.0000  0.0000  0.0000  0.0000 </r>
        <r>  0.0000  0.0962  0.1018  0.0000  0.0000  0.0000  0.0000  0.0000  0.0000 </r>
       </set>
       <set comment="band 4">
        <r>  0.0000  0.0962  0.1018  0.0000  0.0000  0.0000  0.0000  0.0000  0.0000 </r>
        <r>  0.0000  0.1018  0.0962  0.0000  0.0000  0.0000  0.0000  0.0000  0.0000 </r>
       </set>
       <set comment="band 5">
        <r>  0.0533  0.0000  0.0000  0.0430  0.0000  0.0000  0.0000  0.0000  0.0000 </r>
        <r>  0.0533  0.0000  0.0000  0.0430  0.0000  0.0000  0.0000  0.0000  0.0000 </r>
       </set>
       <set comment="band 6">
        <r>  0.0480  0.0000  0.0000  0.0308  0.0000  0.0000  0.0000  0.0000  0.0000 </r>
        <r>  0.0480  0.0000  0.0000  0.0308  0.0000  0.0000  0.0000  0.0000  0.0000 </r>
       </set>
       <set comment="band 7">
        <r>  0.0000  0.0205  0.1497  0.0000  0.0000  0.0000  0.0000  0.0000  0.0000 </r>
        <r>  0.0000  0.1153  0.0550  0.0000  0.0000  0.0000  0.0000  0.0000  0.0000 </r>
       </set>
       <set comment="band 8">
        <r>  0.0000  0.1497  0.0205  0.0000  0.0000  0.0000  0.0000  0.0000  0.0000 </r>
        <r>  0.0000  0.0549  0.1154  0.0000  0.0000  0.0000  0.0000  0.0000  0.0000 </r>
       </set>
      </set>
      <set comment="kpoint 18">
       <set comment="band 1">
        <r>  0.1986  0.0000  0.0000  0.0336  0.0000  0.0000  0.0000  0.0000  0.0000 </r>
        <r>  0.1986  0.0000  0.0000  0.0336  0.0000  0.0000  0.0000  0.0000  0.0000 </r>
       </set>
       <set comment="band 2">
        <r>  0.1867  0.0000  0.0000  0.0594  0.0000  0.0000  0.0000  0.0000  0.0000 </r>
        <r>  0.1867  0.0000  0.0000  0.0594  0.0000  0.0000  0.0000  0.0000  0.0000 </r>
       </set>
       <set comment="band 3">
        <r>  0.0000  0.1018  0.0962  0.0000  0.0000  0.0000  0.0000  0.0000  0.0000 </r>
        <r>  0.0000  0.0962  0.1018  0.0000  0.0000  0.0000  0.0000  0.0000  0.0000 </r>
       </set>
       <set comment="band 4">
        <r>  0.0000  0.0962  0.1018  0.0000  0.0000  0.0000  0.0000  0.0000  0.0000 </r>
        <r>  0.0000  0.1018  0.0962  0.0000  0.0000  0.0000  0.0000  0.0000  0.0000 </r>
       </set>
       <set comment="band 5">
        <r>  0.0533  0.0000  0.0000  0.0428  0.0000  0.0000  0.0000  0.0000  0.0000 </r>
        <r>  0.0533  0.0000  0.0000  0.0428  0.0000  0.0000  0.0000  0.0000  0.0000 </r>
       </set>
       <set comment="band 6">
        <r>  0.0481  0.0000  0.0000  0.0308  0.0000  0.0000  0.0000  0.0000  0.0000 </r>
        <r>  0.0481  0.0000  0.0000  0.0308  0.0000  0.0000  0.0000  0.0000  0.0000 </r>
       </set>
       <set comment="band 7">
        <r>  0.0000  0.0102  0.1604  0.0000  0.0000  0.0000  0.0000  0.0000  0.0000 </r>
        <r>  0.0000  0.1425  0.0281  0.0000  0.0000  0.0000  0.0000  0.0000  0.0000 </r>
       </set>
       <set comment="band 8">
        <r>  0.0000  0.1604  0.0102  0.0000  0.0000  0.0000  0.0000  0.0000  0.0000 </r>
        <r>  0.0000  0.0281  0.1425  0.0000  0.0000  0.0000  0.0000  0.0000  0.0000 </r>
       </set>
      </set>
      <set comment="kpoint 19">
       <set comment="band 1">
        <r>  0.1986  0.0000  0.0000  0.0338  0.0000  0.0000  0.0000  0.0000  0.0000 </r>
        <r>  0.1986  0.0000  0.0000  0.0338  0.0000  0.0000  0.0000  0.0000  0.0000 </r>
       </set>
       <set comment="band 2">
        <r>  0.1868  0.0000  0.0000  0.0591  0.0000  0.0000  0.0000  0.0000  0.0000 </r>
        <r>  0.1868  0.0000  0.0000  0.0591  0.0000  0.0000  0.0000  0.0000  0.0000 </r>
       </set>
       <set comment="band 3">
        <r>  0.0000  0.1018  0.0962  0.0000  0.0000  0.0000  0.0000  0.0000  0.0000 </r>
        <r>  0.0000  0.0962  0.1018  0.0000  0.0000  0.0000  0.0000  0.0000  0.0000 </r>
       </set>
       <set comment="band 4">
        <r>  0.0000  0.0962  0.1018  0.0000  0.0000  0.0000  0.0000  0.0000  0.0000 </r>
        <r>  0.0000  0.1018  0.0962  0.0000  0.0000  0.0000  0.0000  0.0000  0.0000 </r>
       </set>
       <set comment="band 5">
        <r>  0.0533  0.0000  0.0000  0.0427  0.0000  0.0000  0.0000  0.0000  0.0000 </r>
        <r>  0.0533  0.0000  0.0000  0.0427  0.0000  0.0000  0.0000  0.0000  0.0000 </r>
       </set>
       <set comment="band 6">
        <r>  0.0481  0.0000  0.0000  0.0309  0.0000  0.0000  0.0000  0.0000  0.0000 </r>
        <r>  0.0481  0.0000  0.0000  0.0309  0.0000  0.0000  0.0000  0.0000  0.0000 </r>
       </set>
       <set comment="band 7">
        <r>  0.0000  0.1026  0.0682  0.0000  0.0000  0.0000  0.0000  0.0000  0.0000 </r>
        <r>  0.0000  0.1150  0.0558  0.0000  0.0000  0.0000  0.0000  0.0000  0.0000 </r>
       </set>
       <set comment="band 8">
        <r>  0.0000  0.0682  0.1026  0.0000  0.0000  0.0000  0.0000  0.0000  0.0000 </r>
        <r>  0.0000  0.0558  0.1151  0.0000  0.0000  0.0000  0.0000  0.0000  0.0000 </r>
       </set>
      </set>
      <set comment="kpoint 20">
       <set comment="band 1">
        <r>  0.1985  0.0000  0.0000  0.0340  0.0000  0.0000  0.0000  0.0000  0.0000 </r>
        <r>  0.1985  0.0000  0.0000  0.0340  0.0000  0.0000  0.0000  0.0000  0.0000 </r>
       </set>
       <set comment="band 2">
        <r>  0.1869  0.0000  0.0000  0.0589  0.0000  0.0000  0.0000  0.0000  0.0000 </r>
        <r>  0.1869  0.0000  0.0000  0.0589  0.0000  0.0000  0.0000  0.0000  0.0000 </r>
       </set>
       <set comment="band 3">
        <r>  0.0000  0.1018  0.0962  0.0000  0.0000  0.0000  0.0000  0.0000  0.0000 </r>
        <r>  0.0000  0.0962  0.1018  0.0000  0.0000  0.0000  0.0000  0.0000  0.0000 </r>
       </set>
       <set comment="band 4">
        <r>  0.0000  0.0962  0.1018  0.0000  0.0000  0.0000  0.0000  0.0000  0.0000 </r>
        <r>  0.0000  0.1018  0.0962  0.0000  0.0000  0.0000  0.0000  0.0000  0.0000 </r>
       </set>
       <set comment="band 5">
        <r>  0.0533  0.0000  0.0000  0.0425  0.0000  0.0000  0.0000  0.0000  0.0000 </r>
        <r>  0.0533  0.0000  0.0000  0.0425  0.0000  0.0000  0.0000  0.0000  0.0000 </r>
       </set>
       <set comment="band 6">
        <r>  0.0482  0.0000  0.0000  0.0309  0.0000  0.0000  0.0000  0.0000  0.0000 </r>
        <r>  0.0482  0.0000  0.0000  0.0309  0.0000  0.0000  0.0000  0.0000  0.0000 </r>
       </set>
       <set comment="band 7">
        <r>  0.0000  0.1196  0.0515  0.0000  0.0000  0.0000  0.0000  0.0000  0.0000 </r>
        <r>  0.0000  0.0351  0.1360  0.0000  0.0000  0.0000  0.0000  0.0000  0.0000 </r>
       </set>
       <set comment="band 8">
        <r>  0.0000  0.0515  0.1196  0.0000  0.0000  0.0000  0.0000  0.0000  0.0000 </r>
        <r>  0.0000  0.1359  0.0352  0.0000  0.0000  0.0000  0.0000  0.0000  0.0000 </r>
       </set>
      </set>
      <set comment="kpoint 21">
       <set comment="band 1">
        <r>  0.1984  0.0000  0.0000  0.0342  0.0000  0.0000  0.0000  0.0000  0.0000 </r>
        <r>  0.1984  0.0000  0.0000  0.0342  0.0000  0.0000  0.0000  0.0000  0.0000 </r>
       </set>
       <set comment="band 2">
        <r>  0.1871  0.0000  0.0000  0.0587  0.0000  0.0000  0.0000  0.0000  0.0000 </r>
        <r>  0.1871  0.0000  0.0000  0.0587  0.0000  0.0000  0.0000  0.0000  0.0000 </r>
       </set>
       <set comment="band 3">
        <r>  0.0000  0.1018  0.0962  0.0000  0.0000  0.0000  0.0000  0.0000  0.0000 </r>
        <r>  0.0000  0.0962  0.1018  0.0000  0.0000  0.0000  0.0000  0.0000  0.0000 </r>
       </set>
       <set comment="band 4">
        <r>  0.0000  0.0962  0.1018  0.0000  0.0000  0.0000  0.0000  0.0000  0.0000 </r>
        <r>  0.0000  0.1018  0.0962  0.0000  0.0000  0.0000  0.0000  0.0000  0.0000 </r>
       </set>
       <set comment="band 5">
        <r>  0.0533  0.0000  0.0000  0.0424  0.0000  0.0000  0.0000  0.0000  0.0000 </r>
        <r>  0.0533  0.0000  0.0000  0.0424  0.0000  0.0000  0.0000  0.0000  0.0000 </r>
       </set>
       <set comment="band 6">
        <r>  0.0483  0.0000  0.0000  0.0310  0.0000  0.0000  0.0000  0.0000  0.0000 </r>
        <r>  0.0483  0.0000  0.0000  0.0310  0.0000  0.0000  0.0000  0.0000  0.0000 </r>
       </set>
       <set comment="band 7">
        <r>  0.0000  0.1492  0.0222  0.0000  0.0000  0.0000  0.0000  0.0000  0.0000 </r>
        <r>  0.0000  0.0353  0.1361  0.0000  0.0000  0.0000  0.0000  0.0000  0.0000 </r>
       </set>
       <set comment="band 8">
        <r>  0.0000  0.0222  0.1492  0.0000  0.0000  0.0000  0.0000  0.0000  0.0000 </r>
        <r>  0.0000  0.1362  0.0353  0.0000  0.0000  0.0000  0.0000  0.0000  0.0000 </r>
       </set>
      </set>
      <set comment="kpoint 22">
       <set comment="band 1">
        <r>  0.1983  0.0000  0.0000  0.0343  0.0000  0.0000  0.0000  0.0000  0.0000 </r>
        <r>  0.1983  0.0000  0.0000  0.0343  0.0000  0.0000  0.0000  0.0000  0.0000 </r>
       </set>
       <set comment="band 2">
        <r>  0.1872  0.0000  0.0000  0.0585  0.0000  0.0000  0.0000  0.0000  0.0000 </r>
        <r>  0.1872  0.0000  0.0000  0.0585  0.0000  0.0000  0.0000  0.0000  0.0000 </r>
       </set>
       <set comment="band 3">
        <r>  0.0000  0.1018  0.0962  0.0000  0.0000  0.0000  0.0000  0.0000  0.0000 </r>
        <r>  0.0000  0.0962  0.1018  0.0000  0.0000  0.0000  0.0000  0.0000  0.0000 </r>
       </set>
       <set comment="band 4">
        <r>  0.0000  0.0962  0.1018  0.0000  0.0000  0.0000  0.0000  0.0000  0.0000 </r>
        <r>  0.0000  0.1018  0.0962  0.0000  0.0000  0.0000  0.0000  0.0000  0.0000 </r>
       </set>
       <set comment="band 5">
        <r>  0.0533  0.0000  0.0000  0.0422  0.0000  0.0000  0.0000  0.0000  0.0000 </r>
        <r>  0.0533  0.0000  0.0000  0.0422  0.0000  0.0000  0.0000  0.0000  0.0000 </r>
       </set>
       <set comment="band 6">
        <r>  0.0483  0.0000  0.0000  0.0310  0.0000  0.0000  0.0000  0.0000  0.0000 </r>
        <r>  0.0483  0.0000  0.0000  0.0310  0.0000  0.0000  0.0000  0.0000  0.0000 </r>
       </set>
       <set comment="band 7">
        <r>  0.0000  0.0543  0.1174  0.0000  0.0000  0.0000  0.0000  0.0000  0.0000 </r>
        <r>  0.0000  0.1105  0.0611  0.0000  0.0000  0.0000  0.0000  0.0000  0.0000 </r>
       </set>
       <set comment="band 8">
        <r>  0.0000  0.1175  0.0543  0.0000  0.0000  0.0000  0.0000  0.0000  0.0000 </r>
        <r>  0.0000  0.0611  0.1106  0.0000  0.0000  0.0000  0.0000  0.0000  0.0000 </r>
       </set>
      </set>
      <set comment="kpoint 23">
       <set comment="band 1">
        <r>  0.1983  0.0000  0.0000  0.0345  0.0000  0.0000  0.0000  0.0000  0.0000 </r>
        <r>  0.1983  0.0000  0.0000  0.0345  0.0000  0.0000  0.0000  0.0000  0.0000 </r>
       </set>
       <set comment="band 2">
        <r>  0.1873  0.0000  0.0000  0.0582  0.0000  0.0000  0.0000  0.0000  0.0000 </r>
        <r>  0.1873  0.0000  0.0000  0.0582  0.0000  0.0000  0.0000  0.0000  0.0000 </r>
       </set>
       <set comment="band 3">
        <r>  0.0000  0.1018  0.0962  0.0000  0.0000  0.0000  0.0000  0.0000  0.0000 </r>
        <r>  0.0000  0.0962  0.1018  0.0000  0.0000  0.0000  0.0000  0.0000  0.0000 </r>
       </set>
       <set comment="band 4">
        <r>  0.0000  0.0962  0.1018  0.0000  0.0000  0.0000  0.0000  0.0000  0.0000 </r>
        <r>  0.0000  0.1018  0.0962  0.0000  0.0000  0.0000  0.0000  0.0000  0.0000 </r>
       </set>
       <set comment="band 5">
        <r>  0.0533  0.0000  0.0000  0.0421  0.0000  0.0000  0.0000  0.0000  0.0000 </r>
        <r>  0.0533  0.0000  0.0000  0.0421  0.0000  0.0000  0.0000  0.0000  0.0000 </r>
       </set>
       <set comment="band 6">
        <r>  0.0484  0.0000  0.0000  0.0310  0.0000  0.0000  0.0000  0.0000  0.0000 </r>
        <r>  0.0484  0.0000  0.0000  0.0310  0.0000  0.0000  0.0000  0.0000  0.0000 </r>
       </set>
       <set comment="band 7">
        <r>  0.0000  0.0304  0.1417  0.0000  0.0000  0.0000  0.0000  0.0000  0.0000 </r>
        <r>  0.0000  0.1105  0.0616  0.0000  0.0000  0.0000  0.0000  0.0000  0.0000 </r>
       </set>
       <set comment="band 8">
        <r>  0.0000  0.1417  0.0303  0.0000  0.0000  0.0000  0.0000  0.0000  0.0000 </r>
        <r>  0.0000  0.0616  0.1103  0.0000  0.0000  0.0000  0.0000  0.0000  0.0000 </r>
       </set>
      </set>
      <set comment="kpoint 24">
       <set comment="band 1">
        <r>  0.1982  0.0000  0.0000  0.0347  0.0000  0.0000  0.0000  0.0000  0.0000 </r>
        <r>  0.1982  0.0000  0.0000  0.0347  0.0000  0.0000  0.0000  0.0000  0.0000 </r>
       </set>
       <set comment="band 2">
        <r>  0.1874  0.0000  0.0000  0.0580  0.0000  0.0000  0.0000  0.0000  0.0000 </r>
        <r>  0.1874  0.0000  0.0000  0.0580  0.0000  0.0000  0.0000  0.0000  0.0000 </r>
       </set>
       <set comment="band 3">
        <r>  0.0000  0.1018  0.0962  0.0000  0.0000  0.0000  0.0000  0.0000  0.0000 </r>
        <r>  0.0000  0.0962  0.1018  0.0000  0.0000  0.0000  0.0000  0.0000  0.0000 </r>
       </set>
       <set comment="band 4">
        <r>  0.0000  0.0962  0.1018  0.0000  0.0000  0.0000  0.0000  0.0000  0.0000 </r>
        <r>  0.0000  0.1018  0.0962  0.0000  0.0000  0.0000  0.0000  0.0000  0.0000 </r>
       </set>
       <set comment="band 5">
        <r>  0.0533  0.0000  0.0000  0.0419  0.0000  0.0000  0.0000  0.0000  0.0000 </r>
        <r>  0.0533  0.0000  0.0000  0.0419  0.0000  0.0000  0.0000  0.0000  0.0000 </r>
       </set>
       <set comment="band 6">
        <r>  0.0485  0.0000  0.0000  0.0311  0.0000  0.0000  0.0000  0.0000  0.0000 </r>
        <r>  0.0485  0.0000  0.0000  0.0311  0.0000  0.0000  0.0000  0.0000  0.0000 </r>
       </set>
       <set comment="band 7">
        <r>  0.0000  0.0241  0.1484  0.0000  0.0000  0.0000  0.0000  0.0000  0.0000 </r>
        <r>  0.0000  0.1667  0.0057  0.0000  0.0000  0.0000  0.0000  0.0000  0.0000 </r>
       </set>
       <set comment="band 8">
        <r>  0.0000  0.1483  0.0241  0.0000  0.0000  0.0000  0.0000  0.0000  0.0000 </r>
        <r>  0.0000  0.0057  0.1667  0.0000  0.0000  0.0000  0.0000  0.0000  0.0000 </r>
       </set>
      </set>
      <set comment="kpoint 25">
       <set comment="band 1">
        <r>  0.1981  0.0000  0.0000  0.0349  0.0000  0.0000  0.0000  0.0000  0.0000 </r>
        <r>  0.1981  0.0000  0.0000  0.0349  0.0000  0.0000  0.0000  0.0000  0.0000 </r>
       </set>
       <set comment="band 2">
        <r>  0.1875  0.0000  0.0000  0.0578  0.0000  0.0000  0.0000  0.0000  0.0000 </r>
        <r>  0.1875  0.0000  0.0000  0.0578  0.0000  0.0000  0.0000  0.0000  0.0000 </r>
       </set>
       <set comment="band 3">
        <r>  0.0000  0.1018  0.0962  0.0000  0.0000  0.0000  0.0000  0.0000  0.0000 </r>
        <r>  0.0000  0.0962  0.1018  0.0000  0.0000  0.0000  0.0000  0.0000  0.0000 </r>
       </set>
       <set comment="band 4">
        <r>  0.0000  0.0962  0.1018  0.0000  0.0000  0.0000  0.0000  0.0000  0.0000 </r>
        <r>  0.0000  0.1018  0.0962  0.0000  0.0000  0.0000  0.0000  0.0000  0.0000 </r>
       </set>
       <set comment="band 5">
        <r>  0.0533  0.0000  0.0000  0.0418  0.0000  0.0000  0.0000  0.0000  0.0000 </r>
        <r>  0.0533  0.0000  0.0000  0.0418  0.0000  0.0000  0.0000  0.0000  0.0000 </r>
       </set>
       <set comment="band 6">
        <r>  0.0485  0.0000  0.0000  0.0311  0.0000  0.0000  0.0000  0.0000  0.0000 </r>
        <r>  0.0485  0.0000  0.0000  0.0311  0.0000  0.0000  0.0000  0.0000  0.0000 </r>
       </set>
       <set comment="band 7">
        <r>  0.0000  0.1674  0.0053  0.0000  0.0000  0.0000  0.0000  0.0000  0.0000 </r>
        <r>  0.0000  0.0345  0.1382  0.0000  0.0000  0.0000  0.0000  0.0000  0.0000 </r>
       </set>
       <set comment="band 8">
        <r>  0.0000  0.0053  0.1675  0.0000  0.0000  0.0000  0.0000  0.0000  0.0000 </r>
        <r>  0.0000  0.1382  0.0345  0.0000  0.0000  0.0000  0.0000  0.0000  0.0000 </r>
       </set>
      </set>
      <set comment="kpoint 26">
       <set comment="band 1">
        <r>  0.1980  0.0000  0.0000  0.0351  0.0000  0.0000  0.0000  0.0000  0.0000 </r>
        <r>  0.1980  0.0000  0.0000  0.0351  0.0000  0.0000  0.0000  0.0000  0.0000 </r>
       </set>
       <set comment="band 2">
        <r>  0.1877  0.0000  0.0000  0.0576  0.0000  0.0000  0.0000  0.0000  0.0000 </r>
        <r>  0.1877  0.0000  0.0000  0.0576  0.0000  0.0000  0.0000  0.0000  0.0000 </r>
       </set>
       <set comment="band 3">
        <r>  0.0000  0.1018  0.0962  0.0000  0.0000  0.0000  0.0000  0.0000  0.0000 </r>
        <r>  0.0000  0.0962  0.1018  0.0000  0.0000  0.0000  0.0000  0.0000  0.0000 </r>
       </set>
       <set comment="band 4">
        <r>  0.0000  0.0962  0.1018  0.0000  0.0000  0.0000  0.0000  0.0000  0.0000 </r>
        <r>  0.0000  0.1018  0.0962  0.0000  0.0000  0.0000  0.0000  0.0000  0.0000 </r>
       </set>
       <set comment="band 5">
        <r>  0.0533  0.0000  0.0000  0.0417  0.0000  0.0000  0.0000  0.0000  0.0000 </r>
        <r>  0.0533  0.0000  0.0000  0.0417  0.0000  0.0000  0.0000  0.0000  0.0000 </r>
       </set>
       <set comment="band 6">
        <r>  0.0486  0.0000  0.0000  0.0312  0.0000  0.0000  0.0000  0.0000  0.0000 </r>
        <r>  0.0486  0.0000  0.0000  0.0312  0.0000  0.0000  0.0000  0.0000  0.0000 </r>
       </set>
       <set comment="band 7">
        <r>  0.0000  0.1664  0.0067  0.0000  0.0000  0.0000  0.0000  0.0000  0.0000 </r>
        <r>  0.0000  0.0185  0.1547  0.0000  0.0000  0.0000  0.0000  0.0000  0.0000 </r>
       </set>
       <set comment="band 8">
        <r>  0.0000  0.0067  0.1663  0.0000  0.0000  0.0000  0.0000  0.0000  0.0000 </r>
        <r>  0.0000  0.1546  0.0185  0.0000  0.0000  0.0000  0.0000  0.0000  0.0000 </r>
       </set>
      </set>
      <set comment="kpoint 27">
       <set comment="band 1">
        <r>  0.1979  0.0000  0.0000  0.0352  0.0000  0.0000  0.0000  0.0000  0.0000 </r>
        <r>  0.1979  0.0000  0.0000  0.0352  0.0000  0.0000  0.0000  0.0000  0.0000 </r>
       </set>
       <set comment="band 2">
        <r>  0.1878  0.0000  0.0000  0.0573  0.0000  0.0000  0.0000  0.0000  0.0000 </r>
        <r>  0.1878  0.0000  0.0000  0.0573  0.0000  0.0000  0.0000  0.0000  0.0000 </r>
       </set>
       <set comment="band 3">
        <r>  0.0000  0.1018  0.0962  0.0000  0.0000  0.0000  0.0000  0.0000  0.0000 </r>
        <r>  0.0000  0.0962  0.1018  0.0000  0.0000  0.0000  0.0000  0.0000  0.0000 </r>
       </set>
       <set comment="band 4">
        <r>  0.0000  0.0962  0.1018  0.0000  0.0000  0.0000  0.0000  0.0000  0.0000 </r>
        <r>  0.0000  0.1018  0.0962  0.0000  0.0000  0.0000  0.0000  0.0000  0.0000 </r>
       </set>
       <set comment="band 5">
        <r>  0.0533  0.0000  0.0000  0.0415  0.0000  0.0000  0.0000  0.0000  0.0000 </r>
        <r>  0.0533  0.0000  0.0000  0.0415  0.0000  0.0000  0.0000  0.0000  0.0000 </r>
       </set>
       <set comment="band 6">
        <r>  0.0487  0.0000  0.0000  0.0312  0.0000  0.0000  0.0000  0.0000  0.0000 </r>
        <r>  0.0487  0.0000  0.0000  0.0312  0.0000  0.0000  0.0000  0.0000  0.0000 </r>
       </set>
       <set comment="band 7">
        <r>  0.0000  0.1340  0.0395  0.0000  0.0000  0.0000  0.0000  0.0000  0.0000 </r>
        <r>  0.0000  0.0837  0.0897  0.0000  0.0000  0.0000  0.0000  0.0000  0.0000 </r>
       </set>
       <set comment="band 8">
        <r>  0.0000  0.0395  0.1339  0.0000  0.0000  0.0000  0.0000  0.0000  0.0000 </r>
        <r>  0.0000  0.0897  0.0838  0.0000  0.0000  0.0000  0.0000  0.0000  0.0000 </r>
       </set>
      </set>
      <set comment="kpoint 28">
       <set comment="band 1">
        <r>  0.1979  0.0000  0.0000  0.0354  0.0000  0.0000  0.0000  0.0000  0.0000 </r>
        <r>  0.1979  0.0000  0.0000  0.0354  0.0000  0.0000  0.0000  0.0000  0.0000 </r>
       </set>
       <set comment="band 2">
        <r>  0.1879  0.0000  0.0000  0.0571  0.0000  0.0000  0.0000  0.0000  0.0000 </r>
        <r>  0.1879  0.0000  0.0000  0.0571  0.0000  0.0000  0.0000  0.0000  0.0000 </r>
       </set>
       <set comment="band 3">
        <r>  0.0000  0.1018  0.0962  0.0000  0.0000  0.0000  0.0000  0.0000  0.0000 </r>
        <r>  0.0000  0.0962  0.1018  0.0000  0.0000  0.0000  0.0000  0.0000  0.0000 </r>
       </set>
       <set comment="band 4">
        <r>  0.0000  0.0962  0.1018  0.0000  0.0000  0.0000  0.0000  0.0000  0.0000 </r>
        <r>  0.0000  0.1018  0.0962  0.0000  0.0000  0.0000  0.0000  0.0000  0.0000 </r>
       </set>
       <set comment="band 5">
        <r>  0.0533  0.0000  0.0000  0.0414  0.0000  0.0000  0.0000  0.0000  0.0000 </r>
        <r>  0.0533  0.0000  0.0000  0.0414  0.0000  0.0000  0.0000  0.0000  0.0000 </r>
       </set>
       <set comment="band 6">
        <r>  0.0487  0.0000  0.0000  0.0313  0.0000  0.0000  0.0000  0.0000  0.0000 </r>
        <r>  0.0487  0.0000  0.0000  0.0313  0.0000  0.0000  0.0000  0.0000  0.0000 </r>
       </set>
       <set comment="band 7">
        <r>  0.0000  0.0683  0.1056  0.0000  0.0000  0.0000  0.0000  0.0000  0.0000 </r>
        <r>  0.0000  0.0681  0.1058  0.0000  0.0000  0.0000  0.0000  0.0000  0.0000 </r>
       </set>
       <set comment="band 8">
        <r>  0.0000  0.1057  0.0682  0.0000  0.0000  0.0000  0.0000  0.0000  0.0000 </r>
        <r>  0.0000  0.1057  0.0682  0.0000  0.0000  0.0000  0.0000  0.0000  0.0000 </r>
       </set>
      </set>
      <set comment="kpoint 29">
       <set comment="band 1">
        <r>  0.1978  0.0000  0.0000  0.0356  0.0000  0.0000  0.0000  0.0000  0.0000 </r>
        <r>  0.1978  0.0000  0.0000  0.0356  0.0000  0.0000  0.0000  0.0000  0.0000 </r>
       </set>
       <set comment="band 2">
        <r>  0.1880  0.0000  0.0000  0.0569  0.0000  0.0000  0.0000  0.0000  0.0000 </r>
        <r>  0.1880  0.0000  0.0000  0.0569  0.0000  0.0000  0.0000  0.0000  0.0000 </r>
       </set>
       <set comment="band 3">
        <r>  0.0000  0.1018  0.0962  0.0000  0.0000  0.0000  0.0000  0.0000  0.0000 </r>
        <r>  0.0000  0.0962  0.1018  0.0000  0.0000  0.0000  0.0000  0.0000  0.0000 </r>
       </set>
       <set comment="band 4">
        <r>  0.0000  0.0962  0.1018  0.0000  0.0000  0.0000  0.0000  0.0000  0.0000 </r>
        <r>  0.0000  0.1018  0.0962  0.0000  0.0000  0.0000  0.0000  0.0000  0.0000 </r>
       </set>
       <set comment="band 5">
        <r>  0.0533  0.0000  0.0000  0.0412  0.0000  0.0000  0.0000  0.0000  0.0000 </r>
        <r>  0.0533  0.0000  0.0000  0.0412  0.0000  0.0000  0.0000  0.0000  0.0000 </r>
       </set>
       <set comment="band 6">
        <r>  0.0488  0.0000  0.0000  0.0313  0.0000  0.0000  0.0000  0.0000  0.0000 </r>
        <r>  0.0488  0.0000  0.0000  0.0313  0.0000  0.0000  0.0000  0.0000  0.0000 </r>
       </set>
       <set comment="band 7">
        <r>  0.0000  0.1408  0.0334  0.0000  0.0000  0.0000  0.0000  0.0000  0.0000 </r>
        <r>  0.0000  0.0500  0.1243  0.0000  0.0000  0.0000  0.0000  0.0000  0.0000 </r>
       </set>
       <set comment="band 8">
        <r>  0.0000  0.0334  0.1409  0.0000  0.0000  0.0000  0.0000  0.0000  0.0000 </r>
        <r>  0.0000  0.1243  0.0500  0.0000  0.0000  0.0000  0.0000  0.0000  0.0000 </r>
       </set>
      </set>
      <set comment="kpoint 30">
       <set comment="band 1">
        <r>  0.1977  0.0000  0.0000  0.0358  0.0000  0.0000  0.0000  0.0000  0.0000 </r>
        <r>  0.1977  0.0000  0.0000  0.0358  0.0000  0.0000  0.0000  0.0000  0.0000 </r>
       </set>
       <set comment="band 2">
        <r>  0.1881  0.0000  0.0000  0.0567  0.0000  0.0000  0.0000  0.0000  0.0000 </r>
        <r>  0.1881  0.0000  0.0000  0.0567  0.0000  0.0000  0.0000  0.0000  0.0000 </r>
       </set>
       <set comment="band 3">
        <r>  0.0000  0.1018  0.0962  0.0000  0.0000  0.0000  0.0000  0.0000  0.0000 </r>
        <r>  0.0000  0.0962  0.1018  0.0000  0.0000  0.0000  0.0000  0.0000  0.0000 </r>
       </set>
       <set comment="band 4">
        <r>  0.0000  0.0962  0.1018  0.0000  0.0000  0.0000  0.0000  0.0000  0.0000 </r>
        <r>  0.0000  0.1018  0.0962  0.0000  0.0000  0.0000  0.0000  0.0000  0.0000 </r>
       </set>
       <set comment="band 5">
        <r>  0.0533  0.0000  0.0000  0.0411  0.0000  0.0000  0.0000  0.0000  0.0000 </r>
        <r>  0.0533  0.0000  0.0000  0.0411  0.0000  0.0000  0.0000  0.0000  0.0000 </r>
       </set>
       <set comment="band 6">
        <r>  0.0488  0.0000  0.0000  0.0314  0.0000  0.0000  0.0000  0.0000  0.0000 </r>
        <r>  0.0488  0.0000  0.0000  0.0314  0.0000  0.0000  0.0000  0.0000  0.0000 </r>
       </set>
       <set comment="band 7">
        <r>  0.0000  0.1270  0.0477  0.0000  0.0000  0.0000  0.0000  0.0000  0.0000 </r>
        <r>  0.0000  0.0900  0.0846  0.0000  0.0000  0.0000  0.0000  0.0000  0.0000 </r>
       </set>
       <set comment="band 8">
        <r>  0.0000  0.0479  0.1269  0.0000  0.0000  0.0000  0.0000  0.0000  0.0000 </r>
        <r>  0.0000  0.0847  0.0903  0.0000  0.0000  0.0000  0.0000  0.0000  0.0000 </r>
       </set>
      </set>
      <set comment="kpoint 31">
       <set comment="band 1">
        <r>  0.1989  0.0000  0.0000  0.0332  0.0000  0.0000  0.0000  0.0000  0.0000 </r>
        <r>  0.1989  0.0000  0.0000  0.0332  0.0000  0.0000  0.0000  0.0000  0.0000 </r>
       </set>
       <set comment="band 2">
        <r>  0.1865  0.0000  0.0002  0.0597  0.0000  0.0000  0.0000  0.0000  0.0000 </r>
        <r>  0.1865  0.0000  0.0002  0.0597  0.0000  0.0000  0.0000  0.0000  0.0000 </r>
       </set>
       <set comment="band 3">
        <r>  0.0003  0.0904  0.1060  0.0005  0.0000  0.0000  0.0000  0.0000  0.0000 </r>
        <r>  0.0003  0.0904  0.1060  0.0005  0.0000  0.0000  0.0000  0.0000  0.0000 </r>
       </set>
       <set comment="band 4">
        <r>  0.0000  0.1063  0.0906  0.0005  0.0000  0.0000  0.0000  0.0000  0.0000 </r>
        <r>  0.0000  0.1063  0.0906  0.0005  0.0000  0.0000  0.0000  0.0000  0.0000 </r>
       </set>
       <set comment="band 5">
        <r>  0.0528  0.0009  0.0008  0.0428  0.0000  0.0000  0.0000  0.0000  0.0000 </r>
        <r>  0.0528  0.0009  0.0008  0.0428  0.0000  0.0000  0.0000  0.0000  0.0000 </r>
       </set>
       <set comment="band 6">
        <r>  0.0477  0.0007  0.0004  0.0305  0.0000  0.0000  0.0000  0.0000  0.0000 </r>
        <r>  0.0477  0.0007  0.0004  0.0305  0.0000  0.0000  0.0000  0.0000  0.0000 </r>
       </set>
       <set comment="band 7">
        <r>  0.0020  0.1052  0.0577  0.0023  0.0000  0.0000  0.0000  0.0000  0.0000 </r>
        <r>  0.0020  0.1052  0.0577  0.0023  0.0000  0.0000  0.0000  0.0000  0.0000 </r>
       </set>
       <set comment="band 8">
        <r>  0.0000  0.0603  0.1096  0.0001  0.0000  0.0000  0.0000  0.0000  0.0000 </r>
        <r>  0.0000  0.0603  0.1096  0.0001  0.0000  0.0000  0.0000  0.0000  0.0000 </r>
       </set>
      </set>
      <set comment="kpoint 32">
       <set comment="band 1">
        <r>  0.1989  0.0000  0.0000  0.0332  0.0000  0.0000  0.0000  0.0000  0.0000 </r>
        <r>  0.1989  0.0000  0.0000  0.0332  0.0000  0.0000  0.0000  0.0000  0.0000 </r>
       </set>
       <set comment="band 2">
        <r>  0.1865  0.0000  0.0002  0.0597  0.0000  0.0000  0.0000  0.0000  0.0000 </r>
        <r>  0.1865  0.0000  0.0002  0.0597  0.0000  0.0000  0.0000  0.0000  0.0000 </r>
       </set>
       <set comment="band 3">
        <r>  0.0003  0.0905  0.1061  0.0004  0.0000  0.0000  0.0000  0.0000  0.0000 </r>
        <r>  0.0003  0.0905  0.1061  0.0004  0.0000  0.0000  0.0000  0.0000  0.0000 </r>
       </set>
       <set comment="band 4">
        <r>  0.0000  0.1063  0.0907  0.0005  0.0000  0.0000  0.0000  0.0000  0.0000 </r>
        <r>  0.0000  0.1063  0.0907  0.0005  0.0000  0.0000  0.0000  0.0000  0.0000 </r>
       </set>
       <set comment="band 5">
        <r>  0.0529  0.0008  0.0007  0.0428  0.0000  0.0000  0.0000  0.0000  0.0000 </r>
        <r>  0.0529  0.0008  0.0007  0.0428  0.0000  0.0000  0.0000  0.0000  0.0000 </r>
       </set>
       <set comment="band 6">
        <r>  0.0477  0.0006  0.0004  0.0305  0.0000  0.0000  0.0000  0.0000  0.0000 </r>
        <r>  0.0477  0.0006  0.0004  0.0305  0.0000  0.0000  0.0000  0.0000  0.0000 </r>
       </set>
       <set comment="band 7">
        <r>  0.0018  0.1057  0.0579  0.0020  0.0000  0.0000  0.0000  0.0000  0.0000 </r>
        <r>  0.0017  0.1058  0.0578  0.0020  0.0000  0.0000  0.0000  0.0000  0.0000 </r>
       </set>
       <set comment="band 8">
        <r>  0.0000  0.0602  0.1096  0.0001  0.0000  0.0000  0.0000  0.0000  0.0000 </r>
        <r>  0.0000  0.0602  0.1094  0.0001  0.0000  0.0000  0.0000  0.0000  0.0000 </r>
       </set>
      </set>
      <set comment="kpoint 33">
       <set comment="band 1">
        <r>  0.1989  0.0000  0.0000  0.0332  0.0000  0.0000  0.0000  0.0000  0.0000 </r>
        <r>  0.1989  0.0000  0.0000  0.0332  0.0000  0.0000  0.0000  0.0000  0.0000 </r>
       </set>
       <set comment="band 2">
        <r>  0.1865  0.0000  0.0001  0.0598  0.0000  0.0000  0.0000  0.0000  0.0000 </r>
        <r>  0.1865  0.0000  0.0001  0.0598  0.0000  0.0000  0.0000  0.0000  0.0000 </r>
       </set>
       <set comment="band 3">
        <r>  0.0003  0.0906  0.1062  0.0004  0.0000  0.0000  0.0000  0.0000  0.0000 </r>
        <r>  0.0003  0.0906  0.1062  0.0004  0.0000  0.0000  0.0000  0.0000  0.0000 </r>
       </set>
       <set comment="band 4">
        <r>  0.0000  0.1064  0.0907  0.0004  0.0000  0.0000  0.0000  0.0000  0.0000 </r>
        <r>  0.0000  0.1064  0.0907  0.0004  0.0000  0.0000  0.0000  0.0000  0.0000 </r>
       </set>
       <set comment="band 5">
        <r>  0.0530  0.0007  0.0006  0.0429  0.0000  0.0000  0.0000  0.0000  0.0000 </r>
        <r>  0.0530  0.0007  0.0006  0.0429  0.0000  0.0000  0.0000  0.0000  0.0000 </r>
       </set>
       <set comment="band 6">
        <r>  0.0477  0.0005  0.0003  0.0306  0.0000  0.0000  0.0000  0.0000  0.0000 </r>
        <r>  0.0477  0.0005  0.0003  0.0306  0.0000  0.0000  0.0000  0.0000  0.0000 </r>
       </set>
       <set comment="band 7">
        <r>  0.0015  0.1063  0.0583  0.0018  0.0000  0.0000  0.0000  0.0000  0.0000 </r>
        <r>  0.0015  0.1063  0.0583  0.0018  0.0000  0.0000  0.0000  0.0000  0.0000 </r>
       </set>
       <set comment="band 8">
        <r>  0.0000  0.0602  0.1096  0.0001  0.0000  0.0000  0.0000  0.0000  0.0000 </r>
        <r>  0.0000  0.0602  0.1096  0.0001  0.0000  0.0000  0.0000  0.0000  0.0000 </r>
       </set>
      </set>
      <set comment="kpoint 34">
       <set comment="band 1">
        <r>  0.1989  0.0000  0.0000  0.0332  0.0000  0.0000  0.0000  0.0000  0.0000 </r>
        <r>  0.1989  0.0000  0.0000  0.0332  0.0000  0.0000  0.0000  0.0000  0.0000 </r>
       </set>
       <set comment="band 2">
        <r>  0.1865  0.0000  0.0001  0.0598  0.0000  0.0000  0.0000  0.0000  0.0000 </r>
        <r>  0.1865  0.0000  0.0001  0.0598  0.0000  0.0000  0.0000  0.0000  0.0000 </r>
       </set>
       <set comment="band 3">
        <r>  0.0002  0.0907  0.1063  0.0003  0.0000  0.0000  0.0000  0.0000  0.0000 </r>
        <r>  0.0002  0.0907  0.1063  0.0003  0.0000  0.0000  0.0000  0.0000  0.0000 </r>
       </set>
       <set comment="band 4">
        <r>  0.0000  0.1065  0.0908  0.0003  0.0000  0.0000  0.0000  0.0000  0.0000 </r>
        <r>  0.0000  0.1065  0.0908  0.0003  0.0000  0.0000  0.0000  0.0000  0.0000 </r>
       </set>
       <set comment="band 5">
        <r>  0.0530  0.0006  0.0005  0.0429  0.0000  0.0000  0.0000  0.0000  0.0000 </r>
        <r>  0.0530  0.0006  0.0005  0.0429  0.0000  0.0000  0.0000  0.0000  0.0000 </r>
       </set>
       <set comment="band 6">
        <r>  0.0478  0.0004  0.0003  0.0306  0.0000  0.0000  0.0000  0.0000  0.0000 </r>
        <r>  0.0478  0.0004  0.0003  0.0306  0.0000  0.0000  0.0000  0.0000  0.0000 </r>
       </set>
       <set comment="band 7">
        <r>  0.0013  0.1067  0.0586  0.0015  0.0000  0.0000  0.0000  0.0000  0.0000 </r>
        <r>  0.0013  0.1068  0.0585  0.0015  0.0000  0.0000  0.0000  0.0000  0.0000 </r>
       </set>
       <set comment="band 8">
        <r>  0.0000  0.0602  0.1096  0.0001  0.0000  0.0000  0.0000  0.0000  0.0000 </r>
        <r>  0.0000  0.0602  0.1096  0.0001  0.0000  0.0000  0.0000  0.0000  0.0000 </r>
       </set>
      </set>
      <set comment="kpoint 35">
       <set comment="band 1">
        <r>  0.1988  0.0000  0.0000  0.0332  0.0000  0.0000  0.0000  0.0000  0.0000 </r>
        <r>  0.1988  0.0000  0.0000  0.0332  0.0000  0.0000  0.0000  0.0000  0.0000 </r>
       </set>
       <set comment="band 2">
        <r>  0.1864  0.0000  0.0001  0.0598  0.0000  0.0000  0.0000  0.0000  0.0000 </r>
        <r>  0.1864  0.0000  0.0001  0.0598  0.0000  0.0000  0.0000  0.0000  0.0000 </r>
       </set>
       <set comment="band 3">
        <r>  0.0002  0.0908  0.1064  0.0003  0.0000  0.0000  0.0000  0.0000  0.0000 </r>
        <r>  0.0002  0.0908  0.1064  0.0003  0.0000  0.0000  0.0000  0.0000  0.0000 </r>
       </set>
       <set comment="band 4">
        <r>  0.0000  0.1065  0.0909  0.0003  0.0000  0.0000  0.0000  0.0000  0.0000 </r>
        <r>  0.0000  0.1065  0.0909  0.0003  0.0000  0.0000  0.0000  0.0000  0.0000 </r>
       </set>
       <set comment="band 5">
        <r>  0.0531  0.0005  0.0004  0.0430  0.0000  0.0000  0.0000  0.0000  0.0000 </r>
        <r>  0.0531  0.0005  0.0004  0.0430  0.0000  0.0000  0.0000  0.0000  0.0000 </r>
       </set>
       <set comment="band 6">
        <r>  0.0478  0.0004  0.0002  0.0306  0.0000  0.0000  0.0000  0.0000  0.0000 </r>
        <r>  0.0478  0.0004  0.0002  0.0306  0.0000  0.0000  0.0000  0.0000  0.0000 </r>
       </set>
       <set comment="band 7">
        <r>  0.0011  0.1071  0.0587  0.0013  0.0000  0.0000  0.0000  0.0000  0.0000 </r>
        <r>  0.0011  0.1072  0.0587  0.0013  0.0000  0.0000  0.0000  0.0000  0.0000 </r>
       </set>
       <set comment="band 8">
        <r>  0.0000  0.0602  0.1097  0.0000  0.0000  0.0000  0.0000  0.0000  0.0000 </r>
        <r>  0.0000  0.0602  0.1096  0.0000  0.0000  0.0000  0.0000  0.0000  0.0000 </r>
       </set>
      </set>
      <set comment="kpoint 36">
       <set comment="band 1">
        <r>  0.1988  0.0000  0.0000  0.0332  0.0000  0.0000  0.0000  0.0000  0.0000 </r>
        <r>  0.1988  0.0000  0.0000  0.0332  0.0000  0.0000  0.0000  0.0000  0.0000 </r>
       </set>
       <set comment="band 2">
        <r>  0.1864  0.0000  0.0001  0.0598  0.0000  0.0000  0.0000  0.0000  0.0000 </r>
        <r>  0.1864  0.0000  0.0001  0.0598  0.0000  0.0000  0.0000  0.0000  0.0000 </r>
       </set>
       <set comment="band 3">
        <r>  0.0001  0.0909  0.1065  0.0002  0.0000  0.0000  0.0000  0.0000  0.0000 </r>
        <r>  0.0001  0.0909  0.1065  0.0002  0.0000  0.0000  0.0000  0.0000  0.0000 </r>
       </set>
       <set comment="band 4">
        <r>  0.0000  0.1066  0.0909  0.0002  0.0000  0.0000  0.0000  0.0000  0.0000 </r>
        <r>  0.0000  0.1066  0.0909  0.0002  0.0000  0.0000  0.0000  0.0000  0.0000 </r>
       </set>
       <set comment="band 5">
        <r>  0.0531  0.0004  0.0003  0.0430  0.0000  0.0000  0.0000  0.0000  0.0000 </r>
        <r>  0.0531  0.0004  0.0003  0.0430  0.0000  0.0000  0.0000  0.0000  0.0000 </r>
       </set>
       <set comment="band 6">
        <r>  0.0478  0.0003  0.0002  0.0306  0.0000  0.0000  0.0000  0.0000  0.0000 </r>
        <r>  0.0478  0.0003  0.0002  0.0306  0.0000  0.0000  0.0000  0.0000  0.0000 </r>
       </set>
       <set comment="band 7">
        <r>  0.0009  0.1076  0.0589  0.0010  0.0000  0.0000  0.0000  0.0000  0.0000 </r>
        <r>  0.0009  0.1075  0.0590  0.0010  0.0000  0.0000  0.0000  0.0000  0.0000 </r>
       </set>
       <set comment="band 8">
        <r>  0.0000  0.0603  0.1095  0.0000  0.0000  0.0000  0.0000  0.0000  0.0000 </r>
        <r>  0.0000  0.0602  0.1097  0.0000  0.0000  0.0000  0.0000  0.0000  0.0000 </r>
       </set>
      </set>
      <set comment="kpoint 37">
       <set comment="band 1">
        <r>  0.1988  0.0000  0.0000  0.0332  0.0000  0.0000  0.0000  0.0000  0.0000 </r>
        <r>  0.1988  0.0000  0.0000  0.0332  0.0000  0.0000  0.0000  0.0000  0.0000 </r>
       </set>
       <set comment="band 2">
        <r>  0.1864  0.0000  0.0001  0.0599  0.0000  0.0000  0.0000  0.0000  0.0000 </r>
        <r>  0.1864  0.0000  0.0001  0.0599  0.0000  0.0000  0.0000  0.0000  0.0000 </r>
       </set>
       <set comment="band 3">
        <r>  0.0001  0.0909  0.1066  0.0002  0.0000  0.0000  0.0000  0.0000  0.0000 </r>
        <r>  0.0001  0.0909  0.1066  0.0002  0.0000  0.0000  0.0000  0.0000  0.0000 </r>
       </set>
       <set comment="band 4">
        <r>  0.0000  0.1066  0.0910  0.0002  0.0000  0.0000  0.0000  0.0000  0.0000 </r>
        <r>  0.0000  0.1066  0.0910  0.0002  0.0000  0.0000  0.0000  0.0000  0.0000 </r>
       </set>
       <set comment="band 5">
        <r>  0.0532  0.0003  0.0003  0.0431  0.0000  0.0000  0.0000  0.0000  0.0000 </r>
        <r>  0.0532  0.0003  0.0003  0.0431  0.0000  0.0000  0.0000  0.0000  0.0000 </r>
       </set>
       <set comment="band 6">
        <r>  0.0478  0.0002  0.0001  0.0307  0.0000  0.0000  0.0000  0.0000  0.0000 </r>
        <r>  0.0478  0.0002  0.0001  0.0307  0.0000  0.0000  0.0000  0.0000  0.0000 </r>
       </set>
       <set comment="band 7">
        <r>  0.0007  0.1079  0.0592  0.0008  0.0000  0.0000  0.0000  0.0000  0.0000 </r>
        <r>  0.0007  0.1079  0.0592  0.0008  0.0000  0.0000  0.0000  0.0000  0.0000 </r>
       </set>
       <set comment="band 8">
        <r>  0.0000  0.0603  0.1095  0.0000  0.0000  0.0000  0.0000  0.0000  0.0000 </r>
        <r>  0.0000  0.0601  0.1097  0.0000  0.0000  0.0000  0.0000  0.0000  0.0000 </r>
       </set>
      </set>
      <set comment="kpoint 38">
       <set comment="band 1">
        <r>  0.1988  0.0000  0.0000  0.0332  0.0000  0.0000  0.0000  0.0000  0.0000 </r>
        <r>  0.1988  0.0000  0.0000  0.0332  0.0000  0.0000  0.0000  0.0000  0.0000 </r>
       </set>
       <set comment="band 2">
        <r>  0.1864  0.0000  0.0000  0.0599  0.0000  0.0000  0.0000  0.0000  0.0000 </r>
        <r>  0.1864  0.0000  0.0000  0.0599  0.0000  0.0000  0.0000  0.0000  0.0000 </r>
       </set>
       <set comment="band 3">
        <r>  0.0001  0.0910  0.1066  0.0001  0.0000  0.0000  0.0000  0.0000  0.0000 </r>
        <r>  0.0001  0.0910  0.1066  0.0001  0.0000  0.0000  0.0000  0.0000  0.0000 </r>
       </set>
       <set comment="band 4">
        <r>  0.0000  0.1067  0.0910  0.0001  0.0000  0.0000  0.0000  0.0000  0.0000 </r>
        <r>  0.0000  0.1067  0.0910  0.0001  0.0000  0.0000  0.0000  0.0000  0.0000 </r>
       </set>
       <set comment="band 5">
        <r>  0.0532  0.0002  0.0002  0.0431  0.0000  0.0000  0.0000  0.0000  0.0000 </r>
        <r>  0.0532  0.0002  0.0002  0.0431  0.0000  0.0000  0.0000  0.0000  0.0000 </r>
       </set>
       <set comment="band 6">
        <r>  0.0478  0.0002  0.0001  0.0307  0.0000  0.0000  0.0000  0.0000  0.0000 </r>
        <r>  0.0478  0.0002  0.0001  0.0307  0.0000  0.0000  0.0000  0.0000  0.0000 </r>
       </set>
       <set comment="band 7">
        <r>  0.0006  0.1084  0.0595  0.0007  0.0000  0.0000  0.0000  0.0000  0.0000 </r>
        <r>  0.0006  0.1084  0.0595  0.0007  0.0000  0.0000  0.0000  0.0000  0.0000 </r>
       </set>
       <set comment="band 8">
        <r>  0.0000  0.0602  0.1097  0.0000  0.0000  0.0000  0.0000  0.0000  0.0000 </r>
        <r>  0.0000  0.0602  0.1097  0.0000  0.0000  0.0000  0.0000  0.0000  0.0000 </r>
       </set>
      </set>
      <set comment="kpoint 39">
       <set comment="band 1">
        <r>  0.1988  0.0000  0.0000  0.0332  0.0000  0.0000  0.0000  0.0000  0.0000 </r>
        <r>  0.1988  0.0000  0.0000  0.0332  0.0000  0.0000  0.0000  0.0000  0.0000 </r>
       </set>
       <set comment="band 2">
        <r>  0.1864  0.0000  0.0000  0.0599  0.0000  0.0000  0.0000  0.0000  0.0000 </r>
        <r>  0.1864  0.0000  0.0000  0.0599  0.0000  0.0000  0.0000  0.0000  0.0000 </r>
       </set>
       <set comment="band 3">
        <r>  0.0001  0.0911  0.1067  0.0001  0.0000  0.0000  0.0000  0.0000  0.0000 </r>
        <r>  0.0001  0.0911  0.1067  0.0001  0.0000  0.0000  0.0000  0.0000  0.0000 </r>
       </set>
       <set comment="band 4">
        <r>  0.0000  0.1067  0.0911  0.0001  0.0000  0.0000  0.0000  0.0000  0.0000 </r>
        <r>  0.0000  0.1067  0.0911  0.0001  0.0000  0.0000  0.0000  0.0000  0.0000 </r>
       </set>
       <set comment="band 5">
        <r>  0.0532  0.0002  0.0002  0.0431  0.0000  0.0000  0.0000  0.0000  0.0000 </r>
        <r>  0.0532  0.0002  0.0002  0.0431  0.0000  0.0000  0.0000  0.0000  0.0000 </r>
       </set>
       <set comment="band 6">
        <r>  0.0478  0.0001  0.0001  0.0307  0.0000  0.0000  0.0000  0.0000  0.0000 </r>
        <r>  0.0478  0.0001  0.0001  0.0307  0.0000  0.0000  0.0000  0.0000  0.0000 </r>
       </set>
       <set comment="band 7">
        <r>  0.0005  0.1088  0.0595  0.0005  0.0000  0.0000  0.0000  0.0000  0.0000 </r>
        <r>  0.0005  0.1085  0.0598  0.0005  0.0000  0.0000  0.0000  0.0000  0.0000 </r>
       </set>
       <set comment="band 8">
        <r>  0.0000  0.0600  0.1098  0.0000  0.0000  0.0000  0.0000  0.0000  0.0000 </r>
        <r>  0.0000  0.0604  0.1095  0.0000  0.0000  0.0000  0.0000  0.0000  0.0000 </r>
       </set>
      </set>
      <set comment="kpoint 40">
       <set comment="band 1">
        <r>  0.1988  0.0000  0.0000  0.0332  0.0000  0.0000  0.0000  0.0000  0.0000 </r>
        <r>  0.1988  0.0000  0.0000  0.0332  0.0000  0.0000  0.0000  0.0000  0.0000 </r>
       </set>
       <set comment="band 2">
        <r>  0.1864  0.0000  0.0000  0.0599  0.0000  0.0000  0.0000  0.0000  0.0000 </r>
        <r>  0.1864  0.0000  0.0000  0.0599  0.0000  0.0000  0.0000  0.0000  0.0000 </r>
       </set>
       <set comment="band 3">
        <r>  0.0000  0.0911  0.1067  0.0001  0.0000  0.0000  0.0000  0.0000  0.0000 </r>
        <r>  0.0000  0.0911  0.1067  0.0001  0.0000  0.0000  0.0000  0.0000  0.0000 </r>
       </set>
       <set comment="band 4">
        <r>  0.0000  0.1068  0.0911  0.0001  0.0000  0.0000  0.0000  0.0000  0.0000 </r>
        <r>  0.0000  0.1068  0.0911  0.0001  0.0000  0.0000  0.0000  0.0000  0.0000 </r>
       </set>
       <set comment="band 5">
        <r>  0.0533  0.0001  0.0001  0.0431  0.0000  0.0000  0.0000  0.0000  0.0000 </r>
        <r>  0.0533  0.0001  0.0001  0.0431  0.0000  0.0000  0.0000  0.0000  0.0000 </r>
       </set>
       <set comment="band 6">
        <r>  0.0479  0.0001  0.0001  0.0307  0.0000  0.0000  0.0000  0.0000  0.0000 </r>
        <r>  0.0479  0.0001  0.0001  0.0307  0.0000  0.0000  0.0000  0.0000  0.0000 </r>
       </set>
       <set comment="band 7">
        <r>  0.0003  0.1090  0.0598  0.0004  0.0000  0.0000  0.0000  0.0000  0.0000 </r>
        <r>  0.0003  0.1090  0.0598  0.0004  0.0000  0.0000  0.0000  0.0000  0.0000 </r>
       </set>
       <set comment="band 8">
        <r>  0.0000  0.0602  0.1097  0.0000  0.0000  0.0000  0.0000  0.0000  0.0000 </r>
        <r>  0.0000  0.0602  0.1097  0.0000  0.0000  0.0000  0.0000  0.0000  0.0000 </r>
       </set>
      </set>
      <set comment="kpoint 41">
       <set comment="band 1">
        <r>  0.1988  0.0000  0.0000  0.0332  0.0000  0.0000  0.0000  0.0000  0.0000 </r>
        <r>  0.1988  0.0000  0.0000  0.0332  0.0000  0.0000  0.0000  0.0000  0.0000 </r>
       </set>
       <set comment="band 2">
        <r>  0.1864  0.0000  0.0000  0.0599  0.0000  0.0000  0.0000  0.0000  0.0000 </r>
        <r>  0.1864  0.0000  0.0000  0.0599  0.0000  0.0000  0.0000  0.0000  0.0000 </r>
       </set>
       <set comment="band 3">
        <r>  0.0000  0.0911  0.1068  0.0000  0.0000  0.0000  0.0000  0.0000  0.0000 </r>
        <r>  0.0000  0.0911  0.1068  0.0000  0.0000  0.0000  0.0000  0.0000  0.0000 </r>
       </set>
       <set comment="band 4">
        <r>  0.0000  0.1068  0.0911  0.0001  0.0000  0.0000  0.0000  0.0000  0.0000 </r>
        <r>  0.0000  0.1068  0.0911  0.0001  0.0000  0.0000  0.0000  0.0000  0.0000 </r>
       </set>
       <set comment="band 5">
        <r>  0.0533  0.0001  0.0001  0.0432  0.0000  0.0000  0.0000  0.0000  0.0000 </r>
        <r>  0.0533  0.0001  0.0001  0.0432  0.0000  0.0000  0.0000  0.0000  0.0000 </r>
       </set>
       <set comment="band 6">
        <r>  0.0479  0.0001  0.0000  0.0307  0.0000  0.0000  0.0000  0.0000  0.0000 </r>
        <r>  0.0479  0.0001  0.0000  0.0307  0.0000  0.0000  0.0000  0.0000  0.0000 </r>
       </set>
       <set comment="band 7">
        <r>  0.0002  0.1092  0.0598  0.0002  0.0000  0.0000  0.0000  0.0000  0.0000 </r>
        <r>  0.0002  0.1091  0.0600  0.0002  0.0000  0.0000  0.0000  0.0000  0.0000 </r>
       </set>
       <set comment="band 8">
        <r>  0.0000  0.0601  0.1097  0.0000  0.0000  0.0000  0.0000  0.0000  0.0000 </r>
        <r>  0.0000  0.0603  0.1095  0.0000  0.0000  0.0000  0.0000  0.0000  0.0000 </r>
       </set>
      </set>
      <set comment="kpoint 42">
       <set comment="band 1">
        <r>  0.1988  0.0000  0.0000  0.0332  0.0000  0.0000  0.0000  0.0000  0.0000 </r>
        <r>  0.1988  0.0000  0.0000  0.0332  0.0000  0.0000  0.0000  0.0000  0.0000 </r>
       </set>
       <set comment="band 2">
        <r>  0.1864  0.0000  0.0000  0.0599  0.0000  0.0000  0.0000  0.0000  0.0000 </r>
        <r>  0.1864  0.0000  0.0000  0.0599  0.0000  0.0000  0.0000  0.0000  0.0000 </r>
       </set>
       <set comment="band 3">
        <r>  0.0000  0.0912  0.1068  0.0000  0.0000  0.0000  0.0000  0.0000  0.0000 </r>
        <r>  0.0000  0.0912  0.1068  0.0000  0.0000  0.0000  0.0000  0.0000  0.0000 </r>
       </set>
       <set comment="band 4">
        <r>  0.0000  0.1068  0.0912  0.0000  0.0000  0.0000  0.0000  0.0000  0.0000 </r>
        <r>  0.0000  0.1068  0.0912  0.0000  0.0000  0.0000  0.0000  0.0000  0.0000 </r>
       </set>
       <set comment="band 5">
        <r>  0.0533  0.0001  0.0000  0.0432  0.0000  0.0000  0.0000  0.0000  0.0000 </r>
        <r>  0.0533  0.0001  0.0000  0.0432  0.0000  0.0000  0.0000  0.0000  0.0000 </r>
       </set>
       <set comment="band 6">
        <r>  0.0479  0.0000  0.0000  0.0307  0.0000  0.0000  0.0000  0.0000  0.0000 </r>
        <r>  0.0479  0.0000  0.0000  0.0307  0.0000  0.0000  0.0000  0.0000  0.0000 </r>
       </set>
       <set comment="band 7">
        <r>  0.0001  0.1094  0.0600  0.0001  0.0000  0.0000  0.0000  0.0000  0.0000 </r>
        <r>  0.0001  0.1093  0.0600  0.0001  0.0000  0.0000  0.0000  0.0000  0.0000 </r>
       </set>
       <set comment="band 8">
        <r>  0.0000  0.0602  0.1097  0.0000  0.0000  0.0000  0.0000  0.0000  0.0000 </r>
        <r>  0.0000  0.0602  0.1097  0.0000  0.0000  0.0000  0.0000  0.0000  0.0000 </r>
       </set>
      </set>
      <set comment="kpoint 43">
       <set comment="band 1">
        <r>  0.1988  0.0000  0.0000  0.0332  0.0000  0.0000  0.0000  0.0000  0.0000 </r>
        <r>  0.1988  0.0000  0.0000  0.0332  0.0000  0.0000  0.0000  0.0000  0.0000 </r>
       </set>
       <set comment="band 2">
        <r>  0.1864  0.0000  0.0000  0.0599  0.0000  0.0000  0.0000  0.0000  0.0000 </r>
        <r>  0.1864  0.0000  0.0000  0.0599  0.0000  0.0000  0.0000  0.0000  0.0000 </r>
       </set>
       <set comment="band 3">
        <r>  0.0000  0.0912  0.1068  0.0000  0.0000  0.0000  0.0000  0.0000  0.0000 </r>
        <r>  0.0000  0.0912  0.1068  0.0000  0.0000  0.0000  0.0000  0.0000  0.0000 </r>
       </set>
       <set comment="band 4">
        <r>  0.0000  0.1068  0.0912  0.0000  0.0000  0.0000  0.0000  0.0000  0.0000 </r>
        <r>  0.0000  0.1068  0.0912  0.0000  0.0000  0.0000  0.0000  0.0000  0.0000 </r>
       </set>
       <set comment="band 5">
        <r>  0.0533  0.0000  0.0000  0.0432  0.0000  0.0000  0.0000  0.0000  0.0000 </r>
        <r>  0.0533  0.0000  0.0000  0.0432  0.0000  0.0000  0.0000  0.0000  0.0000 </r>
       </set>
       <set comment="band 6">
        <r>  0.0479  0.0000  0.0000  0.0307  0.0000  0.0000  0.0000  0.0000  0.0000 </r>
        <r>  0.0479  0.0000  0.0000  0.0307  0.0000  0.0000  0.0000  0.0000  0.0000 </r>
       </set>
       <set comment="band 7">
        <r>  0.0001  0.1088  0.0608  0.0001  0.0000  0.0000  0.0000  0.0000  0.0000 </r>
        <r>  0.0001  0.1102  0.0594  0.0001  0.0000  0.0000  0.0000  0.0000  0.0000 </r>
       </set>
       <set comment="band 8">
        <r>  0.0000  0.0611  0.1090  0.0000  0.0000  0.0000  0.0000  0.0000  0.0000 </r>
        <r>  0.0000  0.0596  0.1105  0.0000  0.0000  0.0000  0.0000  0.0000  0.0000 </r>
       </set>
      </set>
      <set comment="kpoint 44">
       <set comment="band 1">
        <r>  0.1988  0.0000  0.0000  0.0332  0.0000  0.0000  0.0000  0.0000  0.0000 </r>
        <r>  0.1988  0.0000  0.0000  0.0332  0.0000  0.0000  0.0000  0.0000  0.0000 </r>
       </set>
       <set comment="band 2">
        <r>  0.1864  0.0000  0.0000  0.0599  0.0000  0.0000  0.0000  0.0000  0.0000 </r>
        <r>  0.1864  0.0000  0.0000  0.0599  0.0000  0.0000  0.0000  0.0000  0.0000 </r>
       </set>
       <set comment="band 3">
        <r>  0.0000  0.0912  0.1068  0.0000  0.0000  0.0000  0.0000  0.0000  0.0000 </r>
        <r>  0.0000  0.0912  0.1068  0.0000  0.0000  0.0000  0.0000  0.0000  0.0000 </r>
       </set>
       <set comment="band 4">
        <r>  0.0000  0.1068  0.0912  0.0000  0.0000  0.0000  0.0000  0.0000  0.0000 </r>
        <r>  0.0000  0.1068  0.0912  0.0000  0.0000  0.0000  0.0000  0.0000  0.0000 </r>
       </set>
       <set comment="band 5">
        <r>  0.0533  0.0000  0.0000  0.0432  0.0000  0.0000  0.0000  0.0000  0.0000 </r>
        <r>  0.0533  0.0000  0.0000  0.0432  0.0000  0.0000  0.0000  0.0000  0.0000 </r>
       </set>
       <set comment="band 6">
        <r>  0.0479  0.0000  0.0000  0.0307  0.0000  0.0000  0.0000  0.0000  0.0000 </r>
        <r>  0.0479  0.0000  0.0000  0.0307  0.0000  0.0000  0.0000  0.0000  0.0000 </r>
       </set>
       <set comment="band 7">
        <r>  0.0000  0.1097  0.0602  0.0000  0.0000  0.0000  0.0000  0.0000  0.0000 </r>
        <r>  0.0000  0.1097  0.0602  0.0000  0.0000  0.0000  0.0000  0.0000  0.0000 </r>
       </set>
       <set comment="band 8">
        <r>  0.0000  0.0602  0.1097  0.0000  0.0000  0.0000  0.0000  0.0000  0.0000 </r>
        <r>  0.0000  0.0603  0.1097  0.0000  0.0000  0.0000  0.0000  0.0000  0.0000 </r>
       </set>
      </set>
      <set comment="kpoint 45">
       <set comment="band 1">
        <r>  0.1988  0.0000  0.0000  0.0332  0.0000  0.0000  0.0000  0.0000  0.0000 </r>
        <r>  0.1988  0.0000  0.0000  0.0332  0.0000  0.0000  0.0000  0.0000  0.0000 </r>
       </set>
       <set comment="band 2">
        <r>  0.1864  0.0000  0.0000  0.0599  0.0000  0.0000  0.0000  0.0000  0.0000 </r>
        <r>  0.1864  0.0000  0.0000  0.0599  0.0000  0.0000  0.0000  0.0000  0.0000 </r>
       </set>
       <set comment="band 3">
        <r>  0.0000  0.0916  0.1064  0.0000  0.0000  0.0000  0.0000  0.0000  0.0000 </r>
        <r>  0.0000  0.0915  0.1065  0.0000  0.0000  0.0000  0.0000  0.0000  0.0000 </r>
       </set>
       <set comment="band 4">
        <r>  0.0000  0.1064  0.0916  0.0000  0.0000  0.0000  0.0000  0.0000  0.0000 </r>
        <r>  0.0000  0.1065  0.0915  0.0000  0.0000  0.0000  0.0000  0.0000  0.0000 </r>
       </set>
       <set comment="band 5">
        <r>  0.0533  0.0000  0.0000  0.0432  0.0000  0.0000  0.0000  0.0000  0.0000 </r>
        <r>  0.0533  0.0000  0.0000  0.0432  0.0000  0.0000  0.0000  0.0000  0.0000 </r>
       </set>
       <set comment="band 6">
        <r>  0.0479  0.0000  0.0000  0.0307  0.0000  0.0000  0.0000  0.0000  0.0000 </r>
        <r>  0.0479  0.0000  0.0000  0.0307  0.0000  0.0000  0.0000  0.0000  0.0000 </r>
       </set>
       <set comment="band 7">
        <r>  0.0000  0.1224  0.0475  0.0000  0.0000  0.0000  0.0000  0.0000  0.0000 </r>
        <r>  0.0000  0.0962  0.0738  0.0000  0.0000  0.0000  0.0000  0.0000  0.0000 </r>
       </set>
       <set comment="band 8">
        <r>  0.0000  0.0475  0.1224  0.0000  0.0000  0.0000  0.0000  0.0000  0.0000 </r>
        <r>  0.0000  0.0737  0.0961  0.0000  0.0000  0.0000  0.0000  0.0000  0.0000 </r>
       </set>
      </set>
      <set comment="kpoint 46">
       <set comment="band 1">
        <r>  0.1988  0.0000  0.0000  0.0332  0.0000  0.0000  0.0000  0.0000  0.0000 </r>
        <r>  0.1988  0.0000  0.0000  0.0332  0.0000  0.0000  0.0000  0.0000  0.0000 </r>
       </set>
       <set comment="band 2">
        <r>  0.1864  0.0000  0.0000  0.0599  0.0000  0.0000  0.0000  0.0000  0.0000 </r>
        <r>  0.1864  0.0000  0.0000  0.0599  0.0000  0.0000  0.0000  0.0000  0.0000 </r>
       </set>
       <set comment="band 3">
        <r>  0.0000  0.0918  0.1062  0.0000  0.0000  0.0000  0.0000  0.0000  0.0000 </r>
        <r>  0.0000  0.0917  0.1063  0.0000  0.0000  0.0000  0.0000  0.0000  0.0000 </r>
       </set>
       <set comment="band 4">
        <r>  0.0000  0.1062  0.0918  0.0000  0.0000  0.0000  0.0000  0.0000  0.0000 </r>
        <r>  0.0000  0.1063  0.0917  0.0000  0.0000  0.0000  0.0000  0.0000  0.0000 </r>
       </set>
       <set comment="band 5">
        <r>  0.0533  0.0000  0.0000  0.0432  0.0000  0.0000  0.0000  0.0000  0.0000 </r>
        <r>  0.0533  0.0000  0.0000  0.0432  0.0000  0.0000  0.0000  0.0000  0.0000 </r>
       </set>
       <set comment="band 6">
        <r>  0.0479  0.0000  0.0000  0.0307  0.0000  0.0000  0.0000  0.0000  0.0000 </r>
        <r>  0.0479  0.0000  0.0000  0.0307  0.0000  0.0000  0.0000  0.0000  0.0000 </r>
       </set>
       <set comment="band 7">
        <r>  0.0000  0.0972  0.0728  0.0000  0.0000  0.0000  0.0000  0.0000  0.0000 </r>
        <r>  0.0000  0.1216  0.0483  0.0000  0.0000  0.0000  0.0000  0.0000  0.0000 </r>
       </set>
       <set comment="band 8">
        <r>  0.0000  0.0728  0.0972  0.0000  0.0000  0.0000  0.0000  0.0000  0.0000 </r>
        <r>  0.0000  0.0483  0.1216  0.0000  0.0000  0.0000  0.0000  0.0000  0.0000 </r>
       </set>
      </set>
      <set comment="kpoint 47">
       <set comment="band 1">
        <r>  0.1988  0.0000  0.0000  0.0332  0.0000  0.0000  0.0000  0.0000  0.0000 </r>
        <r>  0.1988  0.0000  0.0000  0.0332  0.0000  0.0000  0.0000  0.0000  0.0000 </r>
       </set>
       <set comment="band 2">
        <r>  0.1864  0.0000  0.0000  0.0599  0.0000  0.0000  0.0000  0.0000  0.0000 </r>
        <r>  0.1864  0.0000  0.0000  0.0599  0.0000  0.0000  0.0000  0.0000  0.0000 </r>
       </set>
       <set comment="band 3">
        <r>  0.0000  0.0913  0.1068  0.0000  0.0000  0.0000  0.0000  0.0000  0.0000 </r>
        <r>  0.0000  0.0912  0.1068  0.0000  0.0000  0.0000  0.0000  0.0000  0.0000 </r>
       </set>
       <set comment="band 4">
        <r>  0.0000  0.1068  0.0913  0.0000  0.0000  0.0000  0.0000  0.0000  0.0000 </r>
        <r>  0.0000  0.1068  0.0912  0.0000  0.0000  0.0000  0.0000  0.0000  0.0000 </r>
       </set>
       <set comment="band 5">
        <r>  0.0533  0.0000  0.0000  0.0432  0.0000  0.0000  0.0000  0.0000  0.0000 </r>
        <r>  0.0533  0.0000  0.0000  0.0432  0.0000  0.0000  0.0000  0.0000  0.0000 </r>
       </set>
       <set comment="band 6">
        <r>  0.0479  0.0000  0.0000  0.0307  0.0000  0.0000  0.0000  0.0000  0.0000 </r>
        <r>  0.0479  0.0000  0.0000  0.0307  0.0000  0.0000  0.0000  0.0000  0.0000 </r>
       </set>
       <set comment="band 7">
        <r>  0.0000  0.1109  0.0590  0.0000  0.0000  0.0000  0.0000  0.0000  0.0000 </r>
        <r>  0.0000  0.1084  0.0614  0.0000  0.0000  0.0000  0.0000  0.0000  0.0000 </r>
       </set>
       <set comment="band 8">
        <r>  0.0000  0.0590  0.1110  0.0000  0.0000  0.0000  0.0000  0.0000  0.0000 </r>
        <r>  0.0000  0.0615  0.1084  0.0000  0.0000  0.0000  0.0000  0.0000  0.0000 </r>
       </set>
      </set>
      <set comment="kpoint 48">
       <set comment="band 1">
        <r>  0.1988  0.0000  0.0000  0.0332  0.0000  0.0000  0.0000  0.0000  0.0000 </r>
        <r>  0.1988  0.0000  0.0000  0.0332  0.0000  0.0000  0.0000  0.0000  0.0000 </r>
       </set>
       <set comment="band 2">
        <r>  0.1864  0.0000  0.0000  0.0599  0.0000  0.0000  0.0000  0.0000  0.0000 </r>
        <r>  0.1864  0.0000  0.0000  0.0599  0.0000  0.0000  0.0000  0.0000  0.0000 </r>
       </set>
       <set comment="band 3">
        <r>  0.0000  0.0912  0.1068  0.0000  0.0000  0.0000  0.0000  0.0000  0.0000 </r>
        <r>  0.0000  0.0912  0.1068  0.0000  0.0000  0.0000  0.0000  0.0000  0.0000 </r>
       </set>
       <set comment="band 4">
        <r>  0.0000  0.1068  0.0912  0.0000  0.0000  0.0000  0.0000  0.0000  0.0000 </r>
        <r>  0.0000  0.1068  0.0912  0.0000  0.0000  0.0000  0.0000  0.0000  0.0000 </r>
       </set>
       <set comment="band 5">
        <r>  0.0533  0.0000  0.0000  0.0432  0.0000  0.0000  0.0000  0.0000  0.0000 </r>
        <r>  0.0533  0.0000  0.0000  0.0432  0.0000  0.0000  0.0000  0.0000  0.0000 </r>
       </set>
       <set comment="band 6">
        <r>  0.0479  0.0000  0.0000  0.0307  0.0000  0.0000  0.0000  0.0000  0.0000 </r>
        <r>  0.0479  0.0000  0.0000  0.0307  0.0000  0.0000  0.0000  0.0000  0.0000 </r>
       </set>
       <set comment="band 7">
        <r>  0.0001  0.1108  0.0589  0.0001  0.0000  0.0000  0.0000  0.0000  0.0000 </r>
        <r>  0.0001  0.1083  0.0614  0.0001  0.0000  0.0000  0.0000  0.0000  0.0000 </r>
       </set>
       <set comment="band 8">
        <r>  0.0000  0.0590  0.1111  0.0000  0.0000  0.0000  0.0000  0.0000  0.0000 </r>
        <r>  0.0000  0.0617  0.1082  0.0000  0.0000  0.0000  0.0000  0.0000  0.0000 </r>
       </set>
      </set>
      <set comment="kpoint 49">
       <set comment="band 1">
        <r>  0.1988  0.0000  0.0000  0.0332  0.0000  0.0000  0.0000  0.0000  0.0000 </r>
        <r>  0.1988  0.0000  0.0000  0.0332  0.0000  0.0000  0.0000  0.0000  0.0000 </r>
       </set>
       <set comment="band 2">
        <r>  0.1864  0.0000  0.0000  0.0599  0.0000  0.0000  0.0000  0.0000  0.0000 </r>
        <r>  0.1864  0.0000  0.0000  0.0599  0.0000  0.0000  0.0000  0.0000  0.0000 </r>
       </set>
       <set comment="band 3">
        <r>  0.0000  0.0912  0.1068  0.0000  0.0000  0.0000  0.0000  0.0000  0.0000 </r>
        <r>  0.0000  0.0912  0.1068  0.0000  0.0000  0.0000  0.0000  0.0000  0.0000 </r>
       </set>
       <set comment="band 4">
        <r>  0.0000  0.1068  0.0912  0.0000  0.0000  0.0000  0.0000  0.0000  0.0000 </r>
        <r>  0.0000  0.1068  0.0912  0.0000  0.0000  0.0000  0.0000  0.0000  0.0000 </r>
       </set>
       <set comment="band 5">
        <r>  0.0533  0.0001  0.0000  0.0432  0.0000  0.0000  0.0000  0.0000  0.0000 </r>
        <r>  0.0533  0.0001  0.0000  0.0432  0.0000  0.0000  0.0000  0.0000  0.0000 </r>
       </set>
       <set comment="band 6">
        <r>  0.0479  0.0000  0.0000  0.0307  0.0000  0.0000  0.0000  0.0000  0.0000 </r>
        <r>  0.0479  0.0000  0.0000  0.0307  0.0000  0.0000  0.0000  0.0000  0.0000 </r>
       </set>
       <set comment="band 7">
        <r>  0.0001  0.1094  0.0600  0.0001  0.0000  0.0000  0.0000  0.0000  0.0000 </r>
        <r>  0.0001  0.1093  0.0601  0.0001  0.0000  0.0000  0.0000  0.0000  0.0000 </r>
       </set>
       <set comment="band 8">
        <r>  0.0000  0.0602  0.1097  0.0000  0.0000  0.0000  0.0000  0.0000  0.0000 </r>
        <r>  0.0000  0.0602  0.1097  0.0000  0.0000  0.0000  0.0000  0.0000  0.0000 </r>
       </set>
      </set>
      <set comment="kpoint 50">
       <set comment="band 1">
        <r>  0.1988  0.0000  0.0000  0.0332  0.0000  0.0000  0.0000  0.0000  0.0000 </r>
        <r>  0.1988  0.0000  0.0000  0.0332  0.0000  0.0000  0.0000  0.0000  0.0000 </r>
       </set>
       <set comment="band 2">
        <r>  0.1864  0.0000  0.0000  0.0599  0.0000  0.0000  0.0000  0.0000  0.0000 </r>
        <r>  0.1864  0.0000  0.0000  0.0599  0.0000  0.0000  0.0000  0.0000  0.0000 </r>
       </set>
       <set comment="band 3">
        <r>  0.0000  0.0911  0.1067  0.0000  0.0000  0.0000  0.0000  0.0000  0.0000 </r>
        <r>  0.0000  0.0911  0.1067  0.0000  0.0000  0.0000  0.0000  0.0000  0.0000 </r>
       </set>
       <set comment="band 4">
        <r>  0.0000  0.1068  0.0911  0.0001  0.0000  0.0000  0.0000  0.0000  0.0000 </r>
        <r>  0.0000  0.1068  0.0911  0.0001  0.0000  0.0000  0.0000  0.0000  0.0000 </r>
       </set>
       <set comment="band 5">
        <r>  0.0533  0.0001  0.0001  0.0432  0.0000  0.0000  0.0000  0.0000  0.0000 </r>
        <r>  0.0533  0.0001  0.0001  0.0432  0.0000  0.0000  0.0000  0.0000  0.0000 </r>
       </set>
       <set comment="band 6">
        <r>  0.0479  0.0001  0.0000  0.0307  0.0000  0.0000  0.0000  0.0000  0.0000 </r>
        <r>  0.0479  0.0001  0.0000  0.0307  0.0000  0.0000  0.0000  0.0000  0.0000 </r>
       </set>
       <set comment="band 7">
        <r>  0.0002  0.1092  0.0600  0.0002  0.0000  0.0000  0.0000  0.0000  0.0000 </r>
        <r>  0.0002  0.1092  0.0599  0.0003  0.0000  0.0000  0.0000  0.0000  0.0000 </r>
       </set>
       <set comment="band 8">
        <r>  0.0000  0.0603  0.1096  0.0000  0.0000  0.0000  0.0000  0.0000  0.0000 </r>
        <r>  0.0000  0.0602  0.1097  0.0000  0.0000  0.0000  0.0000  0.0000  0.0000 </r>
       </set>
      </set>
      <set comment="kpoint 51">
       <set comment="band 1">
        <r>  0.1988  0.0000  0.0000  0.0332  0.0000  0.0000  0.0000  0.0000  0.0000 </r>
        <r>  0.1988  0.0000  0.0000  0.0332  0.0000  0.0000  0.0000  0.0000  0.0000 </r>
       </set>
       <set comment="band 2">
        <r>  0.1864  0.0000  0.0000  0.0599  0.0000  0.0000  0.0000  0.0000  0.0000 </r>
        <r>  0.1864  0.0000  0.0000  0.0599  0.0000  0.0000  0.0000  0.0000  0.0000 </r>
       </set>
       <set comment="band 3">
        <r>  0.0000  0.0911  0.1067  0.0001  0.0000  0.0000  0.0000  0.0000  0.0000 </r>
        <r>  0.0000  0.0911  0.1067  0.0001  0.0000  0.0000  0.0000  0.0000  0.0000 </r>
       </set>
       <set comment="band 4">
        <r>  0.0000  0.1068  0.0911  0.0001  0.0000  0.0000  0.0000  0.0000  0.0000 </r>
        <r>  0.0000  0.1068  0.0911  0.0001  0.0000  0.0000  0.0000  0.0000  0.0000 </r>
       </set>
       <set comment="band 5">
        <r>  0.0533  0.0001  0.0001  0.0431  0.0000  0.0000  0.0000  0.0000  0.0000 </r>
        <r>  0.0533  0.0001  0.0001  0.0431  0.0000  0.0000  0.0000  0.0000  0.0000 </r>
       </set>
       <set comment="band 6">
        <r>  0.0479  0.0001  0.0001  0.0307  0.0000  0.0000  0.0000  0.0000  0.0000 </r>
        <r>  0.0479  0.0001  0.0001  0.0307  0.0000  0.0000  0.0000  0.0000  0.0000 </r>
       </set>
       <set comment="band 7">
        <r>  0.0003  0.1090  0.0598  0.0004  0.0000  0.0000  0.0000  0.0000  0.0000 </r>
        <r>  0.0003  0.1090  0.0599  0.0004  0.0000  0.0000  0.0000  0.0000  0.0000 </r>
       </set>
       <set comment="band 8">
        <r>  0.0000  0.0602  0.1097  0.0000  0.0000  0.0000  0.0000  0.0000  0.0000 </r>
        <r>  0.0000  0.0603  0.1096  0.0000  0.0000  0.0000  0.0000  0.0000  0.0000 </r>
       </set>
      </set>
      <set comment="kpoint 52">
       <set comment="band 1">
        <r>  0.1988  0.0000  0.0000  0.0332  0.0000  0.0000  0.0000  0.0000  0.0000 </r>
        <r>  0.1988  0.0000  0.0000  0.0332  0.0000  0.0000  0.0000  0.0000  0.0000 </r>
       </set>
       <set comment="band 2">
        <r>  0.1864  0.0000  0.0000  0.0599  0.0000  0.0000  0.0000  0.0000  0.0000 </r>
        <r>  0.1864  0.0000  0.0000  0.0599  0.0000  0.0000  0.0000  0.0000  0.0000 </r>
       </set>
       <set comment="band 3">
        <r>  0.0001  0.0911  0.1067  0.0001  0.0000  0.0000  0.0000  0.0000  0.0000 </r>
        <r>  0.0001  0.0911  0.1067  0.0001  0.0000  0.0000  0.0000  0.0000  0.0000 </r>
       </set>
       <set comment="band 4">
        <r>  0.0000  0.1067  0.0911  0.0001  0.0000  0.0000  0.0000  0.0000  0.0000 </r>
        <r>  0.0000  0.1067  0.0911  0.0001  0.0000  0.0000  0.0000  0.0000  0.0000 </r>
       </set>
       <set comment="band 5">
        <r>  0.0532  0.0002  0.0002  0.0431  0.0000  0.0000  0.0000  0.0000  0.0000 </r>
        <r>  0.0532  0.0002  0.0002  0.0431  0.0000  0.0000  0.0000  0.0000  0.0000 </r>
       </set>
       <set comment="band 6">
        <r>  0.0478  0.0001  0.0001  0.0307  0.0000  0.0000  0.0000  0.0000  0.0000 </r>
        <r>  0.0478  0.0001  0.0001  0.0307  0.0000  0.0000  0.0000  0.0000  0.0000 </r>
       </set>
       <set comment="band 7">
        <r>  0.0004  0.1087  0.0596  0.0005  0.0000  0.0000  0.0000  0.0000  0.0000 </r>
        <r>  0.0004  0.1087  0.0597  0.0005  0.0000  0.0000  0.0000  0.0000  0.0000 </r>
       </set>
       <set comment="band 8">
        <r>  0.0000  0.0602  0.1098  0.0000  0.0000  0.0000  0.0000  0.0000  0.0000 </r>
        <r>  0.0000  0.0603  0.1096  0.0000  0.0000  0.0000  0.0000  0.0000  0.0000 </r>
       </set>
      </set>
      <set comment="kpoint 53">
       <set comment="band 1">
        <r>  0.1988  0.0000  0.0000  0.0332  0.0000  0.0000  0.0000  0.0000  0.0000 </r>
        <r>  0.1988  0.0000  0.0000  0.0332  0.0000  0.0000  0.0000  0.0000  0.0000 </r>
       </set>
       <set comment="band 2">
        <r>  0.1864  0.0000  0.0000  0.0599  0.0000  0.0000  0.0000  0.0000  0.0000 </r>
        <r>  0.1864  0.0000  0.0000  0.0599  0.0000  0.0000  0.0000  0.0000  0.0000 </r>
       </set>
       <set comment="band 3">
        <r>  0.0001  0.0910  0.1066  0.0001  0.0000  0.0000  0.0000  0.0000  0.0000 </r>
        <r>  0.0001  0.0910  0.1066  0.0001  0.0000  0.0000  0.0000  0.0000  0.0000 </r>
       </set>
       <set comment="band 4">
        <r>  0.0000  0.1067  0.0910  0.0001  0.0000  0.0000  0.0000  0.0000  0.0000 </r>
        <r>  0.0000  0.1067  0.0910  0.0001  0.0000  0.0000  0.0000  0.0000  0.0000 </r>
       </set>
       <set comment="band 5">
        <r>  0.0532  0.0002  0.0002  0.0431  0.0000  0.0000  0.0000  0.0000  0.0000 </r>
        <r>  0.0532  0.0002  0.0002  0.0431  0.0000  0.0000  0.0000  0.0000  0.0000 </r>
       </set>
       <set comment="band 6">
        <r>  0.0478  0.0002  0.0001  0.0307  0.0000  0.0000  0.0000  0.0000  0.0000 </r>
        <r>  0.0478  0.0002  0.0001  0.0307  0.0000  0.0000  0.0000  0.0000  0.0000 </r>
       </set>
       <set comment="band 7">
        <r>  0.0006  0.1084  0.0595  0.0007  0.0000  0.0000  0.0000  0.0000  0.0000 </r>
        <r>  0.0006  0.1084  0.0595  0.0007  0.0000  0.0000  0.0000  0.0000  0.0000 </r>
       </set>
       <set comment="band 8">
        <r>  0.0000  0.0602  0.1096  0.0000  0.0000  0.0000  0.0000  0.0000  0.0000 </r>
        <r>  0.0000  0.0602  0.1096  0.0000  0.0000  0.0000  0.0000  0.0000  0.0000 </r>
       </set>
      </set>
      <set comment="kpoint 54">
       <set comment="band 1">
        <r>  0.1988  0.0000  0.0000  0.0332  0.0000  0.0000  0.0000  0.0000  0.0000 </r>
        <r>  0.1988  0.0000  0.0000  0.0332  0.0000  0.0000  0.0000  0.0000  0.0000 </r>
       </set>
       <set comment="band 2">
        <r>  0.1864  0.0000  0.0001  0.0599  0.0000  0.0000  0.0000  0.0000  0.0000 </r>
        <r>  0.1864  0.0000  0.0001  0.0599  0.0000  0.0000  0.0000  0.0000  0.0000 </r>
       </set>
       <set comment="band 3">
        <r>  0.0001  0.0910  0.1066  0.0002  0.0000  0.0000  0.0000  0.0000  0.0000 </r>
        <r>  0.0001  0.0910  0.1066  0.0002  0.0000  0.0000  0.0000  0.0000  0.0000 </r>
       </set>
       <set comment="band 4">
        <r>  0.0000  0.1066  0.0910  0.0002  0.0000  0.0000  0.0000  0.0000  0.0000 </r>
        <r>  0.0000  0.1066  0.0910  0.0002  0.0000  0.0000  0.0000  0.0000  0.0000 </r>
       </set>
       <set comment="band 5">
        <r>  0.0532  0.0003  0.0003  0.0431  0.0000  0.0000  0.0000  0.0000  0.0000 </r>
        <r>  0.0532  0.0003  0.0003  0.0431  0.0000  0.0000  0.0000  0.0000  0.0000 </r>
       </set>
       <set comment="band 6">
        <r>  0.0478  0.0002  0.0001  0.0307  0.0000  0.0000  0.0000  0.0000  0.0000 </r>
        <r>  0.0478  0.0002  0.0001  0.0307  0.0000  0.0000  0.0000  0.0000  0.0000 </r>
       </set>
       <set comment="band 7">
        <r>  0.0007  0.1080  0.0592  0.0008  0.0000  0.0000  0.0000  0.0000  0.0000 </r>
        <r>  0.0007  0.1079  0.0592  0.0008  0.0000  0.0000  0.0000  0.0000  0.0000 </r>
       </set>
       <set comment="band 8">
        <r>  0.0000  0.0602  0.1097  0.0000  0.0000  0.0000  0.0000  0.0000  0.0000 </r>
        <r>  0.0000  0.0602  0.1097  0.0000  0.0000  0.0000  0.0000  0.0000  0.0000 </r>
       </set>
      </set>
      <set comment="kpoint 55">
       <set comment="band 1">
        <r>  0.1988  0.0000  0.0000  0.0332  0.0000  0.0000  0.0000  0.0000  0.0000 </r>
        <r>  0.1988  0.0000  0.0000  0.0332  0.0000  0.0000  0.0000  0.0000  0.0000 </r>
       </set>
       <set comment="band 2">
        <r>  0.1864  0.0000  0.0001  0.0598  0.0000  0.0000  0.0000  0.0000  0.0000 </r>
        <r>  0.1864  0.0000  0.0001  0.0598  0.0000  0.0000  0.0000  0.0000  0.0000 </r>
       </set>
       <set comment="band 3">
        <r>  0.0001  0.0909  0.1065  0.0002  0.0000  0.0000  0.0000  0.0000  0.0000 </r>
        <r>  0.0001  0.0909  0.1065  0.0002  0.0000  0.0000  0.0000  0.0000  0.0000 </r>
       </set>
       <set comment="band 4">
        <r>  0.0000  0.1066  0.0909  0.0002  0.0000  0.0000  0.0000  0.0000  0.0000 </r>
        <r>  0.0000  0.1066  0.0909  0.0002  0.0000  0.0000  0.0000  0.0000  0.0000 </r>
       </set>
       <set comment="band 5">
        <r>  0.0531  0.0004  0.0003  0.0430  0.0000  0.0000  0.0000  0.0000  0.0000 </r>
        <r>  0.0531  0.0004  0.0003  0.0430  0.0000  0.0000  0.0000  0.0000  0.0000 </r>
       </set>
       <set comment="band 6">
        <r>  0.0478  0.0003  0.0002  0.0306  0.0000  0.0000  0.0000  0.0000  0.0000 </r>
        <r>  0.0478  0.0003  0.0002  0.0306  0.0000  0.0000  0.0000  0.0000  0.0000 </r>
       </set>
       <set comment="band 7">
        <r>  0.0009  0.1076  0.0591  0.0010  0.0000  0.0000  0.0000  0.0000  0.0000 </r>
        <r>  0.0009  0.1077  0.0591  0.0010  0.0000  0.0000  0.0000  0.0000  0.0000 </r>
       </set>
       <set comment="band 8">
        <r>  0.0000  0.0602  0.1096  0.0000  0.0000  0.0000  0.0000  0.0000  0.0000 </r>
        <r>  0.0000  0.0602  0.1097  0.0000  0.0000  0.0000  0.0000  0.0000  0.0000 </r>
       </set>
      </set>
      <set comment="kpoint 56">
       <set comment="band 1">
        <r>  0.1988  0.0000  0.0000  0.0332  0.0000  0.0000  0.0000  0.0000  0.0000 </r>
        <r>  0.1988  0.0000  0.0000  0.0332  0.0000  0.0000  0.0000  0.0000  0.0000 </r>
       </set>
       <set comment="band 2">
        <r>  0.1864  0.0000  0.0001  0.0598  0.0000  0.0000  0.0000  0.0000  0.0000 </r>
        <r>  0.1864  0.0000  0.0001  0.0598  0.0000  0.0000  0.0000  0.0000  0.0000 </r>
       </set>
       <set comment="band 3">
        <r>  0.0002  0.0908  0.1064  0.0003  0.0000  0.0000  0.0000  0.0000  0.0000 </r>
        <r>  0.0002  0.0908  0.1064  0.0003  0.0000  0.0000  0.0000  0.0000  0.0000 </r>
       </set>
       <set comment="band 4">
        <r>  0.0000  0.1065  0.0909  0.0003  0.0000  0.0000  0.0000  0.0000  0.0000 </r>
        <r>  0.0000  0.1065  0.0909  0.0003  0.0000  0.0000  0.0000  0.0000  0.0000 </r>
       </set>
       <set comment="band 5">
        <r>  0.0531  0.0005  0.0004  0.0430  0.0000  0.0000  0.0000  0.0000  0.0000 </r>
        <r>  0.0531  0.0005  0.0004  0.0430  0.0000  0.0000  0.0000  0.0000  0.0000 </r>
       </set>
       <set comment="band 6">
        <r>  0.0478  0.0003  0.0002  0.0306  0.0000  0.0000  0.0000  0.0000  0.0000 </r>
        <r>  0.0478  0.0003  0.0002  0.0306  0.0000  0.0000  0.0000  0.0000  0.0000 </r>
       </set>
       <set comment="band 7">
        <r>  0.0011  0.1072  0.0588  0.0013  0.0000  0.0000  0.0000  0.0000  0.0000 </r>
        <r>  0.0011  0.1072  0.0588  0.0013  0.0000  0.0000  0.0000  0.0000  0.0000 </r>
       </set>
       <set comment="band 8">
        <r>  0.0000  0.0602  0.1096  0.0000  0.0000  0.0000  0.0000  0.0000  0.0000 </r>
        <r>  0.0000  0.0602  0.1096  0.0000  0.0000  0.0000  0.0000  0.0000  0.0000 </r>
       </set>
      </set>
      <set comment="kpoint 57">
       <set comment="band 1">
        <r>  0.1989  0.0000  0.0000  0.0332  0.0000  0.0000  0.0000  0.0000  0.0000 </r>
        <r>  0.1989  0.0000  0.0000  0.0332  0.0000  0.0000  0.0000  0.0000  0.0000 </r>
       </set>
       <set comment="band 2">
        <r>  0.1865  0.0000  0.0001  0.0598  0.0000  0.0000  0.0000  0.0000  0.0000 </r>
        <r>  0.1865  0.0000  0.0001  0.0598  0.0000  0.0000  0.0000  0.0000  0.0000 </r>
       </set>
       <set comment="band 3">
        <r>  0.0002  0.0907  0.1063  0.0003  0.0000  0.0000  0.0000  0.0000  0.0000 </r>
        <r>  0.0002  0.0907  0.1063  0.0003  0.0000  0.0000  0.0000  0.0000  0.0000 </r>
       </set>
       <set comment="band 4">
        <r>  0.0000  0.1065  0.0908  0.0003  0.0000  0.0000  0.0000  0.0000  0.0000 </r>
        <r>  0.0000  0.1065  0.0908  0.0003  0.0000  0.0000  0.0000  0.0000  0.0000 </r>
       </set>
       <set comment="band 5">
        <r>  0.0530  0.0006  0.0005  0.0430  0.0000  0.0000  0.0000  0.0000  0.0000 </r>
        <r>  0.0530  0.0006  0.0005  0.0430  0.0000  0.0000  0.0000  0.0000  0.0000 </r>
       </set>
       <set comment="band 6">
        <r>  0.0478  0.0004  0.0003  0.0306  0.0000  0.0000  0.0000  0.0000  0.0000 </r>
        <r>  0.0478  0.0004  0.0003  0.0306  0.0000  0.0000  0.0000  0.0000  0.0000 </r>
       </set>
       <set comment="band 7">
        <r>  0.0013  0.1068  0.0586  0.0015  0.0000  0.0000  0.0000  0.0000  0.0000 </r>
        <r>  0.0013  0.1068  0.0585  0.0015  0.0000  0.0000  0.0000  0.0000  0.0000 </r>
       </set>
       <set comment="band 8">
        <r>  0.0000  0.0602  0.1096  0.0001  0.0000  0.0000  0.0000  0.0000  0.0000 </r>
        <r>  0.0000  0.0602  0.1096  0.0001  0.0000  0.0000  0.0000  0.0000  0.0000 </r>
       </set>
      </set>
      <set comment="kpoint 58">
       <set comment="band 1">
        <r>  0.1989  0.0000  0.0000  0.0332  0.0000  0.0000  0.0000  0.0000  0.0000 </r>
        <r>  0.1989  0.0000  0.0000  0.0332  0.0000  0.0000  0.0000  0.0000  0.0000 </r>
       </set>
       <set comment="band 2">
        <r>  0.1865  0.0000  0.0001  0.0598  0.0000  0.0000  0.0000  0.0000  0.0000 </r>
        <r>  0.1865  0.0000  0.0001  0.0598  0.0000  0.0000  0.0000  0.0000  0.0000 </r>
       </set>
       <set comment="band 3">
        <r>  0.0002  0.0906  0.1062  0.0004  0.0000  0.0000  0.0000  0.0000  0.0000 </r>
        <r>  0.0002  0.0906  0.1062  0.0004  0.0000  0.0000  0.0000  0.0000  0.0000 </r>
       </set>
       <set comment="band 4">
        <r>  0.0000  0.1064  0.0907  0.0004  0.0000  0.0000  0.0000  0.0000  0.0000 </r>
        <r>  0.0000  0.1064  0.0907  0.0004  0.0000  0.0000  0.0000  0.0000  0.0000 </r>
       </set>
       <set comment="band 5">
        <r>  0.0530  0.0007  0.0006  0.0429  0.0000  0.0000  0.0000  0.0000  0.0000 </r>
        <r>  0.0530  0.0007  0.0006  0.0429  0.0000  0.0000  0.0000  0.0000  0.0000 </r>
       </set>
       <set comment="band 6">
        <r>  0.0477  0.0005  0.0003  0.0306  0.0000  0.0000  0.0000  0.0000  0.0000 </r>
        <r>  0.0477  0.0005  0.0003  0.0306  0.0000  0.0000  0.0000  0.0000  0.0000 </r>
       </set>
       <set comment="band 7">
        <r>  0.0015  0.1064  0.0583  0.0017  0.0000  0.0000  0.0000  0.0000  0.0000 </r>
        <r>  0.0015  0.1063  0.0583  0.0017  0.0000  0.0000  0.0000  0.0000  0.0000 </r>
       </set>
       <set comment="band 8">
        <r>  0.0000  0.0601  0.1096  0.0001  0.0000  0.0000  0.0000  0.0000  0.0000 </r>
        <r>  0.0000  0.0601  0.1094  0.0001  0.0000  0.0000  0.0000  0.0000  0.0000 </r>
       </set>
      </set>
      <set comment="kpoint 59">
       <set comment="band 1">
        <r>  0.1989  0.0000  0.0000  0.0332  0.0000  0.0000  0.0000  0.0000  0.0000 </r>
        <r>  0.1989  0.0000  0.0000  0.0332  0.0000  0.0000  0.0000  0.0000  0.0000 </r>
       </set>
       <set comment="band 2">
        <r>  0.1865  0.0000  0.0001  0.0597  0.0000  0.0000  0.0000  0.0000  0.0000 </r>
        <r>  0.1865  0.0000  0.0001  0.0597  0.0000  0.0000  0.0000  0.0000  0.0000 </r>
       </set>
       <set comment="band 3">
        <r>  0.0003  0.0905  0.1061  0.0004  0.0000  0.0000  0.0000  0.0000  0.0000 </r>
        <r>  0.0003  0.0905  0.1061  0.0004  0.0000  0.0000  0.0000  0.0000  0.0000 </r>
       </set>
       <set comment="band 4">
        <r>  0.0000  0.1063  0.0907  0.0005  0.0000  0.0000  0.0000  0.0000  0.0000 </r>
        <r>  0.0000  0.1063  0.0907  0.0005  0.0000  0.0000  0.0000  0.0000  0.0000 </r>
       </set>
       <set comment="band 5">
        <r>  0.0529  0.0008  0.0007  0.0429  0.0000  0.0000  0.0000  0.0000  0.0000 </r>
        <r>  0.0529  0.0008  0.0007  0.0429  0.0000  0.0000  0.0000  0.0000  0.0000 </r>
       </set>
       <set comment="band 6">
        <r>  0.0477  0.0006  0.0004  0.0305  0.0000  0.0000  0.0000  0.0000  0.0000 </r>
        <r>  0.0477  0.0006  0.0004  0.0305  0.0000  0.0000  0.0000  0.0000  0.0000 </r>
       </set>
       <set comment="band 7">
        <r>  0.0018  0.1058  0.0580  0.0020  0.0000  0.0000  0.0000  0.0000  0.0000 </r>
        <r>  0.0018  0.1058  0.0580  0.0020  0.0000  0.0000  0.0000  0.0000  0.0000 </r>
       </set>
       <set comment="band 8">
        <r>  0.0000  0.0602  0.1096  0.0001  0.0000  0.0000  0.0000  0.0000  0.0000 </r>
        <r>  0.0000  0.0603  0.1096  0.0001  0.0000  0.0000  0.0000  0.0000  0.0000 </r>
       </set>
      </set>
      <set comment="kpoint 60">
       <set comment="band 1">
        <r>  0.1989  0.0000  0.0000  0.0331  0.0000  0.0000  0.0000  0.0000  0.0000 </r>
        <r>  0.1989  0.0000  0.0000  0.0331  0.0000  0.0000  0.0000  0.0000  0.0000 </r>
       </set>
       <set comment="band 2">
        <r>  0.1865  0.0000  0.0002  0.0597  0.0000  0.0000  0.0000  0.0000  0.0000 </r>
        <r>  0.1865  0.0000  0.0002  0.0597  0.0000  0.0000  0.0000  0.0000  0.0000 </r>
       </set>
       <set comment="band 3">
        <r>  0.0003  0.0904  0.1060  0.0005  0.0000  0.0000  0.0000  0.0000  0.0000 </r>
        <r>  0.0003  0.0904  0.1060  0.0005  0.0000  0.0000  0.0000  0.0000  0.0000 </r>
       </set>
       <set comment="band 4">
        <r>  0.0000  0.1063  0.0906  0.0005  0.0000  0.0000  0.0000  0.0000  0.0000 </r>
        <r>  0.0000  0.1063  0.0906  0.0005  0.0000  0.0000  0.0000  0.0000  0.0000 </r>
       </set>
       <set comment="band 5">
        <r>  0.0528  0.0009  0.0007  0.0428  0.0000  0.0000  0.0000  0.0000  0.0000 </r>
        <r>  0.0528  0.0009  0.0007  0.0428  0.0000  0.0000  0.0000  0.0000  0.0000 </r>
       </set>
       <set comment="band 6">
        <r>  0.0477  0.0007  0.0004  0.0305  0.0000  0.0000  0.0000  0.0000  0.0000 </r>
        <r>  0.0477  0.0007  0.0004  0.0305  0.0000  0.0000  0.0000  0.0000  0.0000 </r>
       </set>
       <set comment="band 7">
        <r>  0.0020  0.1053  0.0577  0.0023  0.0000  0.0000  0.0000  0.0000  0.0000 </r>
        <r>  0.0020  0.1053  0.0577  0.0023  0.0000  0.0000  0.0000  0.0000  0.0000 </r>
       </set>
       <set comment="band 8">
        <r>  0.0000  0.0603  0.1096  0.0001  0.0000  0.0000  0.0000  0.0000  0.0000 </r>
        <r>  0.0000  0.0603  0.1096  0.0001  0.0000  0.0000  0.0000  0.0000  0.0000 </r>
       </set>
      </set>
     </set>
    </set>
   </array>
  </projected>
 </calculation>
 <structure name="finalpos" >
  <crystal>
   <varray name="basis" >
    <v>       0.00000000       2.71500000       2.71500000 </v>
    <v>       2.71500000       0.00000000       2.71500000 </v>
    <v>       2.71500000       2.71500000       0.00000000 </v>
   </varray>
   <i name="volume">     40.02575175 </i>
   <varray name="rec_basis" >
    <v>      -0.18416206       0.18416206       0.18416206 </v>
    <v>       0.18416206      -0.18416206       0.18416206 </v>
    <v>       0.18416206       0.18416206      -0.18416206 </v>
   </varray>
  </crystal>
  <varray name="positions" >
   <v>       0.00000000       0.00000000       0.00000000 </v>
   <v>       0.25000000       0.25000000       0.25000000 </v>
  </varray>
 </structure>
</modeling>
