<?xml version="1.0" encoding="ISO-8859-1"?>
<modeling>
 <generator>
  <i name="program" type="string">vasp </i>
  <i name="version" type="string">6.3.0  </i>
  <i name="subversion" type="string">20Jan22 (build Mar 29 2022 17:59:55) complex                          parallel </i>
  <i name="platform" type="string">IFC91_ompi </i>
  <i name="date" type="string">2026 09 01 </i>
  <i name="time" type="string">14:19:23 </i>
 </generator>
 <incar>
  <i type="int" name="ISTART">     0</i>
  <i type="string" name="PREC">Accurate</i>
  <i type="int" name="ICHARG">     2</i>
  <i name="EDIFF">      0.00000010</i>
  <i type="int" name="NSW">     0</i>
  <i type="int" name="ISYM">     0</i>
  <i name="ENCUT">    320.00000000</i>
  <i type="int" name="ISMEAR">     0</i>
  <i name="SIGMA">      0.05000000</i>
  <i type="logical" name="LCHARG"> T  </i>
  <i type="string" name="GGA">PE</i>
 </incar>
 <primitive_cell>
  <structure name="primitive_cell" >
   <crystal>
    <varray name="basis" >
     <v>       0.00000000       2.71500000       2.71500000 </v>
     <v>       2.71500000       0.00000000       2.71500000 </v>
     <v>       2.71500000       2.71500000       0.00000000 </v>
    </varray>
    <i name="volume">     40.02575175 </i>
    <varray name="rec_basis" >
     <v>      -0.18416206       0.18416206       0.18416206 </v>
     <v>       0.18416206      -0.18416206       0.18416206 </v>
     <v>       0.18416206       0.18416206      -0.18416206 </v>
    </varray>
   </crystal>
   <varray name="positions" >
    <v>       0.00000000       0.00000000       0.00000000 </v>
    <v>       0.25000000       0.25000000       0.25000000 </v>
   </varray>
  </structure>
  <varray name="primitive_index" >
   <v type="int" >        1 </v>
   <v type="int" >        2 </v>
  </varray>
 </primitive_cell>
 <kpoints>
  <generation param="Gamma">
   <v type="int" name="divisions">       8        8        8 </v>
   <v name="usershift">      0.00000000       0.00000000       0.00000000 </v>
   <v name="genvec1">      0.12500000       0.00000000      -0.00000000 </v>
   <v name="genvec2">      0.00000000       0.12500000       0.00000000 </v>
   <v name="genvec3">     -0.00000000      -0.00000000       0.12500000 </v>
   <v name="shift">      0.00000000       0.00000000       0.00000000 </v>
  </generation>
  <varray name="kpointlist" >
   <v>       0.00000000       0.00000000       0.00000000 </v>
   <v>       0.12500000       0.00000000      -0.00000000 </v>
   <v>       0.00000000       0.12500000       0.00000000 </v>
   <v>       0.00000000       0.00000000       0.12500000 </v>
   <v>       0.12500000       0.12500000       0.12500000 </v>
   <v>       0.25000000       0.00000000      -0.00000000 </v>
   <v>       0.00000000       0.25000000       0.00000000 </v>
   <v>       0.00000000       0.00000000       0.25000000 </v>
   <v>       0.25000000       0.25000000       0.25000000 </v>
   <v>       0.37500000       0.00000000      -0.00000000 </v>
   <v>       0.00000000       0.37500000       0.00000000 </v>
   <v>       0.00000000       0.00000000       0.37500000 </v>
   <v>       0.37500000       0.37500000       0.37500000 </v>
   <v>       0.50000000       0.00000000      -0.00000000 </v>
   <v>       0.00000000       0.50000000       0.00000000 </v>
   <v>       0.00000000       0.00000000       0.50000000 </v>
   <v>       0.50000000       0.50000000       0.50000000 </v>
   <v>       0.12500000       0.12500000       0.00000000 </v>
   <v>       0.00000000       0.12500000       0.12500000 </v>
   <v>       0.12500000       0.00000000       0.12500000 </v>
   <v>       0.25000000       0.12500000       0.00000000 </v>
   <v>       0.00000000       0.25000000       0.12500000 </v>
   <v>       0.12500000       0.00000000       0.25000000 </v>
   <v>       0.12500000       0.12500000      -0.12500000 </v>
   <v>       0.25000000       0.12500000       0.25000000 </v>
   <v>       0.12500000       0.25000000       0.00000000 </v>
   <v>       0.12500000      -0.12500000      -0.12500000 </v>
   <v>       0.25000000       0.25000000       0.12500000 </v>
   <v>       0.00000000       0.12500000       0.25000000 </v>
   <v>      -0.12500000       0.12500000      -0.12500000 </v>
   <v>       0.12500000       0.25000000       0.25000000 </v>
   <v>       0.25000000       0.00000000       0.12500000 </v>
   <v>       0.37500000       0.12500000      -0.00000000 </v>
   <v>       0.00000000       0.37500000       0.12500000 </v>
   <v>       0.12500000       0.00000000       0.37500000 </v>
   <v>       0.12500000       0.12500000      -0.25000000 </v>
   <v>       0.37500000       0.25000000       0.37500000 </v>
   <v>       0.12500000       0.37500000       0.00000000 </v>
   <v>       0.25000000      -0.12500000      -0.12500000 </v>
   <v>       0.37500000       0.37500000       0.25000000 </v>
   <v>       0.00000000       0.12500000       0.37500000 </v>
   <v>      -0.12500000       0.25000000      -0.12500000 </v>
   <v>       0.25000000       0.37500000       0.37500000 </v>
   <v>       0.37500000       0.00000000       0.12500000 </v>
   <v>       0.50000000       0.12500000      -0.00000000 </v>
   <v>      -0.00000000       0.50000000       0.12500000 </v>
   <v>       0.12500000       0.00000000       0.50000000 </v>
   <v>       0.12500000       0.12500000      -0.37500000 </v>
   <v>       0.50000000       0.37500000       0.50000000 </v>
   <v>       0.12500000       0.50000000       0.00000000 </v>
   <v>       0.37500000      -0.12500000      -0.12500000 </v>
   <v>       0.50000000       0.50000000       0.37500000 </v>
   <v>       0.00000000       0.12500000       0.50000000 </v>
   <v>      -0.12500000       0.37500000      -0.12500000 </v>
   <v>       0.37500000       0.50000000       0.50000000 </v>
   <v>       0.50000000       0.00000000       0.12500000 </v>
   <v>      -0.37500000       0.12500000       0.00000000 </v>
   <v>      -0.00000000      -0.37500000       0.12500000 </v>
   <v>       0.12500000      -0.00000000      -0.37500000 </v>
   <v>       0.12500000       0.12500000       0.50000000 </v>
   <v>      -0.37500000       0.50000000      -0.37500000 </v>
   <v>       0.12500000      -0.37500000      -0.00000000 </v>
   <v>       0.50000000      -0.12500000      -0.12500000 </v>
   <v>      -0.37500000      -0.37500000       0.50000000 </v>
   <v>       0.00000000       0.12500000      -0.37500000 </v>
   <v>      -0.12500000       0.50000000      -0.12500000 </v>
   <v>       0.50000000      -0.37500000      -0.37500000 </v>
   <v>      -0.37500000      -0.00000000       0.12500000 </v>
   <v>      -0.25000000       0.12500000       0.00000000 </v>
   <v>       0.00000000      -0.25000000       0.12500000 </v>
   <v>       0.12500000      -0.00000000      -0.25000000 </v>
   <v>       0.12500000       0.12500000       0.37500000 </v>
   <v>      -0.25000000      -0.37500000      -0.25000000 </v>
   <v>       0.12500000      -0.25000000      -0.00000000 </v>
   <v>      -0.37500000      -0.12500000      -0.12500000 </v>
   <v>      -0.25000000      -0.25000000      -0.37500000 </v>
   <v>      -0.00000000       0.12500000      -0.25000000 </v>
   <v>      -0.12500000      -0.37500000      -0.12500000 </v>
   <v>      -0.37500000      -0.25000000      -0.25000000 </v>
   <v>      -0.25000000      -0.00000000       0.12500000 </v>
   <v>      -0.12500000       0.12500000       0.00000000 </v>
   <v>       0.00000000      -0.12500000       0.12500000 </v>
   <v>       0.12500000      -0.00000000      -0.12500000 </v>
   <v>       0.12500000       0.12500000       0.25000000 </v>
   <v>      -0.12500000      -0.25000000      -0.12500000 </v>
   <v>      -0.25000000      -0.12500000      -0.12500000 </v>
   <v>       0.25000000       0.25000000       0.00000000 </v>
   <v>       0.00000000       0.25000000       0.25000000 </v>
   <v>       0.25000000       0.00000000       0.25000000 </v>
   <v>       0.37500000       0.25000000       0.00000000 </v>
   <v>       0.00000000       0.37500000       0.25000000 </v>
   <v>       0.25000000       0.00000000       0.37500000 </v>
   <v>       0.25000000       0.25000000      -0.12500000 </v>
   <v>       0.37500000       0.12500000       0.37500000 </v>
   <v>       0.25000000       0.37500000       0.00000000 </v>
   <v>       0.12500000      -0.25000000      -0.25000000 </v>
   <v>       0.37500000       0.37500000       0.12500000 </v>
   <v>       0.00000000       0.25000000       0.37500000 </v>
   <v>      -0.25000000       0.12500000      -0.25000000 </v>
   <v>       0.12500000       0.37500000       0.37500000 </v>
   <v>       0.37500000       0.00000000       0.25000000 </v>
   <v>       0.50000000       0.25000000       0.00000000 </v>
   <v>       0.00000000       0.50000000       0.25000000 </v>
   <v>       0.25000000       0.00000000       0.50000000 </v>
   <v>       0.25000000       0.25000000      -0.25000000 </v>
   <v>       0.50000000       0.25000000       0.50000000 </v>
   <v>       0.25000000       0.50000000       0.00000000 </v>
   <v>       0.25000000      -0.25000000      -0.25000000 </v>
   <v>       0.50000000       0.50000000       0.25000000 </v>
   <v>       0.00000000       0.25000000       0.50000000 </v>
   <v>      -0.25000000       0.25000000      -0.25000000 </v>
   <v>       0.25000000       0.50000000       0.50000000 </v>
   <v>       0.50000000       0.00000000       0.25000000 </v>
   <v>      -0.37500000       0.25000000       0.00000000 </v>
   <v>       0.00000000      -0.37500000       0.25000000 </v>
   <v>       0.25000000      -0.00000000      -0.37500000 </v>
   <v>       0.25000000       0.25000000      -0.37500000 </v>
   <v>      -0.37500000       0.37500000      -0.37500000 </v>
   <v>       0.25000000      -0.37500000      -0.00000000 </v>
   <v>       0.37500000      -0.25000000      -0.25000000 </v>
   <v>      -0.37500000      -0.37500000       0.37500000 </v>
   <v>      -0.00000000       0.25000000      -0.37500000 </v>
   <v>      -0.25000000       0.37500000      -0.25000000 </v>
   <v>       0.37500000      -0.37500000      -0.37500000 </v>
   <v>      -0.37500000      -0.00000000       0.25000000 </v>
   <v>      -0.25000000       0.25000000       0.00000000 </v>
   <v>      -0.00000000      -0.25000000       0.25000000 </v>
   <v>       0.25000000       0.00000000      -0.25000000 </v>
   <v>       0.25000000       0.25000000       0.50000000 </v>
   <v>      -0.25000000       0.50000000      -0.25000000 </v>
   <v>       0.50000000      -0.25000000      -0.25000000 </v>
   <v>       0.37500000       0.37500000       0.00000000 </v>
   <v>       0.00000000       0.37500000       0.37500000 </v>
   <v>       0.37500000       0.00000000       0.37500000 </v>
   <v>       0.50000000       0.37500000       0.00000000 </v>
   <v>       0.00000000       0.50000000       0.37500000 </v>
   <v>       0.37500000       0.00000000       0.50000000 </v>
   <v>       0.37500000       0.37500000      -0.12500000 </v>
   <v>       0.50000000       0.12500000       0.50000000 </v>
   <v>       0.37500000       0.50000000       0.00000000 </v>
   <v>       0.12500000      -0.37500000      -0.37500000 </v>
   <v>       0.50000000       0.50000000       0.12500000 </v>
   <v>       0.00000000       0.37500000       0.50000000 </v>
   <v>      -0.37500000       0.12500000      -0.37500000 </v>
   <v>       0.12500000       0.50000000       0.50000000 </v>
   <v>       0.50000000       0.00000000       0.37500000 </v>
   <v>      -0.37500000       0.37500000       0.00000000 </v>
   <v>       0.00000000      -0.37500000       0.37500000 </v>
   <v>       0.37500000      -0.00000000      -0.37500000 </v>
   <v>       0.37500000       0.37500000      -0.25000000 </v>
   <v>      -0.37500000       0.25000000      -0.37500000 </v>
   <v>       0.25000000      -0.37500000      -0.37500000 </v>
   <v>       0.50000000       0.50000000       0.00000000 </v>
   <v>       0.00000000       0.50000000       0.50000000 </v>
   <v>       0.50000000       0.00000000       0.50000000 </v>
   <v>       0.37500000       0.25000000       0.12500000 </v>
   <v>       0.12500000       0.37500000       0.25000000 </v>
   <v>       0.25000000       0.12500000       0.37500000 </v>
   <v>       0.25000000       0.12500000      -0.12500000 </v>
   <v>       0.37500000       0.12500000       0.25000000 </v>
   <v>       0.12500000      -0.25000000      -0.12500000 </v>
   <v>       0.12500000       0.25000000      -0.12500000 </v>
   <v>       0.12500000      -0.12500000      -0.25000000 </v>
   <v>       0.25000000       0.37500000       0.12500000 </v>
   <v>      -0.12500000       0.12500000      -0.25000000 </v>
   <v>      -0.25000000       0.12500000      -0.12500000 </v>
   <v>       0.12500000       0.25000000       0.37500000 </v>
   <v>       0.50000000       0.25000000       0.12500000 </v>
   <v>       0.12500000       0.50000000       0.25000000 </v>
   <v>       0.25000000       0.12500000       0.50000000 </v>
   <v>       0.25000000       0.12500000      -0.25000000 </v>
   <v>       0.50000000       0.25000000       0.37500000 </v>
   <v>       0.12500000      -0.37500000      -0.12500000 </v>
   <v>       0.12500000       0.37500000      -0.12500000 </v>
   <v>       0.25000000      -0.12500000      -0.25000000 </v>
   <v>      -0.37500000      -0.25000000       0.50000000 </v>
   <v>       0.37500000       0.50000000       0.25000000 </v>
   <v>      -0.12500000       0.12500000      -0.37500000 </v>
   <v>      -0.25000000       0.25000000       0.12500000 </v>
   <v>      -0.12500000       0.12500000       0.37500000 </v>
   <v>      -0.25000000       0.25000000      -0.12500000 </v>
   <v>       0.50000000      -0.37500000      -0.25000000 </v>
   <v>       0.25000000       0.37500000       0.50000000 </v>
   <v>      -0.37500000      -0.12500000       0.12500000 </v>
   <v>       0.12500000      -0.25000000       0.25000000 </v>
   <v>       0.37500000      -0.12500000       0.12500000 </v>
   <v>      -0.12500000      -0.25000000       0.25000000 </v>
   <v>      -0.25000000       0.50000000      -0.37500000 </v>
   <v>       0.50000000      -0.12500000      -0.25000000 </v>
   <v>      -0.25000000       0.50000000      -0.12500000 </v>
   <v>      -0.12500000      -0.25000000       0.50000000 </v>
   <v>      -0.37500000       0.25000000       0.12500000 </v>
   <v>       0.12500000      -0.37500000       0.25000000 </v>
   <v>       0.25000000       0.12500000      -0.37500000 </v>
   <v>      -0.37500000       0.37500000       0.50000000 </v>
   <v>       0.12500000       0.50000000      -0.12500000 </v>
   <v>       0.37500000      -0.12500000      -0.25000000 </v>
   <v>       0.50000000      -0.37500000       0.37500000 </v>
   <v>      -0.12500000       0.12500000       0.50000000 </v>
   <v>      -0.25000000       0.37500000      -0.12500000 </v>
   <v>       0.37500000       0.50000000      -0.37500000 </v>
   <v>       0.50000000      -0.12500000       0.12500000 </v>
   <v>      -0.12500000      -0.25000000       0.37500000 </v>
   <v>       0.50000000       0.37500000       0.12500000 </v>
   <v>       0.12500000       0.50000000       0.37500000 </v>
   <v>       0.37500000       0.12500000       0.50000000 </v>
   <v>       0.37500000       0.25000000      -0.12500000 </v>
   <v>       0.50000000       0.12500000       0.37500000 </v>
   <v>       0.12500000      -0.37500000      -0.25000000 </v>
   <v>       0.25000000       0.37500000      -0.12500000 </v>
   <v>       0.12500000      -0.25000000      -0.37500000 </v>
   <v>       0.37500000       0.50000000       0.12500000 </v>
   <v>      -0.25000000       0.12500000      -0.37500000 </v>
   <v>      -0.37500000       0.12500000      -0.25000000 </v>
   <v>       0.12500000       0.37500000       0.50000000 </v>
   <v>      -0.37500000       0.37500000       0.12500000 </v>
   <v>       0.12500000      -0.37500000       0.37500000 </v>
   <v>       0.37500000       0.12500000      -0.37500000 </v>
   <v>       0.37500000       0.25000000      -0.25000000 </v>
   <v>      -0.37500000       0.25000000       0.50000000 </v>
   <v>       0.12500000       0.50000000      -0.25000000 </v>
   <v>       0.25000000       0.50000000      -0.12500000 </v>
   <v>       0.25000000      -0.25000000      -0.37500000 </v>
   <v>       0.50000000      -0.25000000       0.37500000 </v>
   <v>       0.50000000      -0.37500000       0.25000000 </v>
   <v>      -0.25000000       0.12500000       0.50000000 </v>
   <v>      -0.25000000       0.37500000       0.25000000 </v>
   <v>      -0.12500000       0.25000000       0.50000000 </v>
   <v>      -0.37500000       0.25000000      -0.25000000 </v>
   <v>       0.37500000       0.50000000      -0.25000000 </v>
   <v>       0.25000000       0.50000000      -0.37500000 </v>
   <v>       0.50000000      -0.25000000       0.12500000 </v>
   <v>       0.25000000      -0.25000000       0.37500000 </v>
   <v>       0.50000000      -0.12500000       0.25000000 </v>
   <v>      -0.25000000      -0.37500000       0.25000000 </v>
   <v>      -0.25000000       0.37500000       0.50000000 </v>
   <v>       0.37500000      -0.12500000      -0.37500000 </v>
   <v>      -0.37500000       0.37500000      -0.12500000 </v>
   <v>      -0.12500000      -0.37500000       0.37500000 </v>
   <v>      -0.25000000       0.37500000       0.12500000 </v>
   <v>       0.12500000      -0.25000000       0.37500000 </v>
   <v>       0.37500000       0.12500000      -0.25000000 </v>
   <v>       0.37500000       0.25000000      -0.37500000 </v>
   <v>      -0.25000000       0.37500000      -0.37500000 </v>
   <v>       0.12500000       0.37500000      -0.25000000 </v>
   <v>       0.37500000      -0.25000000      -0.37500000 </v>
   <v>       0.37500000      -0.37500000       0.25000000 </v>
   <v>      -0.25000000       0.12500000       0.37500000 </v>
   <v>      -0.37500000       0.37500000       0.25000000 </v>
   <v>       0.25000000       0.37500000      -0.37500000 </v>
   <v>       0.37500000      -0.25000000       0.12500000 </v>
   <v>      -0.37500000       0.50000000       0.12500000 </v>
   <v>       0.12500000      -0.37500000       0.50000000 </v>
   <v>       0.50000000       0.12500000      -0.37500000 </v>
   <v>       0.50000000       0.37500000      -0.12500000 </v>
   <v>      -0.37500000       0.12500000       0.50000000 </v>
   <v>       0.12500000       0.50000000      -0.37500000 </v>
   <v>      -0.25000000       0.50000000       0.25000000 </v>
   <v>       0.25000000      -0.25000000       0.50000000 </v>
   <v>       0.50000000       0.25000000      -0.25000000 </v>
  </varray>
  <varray name="weights" >
   <v>       0.00195312 </v>
   <v>       0.00390625 </v>
   <v>       0.00390625 </v>
   <v>       0.00390625 </v>
   <v>       0.00390625 </v>
   <v>       0.00390625 </v>
   <v>       0.00390625 </v>
   <v>       0.00390625 </v>
   <v>       0.00390625 </v>
   <v>       0.00390625 </v>
   <v>       0.00390625 </v>
   <v>       0.00390625 </v>
   <v>       0.00390625 </v>
   <v>       0.00195312 </v>
   <v>       0.00195312 </v>
   <v>       0.00195312 </v>
   <v>       0.00195312 </v>
   <v>       0.00390625 </v>
   <v>       0.00390625 </v>
   <v>       0.00390625 </v>
   <v>       0.00390625 </v>
   <v>       0.00390625 </v>
   <v>       0.00390625 </v>
   <v>       0.00390625 </v>
   <v>       0.00390625 </v>
   <v>       0.00390625 </v>
   <v>       0.00390625 </v>
   <v>       0.00390625 </v>
   <v>       0.00390625 </v>
   <v>       0.00390625 </v>
   <v>       0.00390625 </v>
   <v>       0.00390625 </v>
   <v>       0.00390625 </v>
   <v>       0.00390625 </v>
   <v>       0.00390625 </v>
   <v>       0.00390625 </v>
   <v>       0.00390625 </v>
   <v>       0.00390625 </v>
   <v>       0.00390625 </v>
   <v>       0.00390625 </v>
   <v>       0.00390625 </v>
   <v>       0.00390625 </v>
   <v>       0.00390625 </v>
   <v>       0.00390625 </v>
   <v>       0.00390625 </v>
   <v>       0.00390625 </v>
   <v>       0.00390625 </v>
   <v>       0.00390625 </v>
   <v>       0.00390625 </v>
   <v>       0.00390625 </v>
   <v>       0.00390625 </v>
   <v>       0.00390625 </v>
   <v>       0.00390625 </v>
   <v>       0.00390625 </v>
   <v>       0.00390625 </v>
   <v>       0.00390625 </v>
   <v>       0.00390625 </v>
   <v>       0.00390625 </v>
   <v>       0.00390625 </v>
   <v>       0.00390625 </v>
   <v>       0.00390625 </v>
   <v>       0.00390625 </v>
   <v>       0.00390625 </v>
   <v>       0.00390625 </v>
   <v>       0.00390625 </v>
   <v>       0.00390625 </v>
   <v>       0.00390625 </v>
   <v>       0.00390625 </v>
   <v>       0.00390625 </v>
   <v>       0.00390625 </v>
   <v>       0.00390625 </v>
   <v>       0.00390625 </v>
   <v>       0.00390625 </v>
   <v>       0.00390625 </v>
   <v>       0.00390625 </v>
   <v>       0.00390625 </v>
   <v>       0.00390625 </v>
   <v>       0.00390625 </v>
   <v>       0.00390625 </v>
   <v>       0.00390625 </v>
   <v>       0.00390625 </v>
   <v>       0.00390625 </v>
   <v>       0.00390625 </v>
   <v>       0.00390625 </v>
   <v>       0.00390625 </v>
   <v>       0.00390625 </v>
   <v>       0.00390625 </v>
   <v>       0.00390625 </v>
   <v>       0.00390625 </v>
   <v>       0.00390625 </v>
   <v>       0.00390625 </v>
   <v>       0.00390625 </v>
   <v>       0.00390625 </v>
   <v>       0.00390625 </v>
   <v>       0.00390625 </v>
   <v>       0.00390625 </v>
   <v>       0.00390625 </v>
   <v>       0.00390625 </v>
   <v>       0.00390625 </v>
   <v>       0.00390625 </v>
   <v>       0.00390625 </v>
   <v>       0.00390625 </v>
   <v>       0.00390625 </v>
   <v>       0.00390625 </v>
   <v>       0.00390625 </v>
   <v>       0.00390625 </v>
   <v>       0.00390625 </v>
   <v>       0.00390625 </v>
   <v>       0.00390625 </v>
   <v>       0.00390625 </v>
   <v>       0.00390625 </v>
   <v>       0.00390625 </v>
   <v>       0.00390625 </v>
   <v>       0.00390625 </v>
   <v>       0.00390625 </v>
   <v>       0.00390625 </v>
   <v>       0.00390625 </v>
   <v>       0.00390625 </v>
   <v>       0.00390625 </v>
   <v>       0.00390625 </v>
   <v>       0.00390625 </v>
   <v>       0.00390625 </v>
   <v>       0.00390625 </v>
   <v>       0.00390625 </v>
   <v>       0.00390625 </v>
   <v>       0.00390625 </v>
   <v>       0.00390625 </v>
   <v>       0.00390625 </v>
   <v>       0.00390625 </v>
   <v>       0.00390625 </v>
   <v>       0.00390625 </v>
   <v>       0.00390625 </v>
   <v>       0.00390625 </v>
   <v>       0.00390625 </v>
   <v>       0.00390625 </v>
   <v>       0.00390625 </v>
   <v>       0.00390625 </v>
   <v>       0.00390625 </v>
   <v>       0.00390625 </v>
   <v>       0.00390625 </v>
   <v>       0.00390625 </v>
   <v>       0.00390625 </v>
   <v>       0.00390625 </v>
   <v>       0.00390625 </v>
   <v>       0.00390625 </v>
   <v>       0.00390625 </v>
   <v>       0.00390625 </v>
   <v>       0.00390625 </v>
   <v>       0.00390625 </v>
   <v>       0.00390625 </v>
   <v>       0.00390625 </v>
   <v>       0.00390625 </v>
   <v>       0.00195312 </v>
   <v>       0.00195312 </v>
   <v>       0.00195312 </v>
   <v>       0.00390625 </v>
   <v>       0.00390625 </v>
   <v>       0.00390625 </v>
   <v>       0.00390625 </v>
   <v>       0.00390625 </v>
   <v>       0.00390625 </v>
   <v>       0.00390625 </v>
   <v>       0.00390625 </v>
   <v>       0.00390625 </v>
   <v>       0.00390625 </v>
   <v>       0.00390625 </v>
   <v>       0.00390625 </v>
   <v>       0.00390625 </v>
   <v>       0.00390625 </v>
   <v>       0.00390625 </v>
   <v>       0.00390625 </v>
   <v>       0.00390625 </v>
   <v>       0.00390625 </v>
   <v>       0.00390625 </v>
   <v>       0.00390625 </v>
   <v>       0.00390625 </v>
   <v>       0.00390625 </v>
   <v>       0.00390625 </v>
   <v>       0.00390625 </v>
   <v>       0.00390625 </v>
   <v>       0.00390625 </v>
   <v>       0.00390625 </v>
   <v>       0.00390625 </v>
   <v>       0.00390625 </v>
   <v>       0.00390625 </v>
   <v>       0.00390625 </v>
   <v>       0.00390625 </v>
   <v>       0.00390625 </v>
   <v>       0.00390625 </v>
   <v>       0.00390625 </v>
   <v>       0.00390625 </v>
   <v>       0.00390625 </v>
   <v>       0.00390625 </v>
   <v>       0.00390625 </v>
   <v>       0.00390625 </v>
   <v>       0.00390625 </v>
   <v>       0.00390625 </v>
   <v>       0.00390625 </v>
   <v>       0.00390625 </v>
   <v>       0.00390625 </v>
   <v>       0.00390625 </v>
   <v>       0.00390625 </v>
   <v>       0.00390625 </v>
   <v>       0.00390625 </v>
   <v>       0.00390625 </v>
   <v>       0.00390625 </v>
   <v>       0.00390625 </v>
   <v>       0.00390625 </v>
   <v>       0.00390625 </v>
   <v>       0.00390625 </v>
   <v>       0.00390625 </v>
   <v>       0.00390625 </v>
   <v>       0.00390625 </v>
   <v>       0.00390625 </v>
   <v>       0.00390625 </v>
   <v>       0.00390625 </v>
   <v>       0.00390625 </v>
   <v>       0.00390625 </v>
   <v>       0.00390625 </v>
   <v>       0.00390625 </v>
   <v>       0.00390625 </v>
   <v>       0.00390625 </v>
   <v>       0.00390625 </v>
   <v>       0.00390625 </v>
   <v>       0.00390625 </v>
   <v>       0.00390625 </v>
   <v>       0.00390625 </v>
   <v>       0.00390625 </v>
   <v>       0.00390625 </v>
   <v>       0.00390625 </v>
   <v>       0.00390625 </v>
   <v>       0.00390625 </v>
   <v>       0.00390625 </v>
   <v>       0.00390625 </v>
   <v>       0.00390625 </v>
   <v>       0.00390625 </v>
   <v>       0.00390625 </v>
   <v>       0.00390625 </v>
   <v>       0.00390625 </v>
   <v>       0.00390625 </v>
   <v>       0.00390625 </v>
   <v>       0.00390625 </v>
   <v>       0.00390625 </v>
   <v>       0.00390625 </v>
   <v>       0.00390625 </v>
   <v>       0.00390625 </v>
   <v>       0.00390625 </v>
   <v>       0.00390625 </v>
   <v>       0.00390625 </v>
   <v>       0.00390625 </v>
   <v>       0.00390625 </v>
   <v>       0.00390625 </v>
   <v>       0.00390625 </v>
   <v>       0.00390625 </v>
   <v>       0.00390625 </v>
   <v>       0.00390625 </v>
   <v>       0.00390625 </v>
   <v>       0.00390625 </v>
   <v>       0.00390625 </v>
   <v>       0.00390625 </v>
  </varray>
 </kpoints>
 <parameters>
  <separator name="general" >
   <i type="string" name="SYSTEM">unknown system</i>
   <i type="logical" name="LCOMPAT"> F  </i>
  </separator>
  <separator name="electronic" >
   <i type="string" name="PREC">accura</i>
   <i name="ENMAX">    320.00000000</i>
   <i name="ENAUG">    322.06900000</i>
   <i name="EDIFF">      0.00000010</i>
   <i type="int" name="IALGO">    38</i>
   <i type="int" name="IWAVPR">    10</i>
   <i type="int" name="NBANDS">     8</i>
   <i type="int" name="NBANDSLOW">    -1</i>
   <i type="int" name="NBANDSHIGH">    -1</i>
   <i name="NELECT">      8.00000000</i>
   <i type="int" name="TURBO">     0</i>
   <i type="int" name="IRESTART">     0</i>
   <i type="int" name="NREBOOT">     0</i>
   <i type="int" name="NMIN">     0</i>
   <i name="EREF">      0.00000000</i>
   <separator name="electronic smearing" >
    <i type="int" name="ISMEAR">     0</i>
    <i name="SIGMA">      0.05000000</i>
    <i name="KSPACING">      0.50000000</i>
    <i type="logical" name="KGAMMA"> T  </i>
    <i type="logical" name="KBLOWUP"> T  </i>
   </separator>
   <separator name="electronic projectors" >
    <i type="logical" name="LREAL"> F  </i>
    <v name="ROPT">      0.00000000</v>
    <i type="int" name="LMAXPAW">  -100</i>
    <i type="int" name="LMAXMIX">     2</i>
    <i type="logical" name="NLSPLINE"> F  </i>
   </separator>
   <separator name="electronic startup" >
    <i type="int" name="ISTART">     0</i>
    <i type="int" name="ICHARG">     2</i>
    <i type="int" name="INIWAV">     1</i>
   </separator>
   <separator name="electronic spin" >
    <i type="int" name="ISPIN">     1</i>
    <i type="logical" name="LNONCOLLINEAR"> F  </i>
    <v name="MAGMOM">      1.00000000      1.00000000</v>
    <i name="NUPDOWN">     -1.00000000</i>
    <i type="logical" name="LSORBIT"> F  </i>
    <v name="SAXIS">      0.00000000      0.00000000      1.00000000</v>
    <i type="logical" name="LSPIRAL"> F  </i>
    <v name="QSPIRAL">      0.00000000      0.00000000      0.00000000</v>
    <i type="logical" name="LZEROZ"> F  </i>
   </separator>
   <separator name="electronic exchange-correlation" >
    <i type="logical" name="LASPH"> F  </i>
    <i type="logical" name="LMETAGGA"> F  </i>
   </separator>
   <separator name="electronic convergence" >
    <i type="int" name="NELM">    60</i>
    <i type="int" name="NELMDL">    -5</i>
    <i type="int" name="NELMIN">     2</i>
    <i name="ENINI">    320.00000000</i>
    <separator name="electronic convergence detail" >
     <i type="logical" name="LDIAG"> T  </i>
     <i type="logical" name="LSUBROT"> F  </i>
     <i name="WEIMIN">      0.00000000</i>
     <i name="EBREAK">      0.00000000</i>
     <i name="DEPER">      0.30000000</i>
     <i type="int" name="NRMM">     4</i>
     <i name="TIME">      0.40000000</i>
    </separator>
   </separator>
   <separator name="electronic mixer" >
    <i name="AMIX">      0.40000000</i>
    <i name="BMIX">      1.00000000</i>
    <i name="AMIN">      0.10000000</i>
    <i name="AMIX_MAG">      1.60000000</i>
    <i name="BMIX_MAG">      1.00000000</i>
    <separator name="electronic mixer details" >
     <i type="int" name="IMIX">     4</i>
     <i type="logical" name="MIXFIRST"> F  </i>
     <i type="int" name="MAXMIX">   -45</i>
     <i name="WC">    100.00000000</i>
     <i type="int" name="INIMIX">     1</i>
     <i type="int" name="MIXPRE">     1</i>
     <i type="int" name="MREMOVE">     5</i>
    </separator>
   </separator>
   <separator name="electronic dipolcorrection" >
    <i type="logical" name="LDIPOL"> F  </i>
    <i type="logical" name="LMONO"> F  </i>
    <i type="int" name="IDIPOL">     0</i>
    <i name="EPSILON">      1.00000000</i>
    <v name="DIPOL">   -100.00000000   -100.00000000   -100.00000000</v>
    <i name="EFIELD">      0.00000000</i>
   </separator>
  </separator>
  <separator name="grids" >
   <i type="int" name="NGX">    24</i>
   <i type="int" name="NGY">    24</i>
   <i type="int" name="NGZ">    24</i>
   <i type="int" name="NGXF">    48</i>
   <i type="int" name="NGYF">    48</i>
   <i type="int" name="NGZF">    48</i>
   <i type="logical" name="ADDGRID"> F  </i>
  </separator>
  <separator name="ionic" >
   <i type="int" name="NSW">     0</i>
   <i type="int" name="IBRION">    -1</i>
   <i type="int" name="MDALGO">     0</i>
   <i type="int" name="ISIF">     2</i>
   <i name="PSTRESS">      0.00000000</i>
   <i name="EDIFFG">      0.00000100</i>
   <i type="int" name="NFREE">     0</i>
   <i name="POTIM">      0.50000000</i>
   <i name="SMASS">     -3.00000000</i>
   <i name="SCALEE">      1.00000000</i>
  </separator>
  <separator name="ionic md" >
   <i name="TEBEG">      0.00010000</i>
   <i name="TEEND">      0.00010000</i>
   <i type="int" name="NBLOCK">     1</i>
   <i type="int" name="KBLOCK">     1</i>
   <i type="int" name="NPACO">   256</i>
   <i name="APACO">     10.00000000</i>
  </separator>
  <separator name="symmetry" >
   <i type="int" name="ISYM">     0</i>
   <i name="SYMPREC">      0.00001000</i>
  </separator>
  <separator name="dos" >
   <i type="int" name="LORBIT">     0</i>
   <v name="RWIGS">     -1.00000000</v>
   <i type="int" name="NEDOS">   301</i>
   <i name="EMIN">     10.00000000</i>
   <i name="EMAX">    -10.00000000</i>
   <i name="EFERMI">      0.00000000</i>
  </separator>
  <separator name="writing" >
   <i type="int" name="NWRITE">     2</i>
   <i type="logical" name="LWAVE"> T  </i>
   <i type="logical" name="LDOWNSAMPLE"> F  </i>
   <i type="logical" name="LCHARG"> T  </i>
   <i type="logical" name="LPARD"> F  </i>
   <i type="logical" name="LVTOT"> F  </i>
   <i type="logical" name="LVHAR"> F  </i>
   <i type="logical" name="LELF"> F  </i>
   <i type="logical" name="LOPTICS"> F  </i>
   <v name="STM">      0.00000000      0.00000000      0.00000000      0.00000000      0.00000000      0.00000000      0.00000000</v>
  </separator>
  <separator name="performance" >
   <i type="int" name="NPAR">     1</i>
   <i type="int" name="NSIM">     4</i>
   <i type="int" name="NBLK">    -1</i>
   <i type="logical" name="LPLANE"> T  </i>
   <i type="logical" name="LSCALAPACK"> T  </i>
   <i type="logical" name="LSCAAWARE"> F  </i>
   <i type="logical" name="LSCALU"> F  </i>
   <i type="logical" name="LASYNC"> F  </i>
   <i type="logical" name="LORBITALREAL"> F  </i>
  </separator>
  <separator name="miscellaneous" >
   <i type="int" name="IDIOT">     3</i>
   <i type="int" name="PHON_NSTRUCT">    -1</i>
   <i type="logical" name="LMUSIC"> F  </i>
   <v name="POMASS">     28.08500000</v>
   <v name="DARWINR">      0.00000000</v>
   <v name="DARWINV">      1.00000000</v>
   <i type="logical" name="LCORR"> T  </i>
  </separator>
  <i type="logical" name="GGA_COMPAT"> T  </i>
  <i type="logical" name="LBERRY"> F  </i>
  <i type="int" name="ICORELEVEL">     0</i>
  <i type="logical" name="LDAU"> F  </i>
  <i type="int" name="I_CONSTRAINED_M">     0</i>
  <separator name="electronic exchange-correlation" >
   <i type="string" name="GGA">PE</i>
   <i type="int" name="VOSKOWN">     0</i>
   <i type="logical" name="LHFCALC"> F  </i>
   <i type="string" name="PRECFOCK"></i>
   <i type="logical" name="LSYMGRAD"> F  </i>
   <i type="logical" name="LHFONE"> F  </i>
   <i type="logical" name="LRHFCALC"> F  </i>
   <i type="logical" name="LTHOMAS"> F  </i>
   <i type="logical" name="LMODELHF"> F  </i>
   <i type="logical" name="LFOCKACE"> F  </i>
   <i name="ENCUT4O">     -1.00000000</i>
   <i type="int" name="EXXOEP">     0</i>
   <i type="int" name="FOURORBIT">     0</i>
   <i name="AEXX">      0.00000000</i>
   <i name="HFALPHA">      0.00000000</i>
   <i name="MCALPHA">      0.00000000</i>
   <i name="ALDAX">      1.00000000</i>
   <i name="AGGAX">      1.00000000</i>
   <i name="ALDAC">      1.00000000</i>
   <i name="AGGAC">      1.00000000</i>
   <i type="int" name="NKREDX">     1</i>
   <i type="int" name="NKREDY">     1</i>
   <i type="int" name="NKREDZ">     1</i>
   <i type="logical" name="SHIFTRED"> F  </i>
   <i type="logical" name="ODDONLY"> F  </i>
   <i type="logical" name="EVENONLY"> F  </i>
   <i type="int" name="LMAXFOCK">     0</i>
   <i type="int" name="NMAXFOCKAE">     0</i>
   <i type="logical" name="LFOCKAEDFT"> F  </i>
   <i name="HFSCREEN">      0.00000000</i>
   <i name="HFSCREENC">      0.00000000</i>
   <i type="int" name="NBANDSGWLOW">     0</i>
  </separator>
  <separator name="vdW DFT" >
   <i type="logical" name="LUSE_VDW"> F  </i>
   <i name="Zab_VDW">     -0.84910000</i>
   <i name="PARAM1">      0.12340000</i>
   <i name="PARAM2">      1.00000000</i>
   <i name="PARAM3">      0.00000000</i>
  </separator>
  <separator name="model GW" >
   <i type="int" name="MODEL_GW">     0</i>
   <i name="MODEL_EPS0">     12.00772552</i>
   <i name="MODEL_ALPHA">      1.00000000</i>
  </separator>
  <separator name="linear response parameters" >
   <i type="logical" name="LEPSILON"> F  </i>
   <i type="logical" name="LRPA"> F  </i>
   <i type="logical" name="LNABLA"> F  </i>
   <i type="logical" name="LVEL"> F  </i>
   <i name="CSHIFT">      0.10000000</i>
   <i name="OMEGAMAX">     -1.00000000</i>
   <i name="DEG_THRESHOLD">      0.00200000</i>
   <i name="RTIME">     -0.10000000</i>
   <i name="WPLASMAI">      0.00000000</i>
   <v name="DFIELD">      0.00000000      0.00000000      0.00000000</v>
   <v name="WPLASMA">      0.00000000      0.00000000      0.00000000      0.00000000      0.00000000      0.00000000      0.00000000      0.00000000      0.00000000</v>
  </separator>
  <separator name="orbital magnetization" >
   <i type="logical" name="NUCIND"> F  </i>
   <v name="MAGPOS">      0.00000000      0.00000000      0.00000000</v>
   <i type="logical" name="LNICSALL"> T  </i>
   <i type="logical" name="ORBITALMAG"> F  </i>
   <i type="logical" name="LMAGBLOCH"> F  </i>
   <i type="logical" name="LCHIMAG"> F  </i>
   <i type="logical" name="LGAUGE"> T  </i>
   <i type="int" name="MAGATOM">     0</i>
   <v name="MAGDIPOL">      0.00000000      0.00000000      0.00000000</v>
   <v name="AVECCONST">      0.00000000      0.00000000      0.00000000</v>
  </separator>
  <separator name="response functions" >
   <i type="logical" name="LFINITE_TEMPERATURE"> F  </i>
   <i type="logical" name="LADDER"> F  </i>
   <i type="logical" name="LRPAFORCE"> F  </i>
   <i type="logical" name="LFXC"> F  </i>
   <i type="logical" name="LHARTREE"> T  </i>
   <i type="int" name="IBSE">     0</i>
   <v type="int" name="KPOINT">    -1     0     0     0</v>
   <i type="logical" name="LTCTC"> F  </i>
   <i type="logical" name="LTCTE"> F  </i>
   <i type="logical" name="LTETE"> F  </i>
   <i type="logical" name="LTRIPLET"> F  </i>
   <i type="logical" name="LFXCEPS"> F  </i>
   <i type="logical" name="LFXHEG"> F  </i>
   <i type="int" name="NATURALO">     2</i>
   <i type="logical" name="LHOLEGF"> F  </i>
   <i type="logical" name="L2ORDER"> F  </i>
   <i type="logical" name="LDMP1"> F  </i>
   <i type="logical" name="LMP2LT"> F  </i>
   <i type="logical" name="LSMP2LT"> F  </i>
   <i type="logical" name="LGWLF"> F  </i>
   <i name="ENCUTGW">     -2.00000000</i>
   <i name="ENCUTGWSOFT">     -2.00000000</i>
   <i name="ENCUTLF">     -1.00000000</i>
   <i type="logical" name="LESF_SPLINES"> F  </i>
   <i type="int" name="LMAXMP2">    -1</i>
   <i name="SCISSOR">      0.00000000</i>
   <i type="int" name="NOMEGA">     0</i>
   <i type="int" name="NOMEGAR">     0</i>
   <i type="int" name="NBANDSGW">    -1</i>
   <i type="int" name="NBANDSO">    -1</i>
   <i type="int" name="NBANDSV">    -1</i>
   <i type="int" name="NELMGW">     1</i>
   <i type="int" name="NELMHF">     1</i>
   <i type="int" name="DIM">     3</i>
   <i type="int" name="IESPILON">     4</i>
   <i type="int" name="ANTIRES">     0</i>
   <i name="OMEGAMAX">    -30.00000000</i>
   <i name="OMEGAMIN">    -30.00000000</i>
   <i name="OMEGATL">   -200.00000000</i>
   <i type="int" name="OMEGAGRID">     0</i>
   <i name="CSHIFT">     -0.10000000</i>
   <i type="logical" name="LSELFENERGY"> F  </i>
   <i type="logical" name="LSPECTRAL"> F  </i>
   <i type="logical" name="LSPECTRALGW"> F  </i>
   <i type="logical" name="LSINGLES"> F  </i>
   <i type="logical" name="LFERMIGW"> F  </i>
   <i type="logical" name="ODDONLYGW"> F  </i>
   <i type="logical" name="EVENONLYGW"> F  </i>
   <i type="int" name="NKREDLFX">     1</i>
   <i type="int" name="NKREDLFY">     1</i>
   <i type="int" name="NKREDLFZ">     1</i>
   <i type="int" name="MAXMEM">  2800</i>
   <i type="int" name="TELESCOPE">     0</i>
   <i type="int" name="NTAUPAR">    -1</i>
   <i type="int" name="NOMEGAPAR">    -1</i>
   <i name="DAMP_NEWTON">      0.80000001</i>
   <i name="LAMBDA">      1.00000000</i>
  </separator>
  <separator name="External order field" >
   <i name="OFIELD_KAPPA">      0.00000000</i>
   <v name="OFIELD_K">      0.00000000      0.00000000      0.00000000</v>
   <i name="OFIELD_Q6_NEAR">      0.00000000</i>
   <i name="OFIELD_Q6_FAR">      0.00000000</i>
   <i name="OFIELD_A">      0.00000000</i>
  </separator>
  <separator name="optional k-points parameters" >
   <i type="int" name="KPOINTS_OPT_MODE">     1</i>
   <i type="logical" name="LKPOINTS_OPT"> F  </i>
  </separator>
 </parameters>
 <atominfo>
  <atoms>       2 </atoms>
  <types>       1 </types>
  <array name="atoms" >
   <dimension dim="1">ion</dimension>
   <field type="string">element</field>
   <field type="int">atomtype</field>
   <set>
    <rc><c>Si</c><c>   1</c></rc>
    <rc><c>Si</c><c>   1</c></rc>
   </set>
  </array>
  <array name="atomtypes" >
   <dimension dim="1">type</dimension>
   <field type="int">atomspertype</field>
   <field type="string">element</field>
   <field>mass</field>
   <field>valence</field>
   <field type="string">pseudopotential</field>
   <set>
    <rc><c>   2</c><c>Si</c><c>     28.08500000</c><c>      4.00000000</c><c>  PAW_PBE Si 05Jan2001                  </c></rc>
   </set>
  </array>
 </atominfo>
 <structure name="initialpos" >
  <crystal>
   <varray name="basis" >
    <v>       0.00000000       2.71500000       2.71500000 </v>
    <v>       2.71500000       0.00000000       2.71500000 </v>
    <v>       2.71500000       2.71500000       0.00000000 </v>
   </varray>
   <i name="volume">     40.02575175 </i>
   <varray name="rec_basis" >
    <v>      -0.18416206       0.18416206       0.18416206 </v>
    <v>       0.18416206      -0.18416206       0.18416206 </v>
    <v>       0.18416206       0.18416206      -0.18416206 </v>
   </varray>
  </crystal>
  <varray name="positions" >
   <v>       0.00000000       0.00000000       0.00000000 </v>
   <v>       0.25000000       0.25000000       0.25000000 </v>
  </varray>
 </structure>
 <calculation>
  <scstep>
   <time name="dav">    2.82    2.82</time>
   <time name="total">    2.87    2.87</time>
   <energy>
    <i name="alphaZ">      3.36414726 </i>
    <i name="ewald">   -228.56352493 </i>
    <i name="hartreedc">    -11.00108242 </i>
    <i name="XCdc">    -18.60186599 </i>
    <i name="pawpsdc">    176.24759923 </i>
    <i name="pawaedc">   -141.06103558 </i>
    <i name="eentropy">     -0.00069053 </i>
    <i name="bandstr">     15.42965601 </i>
    <i name="atom">    206.13066687 </i>
    <i name="e_fr_energy">      1.94386992 </i>
    <i name="e_wo_entrp">      1.94456045 </i>
    <i name="e_0_energy">      1.94421519 </i>
   </energy>
  </scstep>
  <scstep>
   <time name="dav">    3.87    3.87</time>
   <time name="total">    3.87    3.87</time>
   <energy>
    <i name="e_fr_energy">    -10.85883424 </i>
    <i name="e_wo_entrp">    -10.85883424 </i>
    <i name="e_0_energy">    -10.85883424 </i>
   </energy>
  </scstep>
  <scstep>
   <time name="dav">    3.36    3.36</time>
   <time name="total">    3.36    3.36</time>
   <energy>
    <i name="e_fr_energy">    -11.01709342 </i>
    <i name="e_wo_entrp">    -11.01709342 </i>
    <i name="e_0_energy">    -11.01709342 </i>
   </energy>
  </scstep>
  <scstep>
   <time name="dav">    4.02    4.02</time>
   <time name="total">    4.02    4.02</time>
   <energy>
    <i name="e_fr_energy">    -11.01771569 </i>
    <i name="e_wo_entrp">    -11.01771569 </i>
    <i name="e_0_energy">    -11.01771569 </i>
   </energy>
  </scstep>
  <scstep>
   <time name="dav">    3.35    3.35</time>
   <time name="total">    3.59    3.59</time>
   <energy>
    <i name="e_fr_energy">    -11.01771614 </i>
    <i name="e_wo_entrp">    -11.01771614 </i>
    <i name="e_0_energy">    -11.01771614 </i>
   </energy>
  </scstep>
  <scstep>
   <time name="dav">    3.13    3.13</time>
   <time name="total">    3.42    3.42</time>
   <energy>
    <i name="e_fr_energy">    -10.89253228 </i>
    <i name="e_wo_entrp">    -10.89253228 </i>
    <i name="e_0_energy">    -10.89253228 </i>
   </energy>
  </scstep>
  <scstep>
   <time name="dav">    3.25    3.25</time>
   <time name="total">    3.53    3.53</time>
   <energy>
    <i name="e_fr_energy">    -10.83553761 </i>
    <i name="e_wo_entrp">    -10.83553761 </i>
    <i name="e_0_energy">    -10.83553761 </i>
   </energy>
  </scstep>
  <scstep>
   <time name="dav">    3.07    3.07</time>
   <time name="total">    3.36    3.36</time>
   <energy>
    <i name="e_fr_energy">    -10.83660228 </i>
    <i name="e_wo_entrp">    -10.83660228 </i>
    <i name="e_0_energy">    -10.83660228 </i>
   </energy>
  </scstep>
  <scstep>
   <time name="dav">    3.71    3.71</time>
   <time name="total">    4.00    4.00</time>
   <energy>
    <i name="e_fr_energy">    -10.83679166 </i>
    <i name="e_wo_entrp">    -10.83679166 </i>
    <i name="e_0_energy">    -10.83679166 </i>
   </energy>
  </scstep>
  <scstep>
   <time name="dav">    3.11    3.11</time>
   <time name="total">    3.39    3.39</time>
   <energy>
    <i name="e_fr_energy">    -10.83681855 </i>
    <i name="e_wo_entrp">    -10.83681855 </i>
    <i name="e_0_energy">    -10.83681855 </i>
   </energy>
  </scstep>
  <scstep>
   <time name="dav">    3.98    3.98</time>
   <time name="total">    4.26    4.26</time>
   <energy>
    <i name="e_fr_energy">    -10.83681823 </i>
    <i name="e_wo_entrp">    -10.83681823 </i>
    <i name="e_0_energy">    -10.83681823 </i>
   </energy>
  </scstep>
  <scstep>
   <time name="dav">    3.06    3.06</time>
   <time name="total">    3.35    3.35</time>
   <energy>
    <i name="e_fr_energy">    -10.83681855 </i>
    <i name="e_wo_entrp">    -10.83681855 </i>
    <i name="e_0_energy">    -10.83681855 </i>
   </energy>
  </scstep>
  <scstep>
   <time name="dav">    2.43    2.43</time>
   <time name="total">    2.48    2.48</time>
   <energy>
    <i name="alphaZ">      3.36414726 </i>
    <i name="ewald">   -228.56352493 </i>
    <i name="hartreedc">    -14.92813037 </i>
    <i name="XCdc">    -17.95897812 </i>
    <i name="pawpsdc">    894.38703582 </i>
    <i name="pawaedc">   -859.42637068 </i>
    <i name="eentropy">     -0.00000000 </i>
    <i name="bandstr">      6.15833559 </i>
    <i name="atom">    206.13066687 </i>
    <i name="e_fr_energy">    -10.83681856 </i>
    <i name="e_wo_entrp">    -10.83681856 </i>
    <i name="e_0_energy">    -10.83681856 </i>
   </energy>
  </scstep>
  <structure>
   <crystal>
    <varray name="basis" >
     <v>       0.00000000       2.71500000       2.71500000 </v>
     <v>       2.71500000       0.00000000       2.71500000 </v>
     <v>       2.71500000       2.71500000       0.00000000 </v>
    </varray>
    <i name="volume">     40.02575175 </i>
    <varray name="rec_basis" >
     <v>      -0.18416206       0.18416206       0.18416206 </v>
     <v>       0.18416206      -0.18416206       0.18416206 </v>
     <v>       0.18416206       0.18416206      -0.18416206 </v>
    </varray>
   </crystal>
   <varray name="positions" >
    <v>       0.00000000       0.00000000       0.00000000 </v>
    <v>       0.25000000       0.25000000       0.25000000 </v>
   </varray>
  </structure>
  <varray name="forces" >
   <v>       0.00000018       0.00000004       0.00000021 </v>
   <v>      -0.00000018      -0.00000004      -0.00000021 </v>
  </varray>
  <varray name="stress" >
   <v>      19.04684798       0.00006139       0.00003414 </v>
   <v>       0.00006116      19.04685095       0.00006352 </v>
   <v>       0.00003419       0.00006352      19.04684963 </v>
  </varray>
  <energy>
   <i name="e_fr_energy">    -10.83681856 </i>
   <i name="e_wo_entrp">    -10.83681856 </i>
   <i name="e_0_energy">    -10.83681856 </i>
  </energy>
  <time name="totalsc">   46.87   46.92</time>
  <eigenvalues>
   <array>
    <dimension dim="1">band</dimension>
    <dimension dim="2">kpoint</dimension>
    <dimension dim="3">spin</dimension>
    <field>eigene</field>
    <field>occ</field>
    <set>
     <set comment="spin 1">
      <set comment="kpoint 1">
       <r>   -6.1291    1.0000 </r>
       <r>    5.8325    1.0000 </r>
       <r>    5.8325    1.0000 </r>
       <r>    5.8325    1.0000 </r>
       <r>    8.3995    0.0000 </r>
       <r>    8.3995    0.0000 </r>
       <r>    8.3995    0.0000 </r>
       <r>    9.2095    0.0000 </r>
      </set>
      <set comment="kpoint 2">
       <r>   -5.9249    1.0000 </r>
       <r>    4.2352    1.0000 </r>
       <r>    5.5438    1.0000 </r>
       <r>    5.5438    1.0000 </r>
       <r>    8.3397    0.0000 </r>
       <r>    8.8240    0.0000 </r>
       <r>    8.8240    0.0000 </r>
       <r>   10.5528    0.0000 </r>
      </set>
      <set comment="kpoint 3">
       <r>   -5.9249    1.0000 </r>
       <r>    4.2352    1.0000 </r>
       <r>    5.5438    1.0000 </r>
       <r>    5.5438    1.0000 </r>
       <r>    8.3397    0.0000 </r>
       <r>    8.8240    0.0000 </r>
       <r>    8.8240    0.0000 </r>
       <r>   10.5528    0.0000 </r>
      </set>
      <set comment="kpoint 4">
       <r>   -5.9249    1.0000 </r>
       <r>    4.2352    1.0000 </r>
       <r>    5.5438    1.0000 </r>
       <r>    5.5438    1.0000 </r>
       <r>    8.3397    0.0000 </r>
       <r>    8.8240    0.0000 </r>
       <r>    8.8240    0.0000 </r>
       <r>   10.5528    0.0000 </r>
      </set>
      <set comment="kpoint 5">
       <r>   -5.9249    1.0000 </r>
       <r>    4.2352    1.0000 </r>
       <r>    5.5438    1.0000 </r>
       <r>    5.5438    1.0000 </r>
       <r>    8.3397    0.0000 </r>
       <r>    8.8240    0.0000 </r>
       <r>    8.8240    0.0000 </r>
       <r>   10.5528    0.0000 </r>
      </set>
      <set comment="kpoint 6">
       <r>   -5.3290    1.0000 </r>
       <r>    1.9070    1.0000 </r>
       <r>    5.0735    1.0000 </r>
       <r>    5.0735    1.0000 </r>
       <r>    7.8667    0.0000 </r>
       <r>    9.3431    0.0000 </r>
       <r>    9.3431    0.0000 </r>
       <r>   12.7601    0.0000 </r>
      </set>
      <set comment="kpoint 7">
       <r>   -5.3290    1.0000 </r>
       <r>    1.9070    1.0000 </r>
       <r>    5.0735    1.0000 </r>
       <r>    5.0735    1.0000 </r>
       <r>    7.8667    0.0000 </r>
       <r>    9.3431    0.0000 </r>
       <r>    9.3431    0.0000 </r>
       <r>   12.7601    0.0000 </r>
      </set>
      <set comment="kpoint 8">
       <r>   -5.3290    1.0000 </r>
       <r>    1.9070    1.0000 </r>
       <r>    5.0735    1.0000 </r>
       <r>    5.0735    1.0000 </r>
       <r>    7.8667    0.0000 </r>
       <r>    9.3431    0.0000 </r>
       <r>    9.3431    0.0000 </r>
       <r>   12.7601    0.0000 </r>
      </set>
      <set comment="kpoint 9">
       <r>   -5.3290    1.0000 </r>
       <r>    1.9070    1.0000 </r>
       <r>    5.0735    1.0000 </r>
       <r>    5.0735    1.0000 </r>
       <r>    7.8667    0.0000 </r>
       <r>    9.3431    0.0000 </r>
       <r>    9.3431    0.0000 </r>
       <r>   12.7601    0.0000 </r>
      </set>
      <set comment="kpoint 10">
       <r>   -4.4348    1.0000 </r>
       <r>   -0.1134    1.0000 </r>
       <r>    4.7466    1.0000 </r>
       <r>    4.7466    1.0000 </r>
       <r>    7.5036    0.0000 </r>
       <r>    9.2877    0.0000 </r>
       <r>    9.2877    0.0000 </r>
       <r>   13.7191    0.0000 </r>
      </set>
      <set comment="kpoint 11">
       <r>   -4.4348    1.0000 </r>
       <r>   -0.1134    1.0000 </r>
       <r>    4.7466    1.0000 </r>
       <r>    4.7466    1.0000 </r>
       <r>    7.5036    0.0000 </r>
       <r>    9.2877    0.0000 </r>
       <r>    9.2877    0.0000 </r>
       <r>   13.7191    0.0000 </r>
      </set>
      <set comment="kpoint 12">
       <r>   -4.4348    1.0000 </r>
       <r>   -0.1134    1.0000 </r>
       <r>    4.7466    1.0000 </r>
       <r>    4.7466    1.0000 </r>
       <r>    7.5036    0.0000 </r>
       <r>    9.2877    0.0000 </r>
       <r>    9.2877    0.0000 </r>
       <r>   13.7191    0.0000 </r>
      </set>
      <set comment="kpoint 13">
       <r>   -4.4348    1.0000 </r>
       <r>   -0.1134    1.0000 </r>
       <r>    4.7466    1.0000 </r>
       <r>    4.7466    1.0000 </r>
       <r>    7.5036    0.0000 </r>
       <r>    9.2877    0.0000 </r>
       <r>    9.2877    0.0000 </r>
       <r>   13.7191    0.0000 </r>
      </set>
      <set comment="kpoint 14">
       <r>   -3.7965    1.0000 </r>
       <r>   -1.1363    1.0000 </r>
       <r>    4.6350    1.0000 </r>
       <r>    4.6350    1.0000 </r>
       <r>    7.3769    0.0000 </r>
       <r>    9.1780    0.0000 </r>
       <r>    9.1780    0.0000 </r>
       <r>   13.5638    0.0000 </r>
      </set>
      <set comment="kpoint 15">
       <r>   -3.7965    1.0000 </r>
       <r>   -1.1363    1.0000 </r>
       <r>    4.6350    1.0000 </r>
       <r>    4.6350    1.0000 </r>
       <r>    7.3769    0.0000 </r>
       <r>    9.1780    0.0000 </r>
       <r>    9.1780    0.0000 </r>
       <r>   13.5638    0.0000 </r>
      </set>
      <set comment="kpoint 16">
       <r>   -3.7965    1.0000 </r>
       <r>   -1.1363    1.0000 </r>
       <r>    4.6350    1.0000 </r>
       <r>    4.6350    1.0000 </r>
       <r>    7.3769    0.0000 </r>
       <r>    9.1780    0.0000 </r>
       <r>    9.1780    0.0000 </r>
       <r>   13.5638    0.0000 </r>
      </set>
      <set comment="kpoint 17">
       <r>   -3.7965    1.0000 </r>
       <r>   -1.1363    1.0000 </r>
       <r>    4.6350    1.0000 </r>
       <r>    4.6350    1.0000 </r>
       <r>    7.3769    0.0000 </r>
       <r>    9.1780    0.0000 </r>
       <r>    9.1780    0.0000 </r>
       <r>   13.5638    0.0000 </r>
      </set>
      <set comment="kpoint 18">
       <r>   -5.8561    1.0000 </r>
       <r>    4.5008    1.0000 </r>
       <r>    5.0263    1.0000 </r>
       <r>    5.0263    1.0000 </r>
       <r>    7.8475    0.0000 </r>
       <r>    9.5401    0.0000 </r>
       <r>    9.5401    0.0000 </r>
       <r>   10.2398    0.0000 </r>
      </set>
      <set comment="kpoint 19">
       <r>   -5.8561    1.0000 </r>
       <r>    4.5008    1.0000 </r>
       <r>    5.0263    1.0000 </r>
       <r>    5.0263    1.0000 </r>
       <r>    7.8475    0.0000 </r>
       <r>    9.5401    0.0000 </r>
       <r>    9.5402    0.0000 </r>
       <r>   10.2398    0.0000 </r>
      </set>
      <set comment="kpoint 20">
       <r>   -5.8561    1.0000 </r>
       <r>    4.5008    1.0000 </r>
       <r>    5.0263    1.0000 </r>
       <r>    5.0263    1.0000 </r>
       <r>    7.8475    0.0000 </r>
       <r>    9.5401    0.0000 </r>
       <r>    9.5401    0.0000 </r>
       <r>   10.2398    0.0000 </r>
      </set>
      <set comment="kpoint 21">
       <r>   -5.3872    1.0000 </r>
       <r>    2.6102    1.0000 </r>
       <r>    4.5148    1.0000 </r>
       <r>    4.5912    1.0000 </r>
       <r>    7.9836    0.0000 </r>
       <r>    9.5471    0.0000 </r>
       <r>   10.3059    0.0000 </r>
       <r>   10.5873    0.0000 </r>
      </set>
      <set comment="kpoint 22">
       <r>   -5.3872    1.0000 </r>
       <r>    2.6102    1.0000 </r>
       <r>    4.5148    1.0000 </r>
       <r>    4.5912    1.0000 </r>
       <r>    7.9836    0.0000 </r>
       <r>    9.5471    0.0000 </r>
       <r>   10.3059    0.0000 </r>
       <r>   10.5873    0.0000 </r>
      </set>
      <set comment="kpoint 23">
       <r>   -5.3872    1.0000 </r>
       <r>    2.6102    1.0000 </r>
       <r>    4.5148    1.0000 </r>
       <r>    4.5912    1.0000 </r>
       <r>    7.9836    0.0000 </r>
       <r>    9.5471    0.0000 </r>
       <r>   10.3059    0.0000 </r>
       <r>   10.5873    0.0000 </r>
      </set>
      <set comment="kpoint 24">
       <r>   -5.3872    1.0000 </r>
       <r>    2.6102    1.0000 </r>
       <r>    4.5148    1.0000 </r>
       <r>    4.5912    1.0000 </r>
       <r>    7.9836    0.0000 </r>
       <r>    9.5471    0.0000 </r>
       <r>   10.3059    0.0000 </r>
       <r>   10.5873    0.0000 </r>
      </set>
      <set comment="kpoint 25">
       <r>   -5.3872    1.0000 </r>
       <r>    2.6102    1.0000 </r>
       <r>    4.5148    1.0000 </r>
       <r>    4.5912    1.0000 </r>
       <r>    7.9836    0.0000 </r>
       <r>    9.5471    0.0000 </r>
       <r>   10.3059    0.0000 </r>
       <r>   10.5873    0.0000 </r>
      </set>
      <set comment="kpoint 26">
       <r>   -5.3872    1.0000 </r>
       <r>    2.6102    1.0000 </r>
       <r>    4.5148    1.0000 </r>
       <r>    4.5912    1.0000 </r>
       <r>    7.9836    0.0000 </r>
       <r>    9.5471    0.0000 </r>
       <r>   10.3059    0.0000 </r>
       <r>   10.5873    0.0000 </r>
      </set>
      <set comment="kpoint 27">
       <r>   -5.3872    1.0000 </r>
       <r>    2.6102    1.0000 </r>
       <r>    4.5148    1.0000 </r>
       <r>    4.5912    1.0000 </r>
       <r>    7.9836    0.0000 </r>
       <r>    9.5471    0.0000 </r>
       <r>   10.3059    0.0000 </r>
       <r>   10.5873    0.0000 </r>
      </set>
      <set comment="kpoint 28">
       <r>   -5.3872    1.0000 </r>
       <r>    2.6102    1.0000 </r>
       <r>    4.5148    1.0000 </r>
       <r>    4.5912    1.0000 </r>
       <r>    7.9836    0.0000 </r>
       <r>    9.5471    0.0000 </r>
       <r>   10.3059    0.0000 </r>
       <r>   10.5873    0.0000 </r>
      </set>
      <set comment="kpoint 29">
       <r>   -5.3872    1.0000 </r>
       <r>    2.6102    1.0000 </r>
       <r>    4.5148    1.0000 </r>
       <r>    4.5912    1.0000 </r>
       <r>    7.9836    0.0000 </r>
       <r>    9.5471    0.0000 </r>
       <r>   10.3059    0.0000 </r>
       <r>   10.5873    0.0000 </r>
      </set>
      <set comment="kpoint 30">
       <r>   -5.3872    1.0000 </r>
       <r>    2.6102    1.0000 </r>
       <r>    4.5148    1.0000 </r>
       <r>    4.5912    1.0000 </r>
       <r>    7.9836    0.0000 </r>
       <r>    9.5471    0.0000 </r>
       <r>   10.3059    0.0000 </r>
       <r>   10.5873    0.0000 </r>
      </set>
      <set comment="kpoint 31">
       <r>   -5.3872    1.0000 </r>
       <r>    2.6102    1.0000 </r>
       <r>    4.5148    1.0000 </r>
       <r>    4.5912    1.0000 </r>
       <r>    7.9836    0.0000 </r>
       <r>    9.5471    0.0000 </r>
       <r>   10.3059    0.0000 </r>
       <r>   10.5873    0.0000 </r>
      </set>
      <set comment="kpoint 32">
       <r>   -5.3872    1.0000 </r>
       <r>    2.6102    1.0000 </r>
       <r>    4.5148    1.0000 </r>
       <r>    4.5912    1.0000 </r>
       <r>    7.9836    0.0000 </r>
       <r>    9.5471    0.0000 </r>
       <r>   10.3059    0.0000 </r>
       <r>   10.5873    0.0000 </r>
      </set>
      <set comment="kpoint 33">
       <r>   -4.5718    1.0000 </r>
       <r>    0.5493    1.0000 </r>
       <r>    3.9997    1.0000 </r>
       <r>    4.2468    1.0000 </r>
       <r>    8.0836    0.0000 </r>
       <r>    9.4797    0.0000 </r>
       <r>   10.3022    0.0000 </r>
       <r>   11.3054    0.0000 </r>
      </set>
      <set comment="kpoint 34">
       <r>   -4.5718    1.0000 </r>
       <r>    0.5493    1.0000 </r>
       <r>    3.9997    1.0000 </r>
       <r>    4.2468    1.0000 </r>
       <r>    8.0836    0.0000 </r>
       <r>    9.4797    0.0000 </r>
       <r>   10.3022    0.0000 </r>
       <r>   11.3054    0.0000 </r>
      </set>
      <set comment="kpoint 35">
       <r>   -4.5718    1.0000 </r>
       <r>    0.5493    1.0000 </r>
       <r>    3.9997    1.0000 </r>
       <r>    4.2468    1.0000 </r>
       <r>    8.0836    0.0000 </r>
       <r>    9.4797    0.0000 </r>
       <r>   10.3022    0.0000 </r>
       <r>   11.3054    0.0000 </r>
      </set>
      <set comment="kpoint 36">
       <r>   -4.5718    1.0000 </r>
       <r>    0.5493    1.0000 </r>
       <r>    3.9997    1.0000 </r>
       <r>    4.2468    1.0000 </r>
       <r>    8.0836    0.0000 </r>
       <r>    9.4797    0.0000 </r>
       <r>   10.3022    0.0000 </r>
       <r>   11.3054    0.0000 </r>
      </set>
      <set comment="kpoint 37">
       <r>   -4.5718    1.0000 </r>
       <r>    0.5493    1.0000 </r>
       <r>    3.9997    1.0000 </r>
       <r>    4.2468    1.0000 </r>
       <r>    8.0836    0.0000 </r>
       <r>    9.4797    0.0000 </r>
       <r>   10.3022    0.0000 </r>
       <r>   11.3054    0.0000 </r>
      </set>
      <set comment="kpoint 38">
       <r>   -4.5718    1.0000 </r>
       <r>    0.5493    1.0000 </r>
       <r>    3.9997    1.0000 </r>
       <r>    4.2468    1.0000 </r>
       <r>    8.0836    0.0000 </r>
       <r>    9.4797    0.0000 </r>
       <r>   10.3022    0.0000 </r>
       <r>   11.3054    0.0000 </r>
      </set>
      <set comment="kpoint 39">
       <r>   -4.5718    1.0000 </r>
       <r>    0.5493    1.0000 </r>
       <r>    3.9997    1.0000 </r>
       <r>    4.2468    1.0000 </r>
       <r>    8.0836    0.0000 </r>
       <r>    9.4797    0.0000 </r>
       <r>   10.3022    0.0000 </r>
       <r>   11.3054    0.0000 </r>
      </set>
      <set comment="kpoint 40">
       <r>   -4.5718    1.0000 </r>
       <r>    0.5493    1.0000 </r>
       <r>    3.9997    1.0000 </r>
       <r>    4.2468    1.0000 </r>
       <r>    8.0836    0.0000 </r>
       <r>    9.4797    0.0000 </r>
       <r>   10.3022    0.0000 </r>
       <r>   11.3054    0.0000 </r>
      </set>
      <set comment="kpoint 41">
       <r>   -4.5718    1.0000 </r>
       <r>    0.5493    1.0000 </r>
       <r>    3.9997    1.0000 </r>
       <r>    4.2468    1.0000 </r>
       <r>    8.0836    0.0000 </r>
       <r>    9.4797    0.0000 </r>
       <r>   10.3022    0.0000 </r>
       <r>   11.3054    0.0000 </r>
      </set>
      <set comment="kpoint 42">
       <r>   -4.5718    1.0000 </r>
       <r>    0.5493    1.0000 </r>
       <r>    3.9997    1.0000 </r>
       <r>    4.2468    1.0000 </r>
       <r>    8.0836    0.0000 </r>
       <r>    9.4797    0.0000 </r>
       <r>   10.3022    0.0000 </r>
       <r>   11.3054    0.0000 </r>
      </set>
      <set comment="kpoint 43">
       <r>   -4.5718    1.0000 </r>
       <r>    0.5493    1.0000 </r>
       <r>    3.9997    1.0000 </r>
       <r>    4.2468    1.0000 </r>
       <r>    8.0836    0.0000 </r>
       <r>    9.4797    0.0000 </r>
       <r>   10.3022    0.0000 </r>
       <r>   11.3054    0.0000 </r>
      </set>
      <set comment="kpoint 44">
       <r>   -4.5718    1.0000 </r>
       <r>    0.5493    1.0000 </r>
       <r>    3.9997    1.0000 </r>
       <r>    4.2468    1.0000 </r>
       <r>    8.0836    0.0000 </r>
       <r>    9.4797    0.0000 </r>
       <r>   10.3022    0.0000 </r>
       <r>   11.3054    0.0000 </r>
      </set>
      <set comment="kpoint 45">
       <r>   -3.7099    1.0000 </r>
       <r>   -0.9147    1.0000 </r>
       <r>    3.5540    1.0000 </r>
       <r>    4.2712    1.0000 </r>
       <r>    8.0307    0.0000 </r>
       <r>    9.3518    0.0000 </r>
       <r>    9.9376    0.0000 </r>
       <r>   13.2094    0.0000 </r>
      </set>
      <set comment="kpoint 46">
       <r>   -3.7099    1.0000 </r>
       <r>   -0.9147    1.0000 </r>
       <r>    3.5540    1.0000 </r>
       <r>    4.2712    1.0000 </r>
       <r>    8.0307    0.0000 </r>
       <r>    9.3518    0.0000 </r>
       <r>    9.9376    0.0000 </r>
       <r>   13.2094    0.0000 </r>
      </set>
      <set comment="kpoint 47">
       <r>   -3.7099    1.0000 </r>
       <r>   -0.9147    1.0000 </r>
       <r>    3.5540    1.0000 </r>
       <r>    4.2712    1.0000 </r>
       <r>    8.0307    0.0000 </r>
       <r>    9.3518    0.0000 </r>
       <r>    9.9376    0.0000 </r>
       <r>   13.2094    0.0000 </r>
      </set>
      <set comment="kpoint 48">
       <r>   -3.7099    1.0000 </r>
       <r>   -0.9147    1.0000 </r>
       <r>    3.5540    1.0000 </r>
       <r>    4.2712    1.0000 </r>
       <r>    8.0307    0.0000 </r>
       <r>    9.3518    0.0000 </r>
       <r>    9.9376    0.0000 </r>
       <r>   13.2094    0.0000 </r>
      </set>
      <set comment="kpoint 49">
       <r>   -3.7099    1.0000 </r>
       <r>   -0.9147    1.0000 </r>
       <r>    3.5540    1.0000 </r>
       <r>    4.2712    1.0000 </r>
       <r>    8.0307    0.0000 </r>
       <r>    9.3518    0.0000 </r>
       <r>    9.9376    0.0000 </r>
       <r>   13.2094    0.0000 </r>
      </set>
      <set comment="kpoint 50">
       <r>   -3.7099    1.0000 </r>
       <r>   -0.9147    1.0000 </r>
       <r>    3.5540    1.0000 </r>
       <r>    4.2712    1.0000 </r>
       <r>    8.0307    0.0000 </r>
       <r>    9.3518    0.0000 </r>
       <r>    9.9376    0.0000 </r>
       <r>   13.2094    0.0000 </r>
      </set>
      <set comment="kpoint 51">
       <r>   -3.7099    1.0000 </r>
       <r>   -0.9147    1.0000 </r>
       <r>    3.5540    1.0000 </r>
       <r>    4.2712    1.0000 </r>
       <r>    8.0307    0.0000 </r>
       <r>    9.3518    0.0000 </r>
       <r>    9.9376    0.0000 </r>
       <r>   13.2094    0.0000 </r>
      </set>
      <set comment="kpoint 52">
       <r>   -3.7099    1.0000 </r>
       <r>   -0.9147    1.0000 </r>
       <r>    3.5540    1.0000 </r>
       <r>    4.2712    1.0000 </r>
       <r>    8.0307    0.0000 </r>
       <r>    9.3518    0.0000 </r>
       <r>    9.9376    0.0000 </r>
       <r>   13.2094    0.0000 </r>
      </set>
      <set comment="kpoint 53">
       <r>   -3.7099    1.0000 </r>
       <r>   -0.9147    1.0000 </r>
       <r>    3.5540    1.0000 </r>
       <r>    4.2712    1.0000 </r>
       <r>    8.0307    0.0000 </r>
       <r>    9.3518    0.0000 </r>
       <r>    9.9376    0.0000 </r>
       <r>   13.2094    0.0000 </r>
      </set>
      <set comment="kpoint 54">
       <r>   -3.7099    1.0000 </r>
       <r>   -0.9147    1.0000 </r>
       <r>    3.5540    1.0000 </r>
       <r>    4.2712    1.0000 </r>
       <r>    8.0307    0.0000 </r>
       <r>    9.3518    0.0000 </r>
       <r>    9.9376    0.0000 </r>
       <r>   13.2094    0.0000 </r>
      </set>
      <set comment="kpoint 55">
       <r>   -3.7099    1.0000 </r>
       <r>   -0.9147    1.0000 </r>
       <r>    3.5540    1.0000 </r>
       <r>    4.2712    1.0000 </r>
       <r>    8.0307    0.0000 </r>
       <r>    9.3518    0.0000 </r>
       <r>    9.9376    0.0000 </r>
       <r>   13.2094    0.0000 </r>
      </set>
      <set comment="kpoint 56">
       <r>   -3.7099    1.0000 </r>
       <r>   -0.9147    1.0000 </r>
       <r>    3.5540    1.0000 </r>
       <r>    4.2712    1.0000 </r>
       <r>    8.0307    0.0000 </r>
       <r>    9.3518    0.0000 </r>
       <r>    9.9376    0.0000 </r>
       <r>   13.2094    0.0000 </r>
      </set>
      <set comment="kpoint 57">
       <r>   -3.9546    1.0000 </r>
       <r>   -0.5439    1.0000 </r>
       <r>    3.3722    1.0000 </r>
       <r>    4.5678    1.0000 </r>
       <r>    8.1981    0.0000 </r>
       <r>    9.4597    0.0000 </r>
       <r>    9.7056    0.0000 </r>
       <r>   13.7559    0.0000 </r>
      </set>
      <set comment="kpoint 58">
       <r>   -3.9546    1.0000 </r>
       <r>   -0.5439    1.0000 </r>
       <r>    3.3722    1.0000 </r>
       <r>    4.5678    1.0000 </r>
       <r>    8.1981    0.0000 </r>
       <r>    9.4597    0.0000 </r>
       <r>    9.7056    0.0000 </r>
       <r>   13.7559    0.0000 </r>
      </set>
      <set comment="kpoint 59">
       <r>   -3.9546    1.0000 </r>
       <r>   -0.5439    1.0000 </r>
       <r>    3.3722    1.0000 </r>
       <r>    4.5678    1.0000 </r>
       <r>    8.1981    0.0000 </r>
       <r>    9.4597    0.0000 </r>
       <r>    9.7056    0.0000 </r>
       <r>   13.7559    0.0000 </r>
      </set>
      <set comment="kpoint 60">
       <r>   -3.9546    1.0000 </r>
       <r>   -0.5439    1.0000 </r>
       <r>    3.3722    1.0000 </r>
       <r>    4.5678    1.0000 </r>
       <r>    8.1981    0.0000 </r>
       <r>    9.4597    0.0000 </r>
       <r>    9.7056    0.0000 </r>
       <r>   13.7559    0.0000 </r>
      </set>
      <set comment="kpoint 61">
       <r>   -3.9546    1.0000 </r>
       <r>   -0.5439    1.0000 </r>
       <r>    3.3722    1.0000 </r>
       <r>    4.5678    1.0000 </r>
       <r>    8.1981    0.0000 </r>
       <r>    9.4597    0.0000 </r>
       <r>    9.7056    0.0000 </r>
       <r>   13.7559    0.0000 </r>
      </set>
      <set comment="kpoint 62">
       <r>   -3.9546    1.0000 </r>
       <r>   -0.5439    1.0000 </r>
       <r>    3.3722    1.0000 </r>
       <r>    4.5678    1.0000 </r>
       <r>    8.1981    0.0000 </r>
       <r>    9.4597    0.0000 </r>
       <r>    9.7056    0.0000 </r>
       <r>   13.7559    0.0000 </r>
      </set>
      <set comment="kpoint 63">
       <r>   -3.9546    1.0000 </r>
       <r>   -0.5439    1.0000 </r>
       <r>    3.3722    1.0000 </r>
       <r>    4.5678    1.0000 </r>
       <r>    8.1981    0.0000 </r>
       <r>    9.4597    0.0000 </r>
       <r>    9.7056    0.0000 </r>
       <r>   13.7559    0.0000 </r>
      </set>
      <set comment="kpoint 64">
       <r>   -3.9546    1.0000 </r>
       <r>   -0.5439    1.0000 </r>
       <r>    3.3722    1.0000 </r>
       <r>    4.5678    1.0000 </r>
       <r>    8.1981    0.0000 </r>
       <r>    9.4597    0.0000 </r>
       <r>    9.7056    0.0000 </r>
       <r>   13.7559    0.0000 </r>
      </set>
      <set comment="kpoint 65">
       <r>   -3.9546    1.0000 </r>
       <r>   -0.5439    1.0000 </r>
       <r>    3.3722    1.0000 </r>
       <r>    4.5678    1.0000 </r>
       <r>    8.1981    0.0000 </r>
       <r>    9.4597    0.0000 </r>
       <r>    9.7056    0.0000 </r>
       <r>   13.7559    0.0000 </r>
      </set>
      <set comment="kpoint 66">
       <r>   -3.9546    1.0000 </r>
       <r>   -0.5439    1.0000 </r>
       <r>    3.3722    1.0000 </r>
       <r>    4.5678    1.0000 </r>
       <r>    8.1981    0.0000 </r>
       <r>    9.4597    0.0000 </r>
       <r>    9.7056    0.0000 </r>
       <r>   13.7559    0.0000 </r>
      </set>
      <set comment="kpoint 67">
       <r>   -3.9546    1.0000 </r>
       <r>   -0.5439    1.0000 </r>
       <r>    3.3722    1.0000 </r>
       <r>    4.5678    1.0000 </r>
       <r>    8.1981    0.0000 </r>
       <r>    9.4597    0.0000 </r>
       <r>    9.7056    0.0000 </r>
       <r>   13.7559    0.0000 </r>
      </set>
      <set comment="kpoint 68">
       <r>   -3.9546    1.0000 </r>
       <r>   -0.5439    1.0000 </r>
       <r>    3.3722    1.0000 </r>
       <r>    4.5678    1.0000 </r>
       <r>    8.1981    0.0000 </r>
       <r>    9.4597    0.0000 </r>
       <r>    9.7056    0.0000 </r>
       <r>   13.7559    0.0000 </r>
      </set>
      <set comment="kpoint 69">
       <r>   -4.8783    1.0000 </r>
       <r>    1.2088    1.0000 </r>
       <r>    3.5230    1.0000 </r>
       <r>    5.0595    1.0000 </r>
       <r>    8.5574    0.0000 </r>
       <r>    9.5147    0.0000 </r>
       <r>    9.6933    0.0000 </r>
       <r>   12.1383    0.0000 </r>
      </set>
      <set comment="kpoint 70">
       <r>   -4.8783    1.0000 </r>
       <r>    1.2088    1.0000 </r>
       <r>    3.5230    1.0000 </r>
       <r>    5.0595    1.0000 </r>
       <r>    8.5574    0.0000 </r>
       <r>    9.5147    0.0000 </r>
       <r>    9.6933    0.0000 </r>
       <r>   12.1383    0.0000 </r>
      </set>
      <set comment="kpoint 71">
       <r>   -4.8783    1.0000 </r>
       <r>    1.2088    1.0000 </r>
       <r>    3.5230    1.0000 </r>
       <r>    5.0595    1.0000 </r>
       <r>    8.5574    0.0000 </r>
       <r>    9.5147    0.0000 </r>
       <r>    9.6933    0.0000 </r>
       <r>   12.1383    0.0000 </r>
      </set>
      <set comment="kpoint 72">
       <r>   -4.8783    1.0000 </r>
       <r>    1.2088    1.0000 </r>
       <r>    3.5230    1.0000 </r>
       <r>    5.0595    1.0000 </r>
       <r>    8.5574    0.0000 </r>
       <r>    9.5147    0.0000 </r>
       <r>    9.6933    0.0000 </r>
       <r>   12.1383    0.0000 </r>
      </set>
      <set comment="kpoint 73">
       <r>   -4.8783    1.0000 </r>
       <r>    1.2088    1.0000 </r>
       <r>    3.5230    1.0000 </r>
       <r>    5.0595    1.0000 </r>
       <r>    8.5574    0.0000 </r>
       <r>    9.5147    0.0000 </r>
       <r>    9.6933    0.0000 </r>
       <r>   12.1383    0.0000 </r>
      </set>
      <set comment="kpoint 74">
       <r>   -4.8783    1.0000 </r>
       <r>    1.2088    1.0000 </r>
       <r>    3.5230    1.0000 </r>
       <r>    5.0595    1.0000 </r>
       <r>    8.5574    0.0000 </r>
       <r>    9.5147    0.0000 </r>
       <r>    9.6933    0.0000 </r>
       <r>   12.1383    0.0000 </r>
      </set>
      <set comment="kpoint 75">
       <r>   -4.8783    1.0000 </r>
       <r>    1.2088    1.0000 </r>
       <r>    3.5230    1.0000 </r>
       <r>    5.0595    1.0000 </r>
       <r>    8.5574    0.0000 </r>
       <r>    9.5147    0.0000 </r>
       <r>    9.6933    0.0000 </r>
       <r>   12.1383    0.0000 </r>
      </set>
      <set comment="kpoint 76">
       <r>   -4.8783    1.0000 </r>
       <r>    1.2088    1.0000 </r>
       <r>    3.5230    1.0000 </r>
       <r>    5.0595    1.0000 </r>
       <r>    8.5574    0.0000 </r>
       <r>    9.5147    0.0000 </r>
       <r>    9.6933    0.0000 </r>
       <r>   12.1383    0.0000 </r>
      </set>
      <set comment="kpoint 77">
       <r>   -4.8783    1.0000 </r>
       <r>    1.2088    1.0000 </r>
       <r>    3.5230    1.0000 </r>
       <r>    5.0595    1.0000 </r>
       <r>    8.5574    0.0000 </r>
       <r>    9.5147    0.0000 </r>
       <r>    9.6933    0.0000 </r>
       <r>   12.1383    0.0000 </r>
      </set>
      <set comment="kpoint 78">
       <r>   -4.8783    1.0000 </r>
       <r>    1.2088    1.0000 </r>
       <r>    3.5230    1.0000 </r>
       <r>    5.0595    1.0000 </r>
       <r>    8.5574    0.0000 </r>
       <r>    9.5147    0.0000 </r>
       <r>    9.6933    0.0000 </r>
       <r>   12.1383    0.0000 </r>
      </set>
      <set comment="kpoint 79">
       <r>   -4.8783    1.0000 </r>
       <r>    1.2088    1.0000 </r>
       <r>    3.5230    1.0000 </r>
       <r>    5.0595    1.0000 </r>
       <r>    8.5574    0.0000 </r>
       <r>    9.5147    0.0000 </r>
       <r>    9.6933    0.0000 </r>
       <r>   12.1383    0.0000 </r>
      </set>
      <set comment="kpoint 80">
       <r>   -4.8783    1.0000 </r>
       <r>    1.2088    1.0000 </r>
       <r>    3.5230    1.0000 </r>
       <r>    5.0595    1.0000 </r>
       <r>    8.5574    0.0000 </r>
       <r>    9.5147    0.0000 </r>
       <r>    9.6933    0.0000 </r>
       <r>   12.1383    0.0000 </r>
      </set>
      <set comment="kpoint 81">
       <r>   -5.5885    1.0000 </r>
       <r>    3.1507    1.0000 </r>
       <r>    4.2049    1.0000 </r>
       <r>    5.5403    1.0000 </r>
       <r>    8.8815    0.0000 </r>
       <r>    8.9606    0.0000 </r>
       <r>    9.1958    0.0000 </r>
       <r>   11.3904    0.0000 </r>
      </set>
      <set comment="kpoint 82">
       <r>   -5.5885    1.0000 </r>
       <r>    3.1507    1.0000 </r>
       <r>    4.2049    1.0000 </r>
       <r>    5.5403    1.0000 </r>
       <r>    8.8815    0.0000 </r>
       <r>    8.9606    0.0000 </r>
       <r>    9.1958    0.0000 </r>
       <r>   11.3904    0.0000 </r>
      </set>
      <set comment="kpoint 83">
       <r>   -5.5885    1.0000 </r>
       <r>    3.1507    1.0000 </r>
       <r>    4.2049    1.0000 </r>
       <r>    5.5403    1.0000 </r>
       <r>    8.8815    0.0000 </r>
       <r>    8.9606    0.0000 </r>
       <r>    9.1958    0.0000 </r>
       <r>   11.3904    0.0000 </r>
      </set>
      <set comment="kpoint 84">
       <r>   -5.5885    1.0000 </r>
       <r>    3.1507    1.0000 </r>
       <r>    4.2049    1.0000 </r>
       <r>    5.5403    1.0000 </r>
       <r>    8.8815    0.0000 </r>
       <r>    8.9606    0.0000 </r>
       <r>    9.1958    0.0000 </r>
       <r>   11.3904    0.0000 </r>
      </set>
      <set comment="kpoint 85">
       <r>   -5.5885    1.0000 </r>
       <r>    3.1507    1.0000 </r>
       <r>    4.2049    1.0000 </r>
       <r>    5.5403    1.0000 </r>
       <r>    8.8815    0.0000 </r>
       <r>    8.9606    0.0000 </r>
       <r>    9.1958    0.0000 </r>
       <r>   11.3904    0.0000 </r>
      </set>
      <set comment="kpoint 86">
       <r>   -5.5885    1.0000 </r>
       <r>    3.1507    1.0000 </r>
       <r>    4.2049    1.0000 </r>
       <r>    5.5403    1.0000 </r>
       <r>    8.8815    0.0000 </r>
       <r>    8.9606    0.0000 </r>
       <r>    9.1958    0.0000 </r>
       <r>   11.3904    0.0000 </r>
      </set>
      <set comment="kpoint 87">
       <r>   -5.0466    1.0000 </r>
       <r>    2.3178    1.0000 </r>
       <r>    3.9436    1.0000 </r>
       <r>    3.9436    1.0000 </r>
       <r>    6.9652    0.0000 </r>
       <r>    8.9685    0.0000 </r>
       <r>   11.5952    0.0000 </r>
       <r>   11.5952    0.0000 </r>
      </set>
      <set comment="kpoint 88">
       <r>   -5.0466    1.0000 </r>
       <r>    2.3178    1.0000 </r>
       <r>    3.9436    1.0000 </r>
       <r>    3.9436    1.0000 </r>
       <r>    6.9652    0.0000 </r>
       <r>    8.9685    0.0000 </r>
       <r>   11.5952    0.0000 </r>
       <r>   11.5952    0.0000 </r>
      </set>
      <set comment="kpoint 89">
       <r>   -5.0466    1.0000 </r>
       <r>    2.3178    1.0000 </r>
       <r>    3.9436    1.0000 </r>
       <r>    3.9436    1.0000 </r>
       <r>    6.9652    0.0000 </r>
       <r>    8.9685    0.0000 </r>
       <r>   11.5952    0.0000 </r>
       <r>   11.5952    0.0000 </r>
      </set>
      <set comment="kpoint 90">
       <r>   -4.3363    1.0000 </r>
       <r>    0.8939    1.0000 </r>
       <r>    3.1629    1.0000 </r>
       <r>    3.6255    1.0000 </r>
       <r>    7.1860    0.0000 </r>
       <r>    8.7297    0.0000 </r>
       <r>   11.8372    0.0000 </r>
       <r>   12.1085    0.0000 </r>
      </set>
      <set comment="kpoint 91">
       <r>   -4.3363    1.0000 </r>
       <r>    0.8939    1.0000 </r>
       <r>    3.1629    1.0000 </r>
       <r>    3.6255    1.0000 </r>
       <r>    7.1860    0.0000 </r>
       <r>    8.7297    0.0000 </r>
       <r>   11.8372    0.0000 </r>
       <r>   12.1085    0.0000 </r>
      </set>
      <set comment="kpoint 92">
       <r>   -4.3363    1.0000 </r>
       <r>    0.8939    1.0000 </r>
       <r>    3.1629    1.0000 </r>
       <r>    3.6255    1.0000 </r>
       <r>    7.1860    0.0000 </r>
       <r>    8.7297    0.0000 </r>
       <r>   11.8372    0.0000 </r>
       <r>   12.1085    0.0000 </r>
      </set>
      <set comment="kpoint 93">
       <r>   -4.3363    1.0000 </r>
       <r>    0.8939    1.0000 </r>
       <r>    3.1629    1.0000 </r>
       <r>    3.6255    1.0000 </r>
       <r>    7.1860    0.0000 </r>
       <r>    8.7297    0.0000 </r>
       <r>   11.8372    0.0000 </r>
       <r>   12.1085    0.0000 </r>
      </set>
      <set comment="kpoint 94">
       <r>   -4.3363    1.0000 </r>
       <r>    0.8939    1.0000 </r>
       <r>    3.1629    1.0000 </r>
       <r>    3.6255    1.0000 </r>
       <r>    7.1860    0.0000 </r>
       <r>    8.7297    0.0000 </r>
       <r>   11.8372    0.0000 </r>
       <r>   12.1085    0.0000 </r>
      </set>
      <set comment="kpoint 95">
       <r>   -4.3363    1.0000 </r>
       <r>    0.8939    1.0000 </r>
       <r>    3.1629    1.0000 </r>
       <r>    3.6255    1.0000 </r>
       <r>    7.1860    0.0000 </r>
       <r>    8.7297    0.0000 </r>
       <r>   11.8372    0.0000 </r>
       <r>   12.1085    0.0000 </r>
      </set>
      <set comment="kpoint 96">
       <r>   -4.3363    1.0000 </r>
       <r>    0.8939    1.0000 </r>
       <r>    3.1629    1.0000 </r>
       <r>    3.6255    1.0000 </r>
       <r>    7.1860    0.0000 </r>
       <r>    8.7297    0.0000 </r>
       <r>   11.8372    0.0000 </r>
       <r>   12.1085    0.0000 </r>
      </set>
      <set comment="kpoint 97">
       <r>   -4.3363    1.0000 </r>
       <r>    0.8939    1.0000 </r>
       <r>    3.1629    1.0000 </r>
       <r>    3.6255    1.0000 </r>
       <r>    7.1860    0.0000 </r>
       <r>    8.7297    0.0000 </r>
       <r>   11.8372    0.0000 </r>
       <r>   12.1085    0.0000 </r>
      </set>
      <set comment="kpoint 98">
       <r>   -4.3363    1.0000 </r>
       <r>    0.8939    1.0000 </r>
       <r>    3.1629    1.0000 </r>
       <r>    3.6255    1.0000 </r>
       <r>    7.1860    0.0000 </r>
       <r>    8.7297    0.0000 </r>
       <r>   11.8372    0.0000 </r>
       <r>   12.1085    0.0000 </r>
      </set>
      <set comment="kpoint 99">
       <r>   -4.3363    1.0000 </r>
       <r>    0.8939    1.0000 </r>
       <r>    3.1629    1.0000 </r>
       <r>    3.6255    1.0000 </r>
       <r>    7.1860    0.0000 </r>
       <r>    8.7297    0.0000 </r>
       <r>   11.8372    0.0000 </r>
       <r>   12.1085    0.0000 </r>
      </set>
      <set comment="kpoint 100">
       <r>   -4.3363    1.0000 </r>
       <r>    0.8939    1.0000 </r>
       <r>    3.1629    1.0000 </r>
       <r>    3.6255    1.0000 </r>
       <r>    7.1860    0.0000 </r>
       <r>    8.7297    0.0000 </r>
       <r>   11.8372    0.0000 </r>
       <r>   12.1085    0.0000 </r>
      </set>
      <set comment="kpoint 101">
       <r>   -4.3363    1.0000 </r>
       <r>    0.8939    1.0000 </r>
       <r>    3.1629    1.0000 </r>
       <r>    3.6255    1.0000 </r>
       <r>    7.1860    0.0000 </r>
       <r>    8.7297    0.0000 </r>
       <r>   11.8372    0.0000 </r>
       <r>   12.1085    0.0000 </r>
      </set>
      <set comment="kpoint 102">
       <r>   -3.4098    1.0000 </r>
       <r>   -0.5486    1.0000 </r>
       <r>    2.2993    1.0000 </r>
       <r>    3.6286    1.0000 </r>
       <r>    7.3549    0.0000 </r>
       <r>   10.2850    0.0000 </r>
       <r>   11.5850    0.0000 </r>
       <r>   11.7585    0.0000 </r>
      </set>
      <set comment="kpoint 103">
       <r>   -3.4098    1.0000 </r>
       <r>   -0.5486    1.0000 </r>
       <r>    2.2993    1.0000 </r>
       <r>    3.6286    1.0000 </r>
       <r>    7.3549    0.0000 </r>
       <r>   10.2850    0.0000 </r>
       <r>   11.5850    0.0000 </r>
       <r>   11.7585    0.0000 </r>
      </set>
      <set comment="kpoint 104">
       <r>   -3.4098    1.0000 </r>
       <r>   -0.5486    1.0000 </r>
       <r>    2.2993    1.0000 </r>
       <r>    3.6286    1.0000 </r>
       <r>    7.3549    0.0000 </r>
       <r>   10.2850    0.0000 </r>
       <r>   11.5850    0.0000 </r>
       <r>   11.7585    0.0000 </r>
      </set>
      <set comment="kpoint 105">
       <r>   -3.4098    1.0000 </r>
       <r>   -0.5486    1.0000 </r>
       <r>    2.2993    1.0000 </r>
       <r>    3.6286    1.0000 </r>
       <r>    7.3549    0.0000 </r>
       <r>   10.2850    0.0000 </r>
       <r>   11.5850    0.0000 </r>
       <r>   11.7585    0.0000 </r>
      </set>
      <set comment="kpoint 106">
       <r>   -3.4098    1.0000 </r>
       <r>   -0.5486    1.0000 </r>
       <r>    2.2993    1.0000 </r>
       <r>    3.6286    1.0000 </r>
       <r>    7.3549    0.0000 </r>
       <r>   10.2850    0.0000 </r>
       <r>   11.5850    0.0000 </r>
       <r>   11.7585    0.0000 </r>
      </set>
      <set comment="kpoint 107">
       <r>   -3.4098    1.0000 </r>
       <r>   -0.5486    1.0000 </r>
       <r>    2.2993    1.0000 </r>
       <r>    3.6286    1.0000 </r>
       <r>    7.3549    0.0000 </r>
       <r>   10.2850    0.0000 </r>
       <r>   11.5850    0.0000 </r>
       <r>   11.7585    0.0000 </r>
      </set>
      <set comment="kpoint 108">
       <r>   -3.4098    1.0000 </r>
       <r>   -0.5486    1.0000 </r>
       <r>    2.2993    1.0000 </r>
       <r>    3.6286    1.0000 </r>
       <r>    7.3549    0.0000 </r>
       <r>   10.2850    0.0000 </r>
       <r>   11.5850    0.0000 </r>
       <r>   11.7585    0.0000 </r>
      </set>
      <set comment="kpoint 109">
       <r>   -3.4098    1.0000 </r>
       <r>   -0.5486    1.0000 </r>
       <r>    2.2993    1.0000 </r>
       <r>    3.6286    1.0000 </r>
       <r>    7.3549    0.0000 </r>
       <r>   10.2850    0.0000 </r>
       <r>   11.5850    0.0000 </r>
       <r>   11.7585    0.0000 </r>
      </set>
      <set comment="kpoint 110">
       <r>   -3.4098    1.0000 </r>
       <r>   -0.5486    1.0000 </r>
       <r>    2.2993    1.0000 </r>
       <r>    3.6286    1.0000 </r>
       <r>    7.3549    0.0000 </r>
       <r>   10.2850    0.0000 </r>
       <r>   11.5850    0.0000 </r>
       <r>   11.7585    0.0000 </r>
      </set>
      <set comment="kpoint 111">
       <r>   -3.4098    1.0000 </r>
       <r>   -0.5486    1.0000 </r>
       <r>    2.2993    1.0000 </r>
       <r>    3.6286    1.0000 </r>
       <r>    7.3549    0.0000 </r>
       <r>   10.2850    0.0000 </r>
       <r>   11.5850    0.0000 </r>
       <r>   11.7585    0.0000 </r>
      </set>
      <set comment="kpoint 112">
       <r>   -3.4098    1.0000 </r>
       <r>   -0.5486    1.0000 </r>
       <r>    2.2993    1.0000 </r>
       <r>    3.6286    1.0000 </r>
       <r>    7.3549    0.0000 </r>
       <r>   10.2850    0.0000 </r>
       <r>   11.5850    0.0000 </r>
       <r>   11.7585    0.0000 </r>
      </set>
      <set comment="kpoint 113">
       <r>   -3.4098    1.0000 </r>
       <r>   -0.5486    1.0000 </r>
       <r>    2.2993    1.0000 </r>
       <r>    3.6286    1.0000 </r>
       <r>    7.3549    0.0000 </r>
       <r>   10.2850    0.0000 </r>
       <r>   11.5850    0.0000 </r>
       <r>   11.7585    0.0000 </r>
      </set>
      <set comment="kpoint 114">
       <r>   -3.2054    1.0000 </r>
       <r>   -0.8071    1.0000 </r>
       <r>    1.8407    1.0000 </r>
       <r>    3.9471    1.0000 </r>
       <r>    7.6800    0.0000 </r>
       <r>   11.3028    0.0000 </r>
       <r>   11.3188    0.0000 </r>
       <r>   12.8000    0.0000 </r>
      </set>
      <set comment="kpoint 115">
       <r>   -3.2054    1.0000 </r>
       <r>   -0.8071    1.0000 </r>
       <r>    1.8407    1.0000 </r>
       <r>    3.9471    1.0000 </r>
       <r>    7.6800    0.0000 </r>
       <r>   11.3028    0.0000 </r>
       <r>   11.3188    0.0000 </r>
       <r>   12.8000    0.0000 </r>
      </set>
      <set comment="kpoint 116">
       <r>   -3.2054    1.0000 </r>
       <r>   -0.8071    1.0000 </r>
       <r>    1.8407    1.0000 </r>
       <r>    3.9471    1.0000 </r>
       <r>    7.6800    0.0000 </r>
       <r>   11.3028    0.0000 </r>
       <r>   11.3188    0.0000 </r>
       <r>   12.8000    0.0000 </r>
      </set>
      <set comment="kpoint 117">
       <r>   -3.2054    1.0000 </r>
       <r>   -0.8071    1.0000 </r>
       <r>    1.8407    1.0000 </r>
       <r>    3.9471    1.0000 </r>
       <r>    7.6800    0.0000 </r>
       <r>   11.3028    0.0000 </r>
       <r>   11.3188    0.0000 </r>
       <r>   12.8000    0.0000 </r>
      </set>
      <set comment="kpoint 118">
       <r>   -3.2054    1.0000 </r>
       <r>   -0.8071    1.0000 </r>
       <r>    1.8407    1.0000 </r>
       <r>    3.9471    1.0000 </r>
       <r>    7.6800    0.0000 </r>
       <r>   11.3028    0.0000 </r>
       <r>   11.3188    0.0000 </r>
       <r>   12.8000    0.0000 </r>
      </set>
      <set comment="kpoint 119">
       <r>   -3.2054    1.0000 </r>
       <r>   -0.8071    1.0000 </r>
       <r>    1.8407    1.0000 </r>
       <r>    3.9471    1.0000 </r>
       <r>    7.6800    0.0000 </r>
       <r>   11.3028    0.0000 </r>
       <r>   11.3188    0.0000 </r>
       <r>   12.8000    0.0000 </r>
      </set>
      <set comment="kpoint 120">
       <r>   -3.2054    1.0000 </r>
       <r>   -0.8071    1.0000 </r>
       <r>    1.8407    1.0000 </r>
       <r>    3.9471    1.0000 </r>
       <r>    7.6800    0.0000 </r>
       <r>   11.3028    0.0000 </r>
       <r>   11.3188    0.0000 </r>
       <r>   12.8000    0.0000 </r>
      </set>
      <set comment="kpoint 121">
       <r>   -3.2054    1.0000 </r>
       <r>   -0.8071    1.0000 </r>
       <r>    1.8407    1.0000 </r>
       <r>    3.9471    1.0000 </r>
       <r>    7.6800    0.0000 </r>
       <r>   11.3028    0.0000 </r>
       <r>   11.3188    0.0000 </r>
       <r>   12.8000    0.0000 </r>
      </set>
      <set comment="kpoint 122">
       <r>   -3.2054    1.0000 </r>
       <r>   -0.8071    1.0000 </r>
       <r>    1.8407    1.0000 </r>
       <r>    3.9471    1.0000 </r>
       <r>    7.6800    0.0000 </r>
       <r>   11.3028    0.0000 </r>
       <r>   11.3188    0.0000 </r>
       <r>   12.8000    0.0000 </r>
      </set>
      <set comment="kpoint 123">
       <r>   -3.2054    1.0000 </r>
       <r>   -0.8071    1.0000 </r>
       <r>    1.8407    1.0000 </r>
       <r>    3.9471    1.0000 </r>
       <r>    7.6800    0.0000 </r>
       <r>   11.3028    0.0000 </r>
       <r>   11.3188    0.0000 </r>
       <r>   12.8000    0.0000 </r>
      </set>
      <set comment="kpoint 124">
       <r>   -3.2054    1.0000 </r>
       <r>   -0.8071    1.0000 </r>
       <r>    1.8407    1.0000 </r>
       <r>    3.9471    1.0000 </r>
       <r>    7.6800    0.0000 </r>
       <r>   11.3028    0.0000 </r>
       <r>   11.3188    0.0000 </r>
       <r>   12.8000    0.0000 </r>
      </set>
      <set comment="kpoint 125">
       <r>   -3.2054    1.0000 </r>
       <r>   -0.8071    1.0000 </r>
       <r>    1.8407    1.0000 </r>
       <r>    3.9471    1.0000 </r>
       <r>    7.6800    0.0000 </r>
       <r>   11.3028    0.0000 </r>
       <r>   11.3188    0.0000 </r>
       <r>   12.8000    0.0000 </r>
      </set>
      <set comment="kpoint 126">
       <r>   -4.0844    1.0000 </r>
       <r>    0.3542    1.0000 </r>
       <r>    2.0807    1.0000 </r>
       <r>    4.5055    1.0000 </r>
       <r>    8.2865    0.0000 </r>
       <r>   10.6282    0.0000 </r>
       <r>   10.9702    0.0000 </r>
       <r>   11.9869    0.0000 </r>
      </set>
      <set comment="kpoint 127">
       <r>   -4.0844    1.0000 </r>
       <r>    0.3542    1.0000 </r>
       <r>    2.0807    1.0000 </r>
       <r>    4.5055    1.0000 </r>
       <r>    8.2865    0.0000 </r>
       <r>   10.6282    0.0000 </r>
       <r>   10.9702    0.0000 </r>
       <r>   11.9869    0.0000 </r>
      </set>
      <set comment="kpoint 128">
       <r>   -4.0844    1.0000 </r>
       <r>    0.3542    1.0000 </r>
       <r>    2.0807    1.0000 </r>
       <r>    4.5055    1.0000 </r>
       <r>    8.2865    0.0000 </r>
       <r>   10.6282    0.0000 </r>
       <r>   10.9702    0.0000 </r>
       <r>   11.9869    0.0000 </r>
      </set>
      <set comment="kpoint 129">
       <r>   -4.0844    1.0000 </r>
       <r>    0.3542    1.0000 </r>
       <r>    2.0807    1.0000 </r>
       <r>    4.5055    1.0000 </r>
       <r>    8.2865    0.0000 </r>
       <r>   10.6282    0.0000 </r>
       <r>   10.9702    0.0000 </r>
       <r>   11.9869    0.0000 </r>
      </set>
      <set comment="kpoint 130">
       <r>   -4.0844    1.0000 </r>
       <r>    0.3542    1.0000 </r>
       <r>    2.0807    1.0000 </r>
       <r>    4.5055    1.0000 </r>
       <r>    8.2865    0.0000 </r>
       <r>   10.6282    0.0000 </r>
       <r>   10.9702    0.0000 </r>
       <r>   11.9869    0.0000 </r>
      </set>
      <set comment="kpoint 131">
       <r>   -4.0844    1.0000 </r>
       <r>    0.3542    1.0000 </r>
       <r>    2.0807    1.0000 </r>
       <r>    4.5055    1.0000 </r>
       <r>    8.2865    0.0000 </r>
       <r>   10.6282    0.0000 </r>
       <r>   10.9702    0.0000 </r>
       <r>   11.9869    0.0000 </r>
      </set>
      <set comment="kpoint 132">
       <r>   -3.7336    1.0000 </r>
       <r>    0.0893    1.0000 </r>
       <r>    3.2271    1.0000 </r>
       <r>    3.2271    1.0000 </r>
       <r>    6.4493    0.0000 </r>
       <r>    7.3740    0.0000 </r>
       <r>   13.8825    0.0000 </r>
       <r>   13.8825    0.0000 </r>
      </set>
      <set comment="kpoint 133">
       <r>   -3.7336    1.0000 </r>
       <r>    0.0893    1.0000 </r>
       <r>    3.2271    1.0000 </r>
       <r>    3.2271    1.0000 </r>
       <r>    6.4493    0.0000 </r>
       <r>    7.3740    0.0000 </r>
       <r>   13.8825    0.0000 </r>
       <r>   13.8825    0.0000 </r>
      </set>
      <set comment="kpoint 134">
       <r>   -3.7336    1.0000 </r>
       <r>    0.0893    1.0000 </r>
       <r>    3.2271    1.0000 </r>
       <r>    3.2271    1.0000 </r>
       <r>    6.4493    0.0000 </r>
       <r>    7.3740    0.0000 </r>
       <r>   13.8825    0.0000 </r>
       <r>   13.8825    0.0000 </r>
      </set>
      <set comment="kpoint 135">
       <r>   -2.8358    1.0000 </r>
       <r>   -0.9960    1.0000 </r>
       <r>    2.3977    1.0000 </r>
       <r>    3.1509    1.0000 </r>
       <r>    6.7290    0.0000 </r>
       <r>    7.8023    0.0000 </r>
       <r>   14.1091    0.0000 </r>
       <r>   14.1972    0.0000 </r>
      </set>
      <set comment="kpoint 136">
       <r>   -2.8358    1.0000 </r>
       <r>   -0.9960    1.0000 </r>
       <r>    2.3977    1.0000 </r>
       <r>    3.1509    1.0000 </r>
       <r>    6.7290    0.0000 </r>
       <r>    7.8023    0.0000 </r>
       <r>   14.1091    0.0000 </r>
       <r>   14.1972    0.0000 </r>
      </set>
      <set comment="kpoint 137">
       <r>   -2.8358    1.0000 </r>
       <r>   -0.9960    1.0000 </r>
       <r>    2.3977    1.0000 </r>
       <r>    3.1509    1.0000 </r>
       <r>    6.7290    0.0000 </r>
       <r>    7.8023    0.0000 </r>
       <r>   14.1091    0.0000 </r>
       <r>   14.1972    0.0000 </r>
      </set>
      <set comment="kpoint 138">
       <r>   -2.8358    1.0000 </r>
       <r>   -0.9960    1.0000 </r>
       <r>    2.3977    1.0000 </r>
       <r>    3.1509    1.0000 </r>
       <r>    6.7290    0.0000 </r>
       <r>    7.8023    0.0000 </r>
       <r>   14.1091    0.0000 </r>
       <r>   14.1972    0.0000 </r>
      </set>
      <set comment="kpoint 139">
       <r>   -2.8358    1.0000 </r>
       <r>   -0.9960    1.0000 </r>
       <r>    2.3977    1.0000 </r>
       <r>    3.1509    1.0000 </r>
       <r>    6.7290    0.0000 </r>
       <r>    7.8023    0.0000 </r>
       <r>   14.1091    0.0000 </r>
       <r>   14.1972    0.0000 </r>
      </set>
      <set comment="kpoint 140">
       <r>   -2.8358    1.0000 </r>
       <r>   -0.9960    1.0000 </r>
       <r>    2.3977    1.0000 </r>
       <r>    3.1509    1.0000 </r>
       <r>    6.7290    0.0000 </r>
       <r>    7.8023    0.0000 </r>
       <r>   14.1091    0.0000 </r>
       <r>   14.1972    0.0000 </r>
      </set>
      <set comment="kpoint 141">
       <r>   -2.8358    1.0000 </r>
       <r>   -0.9960    1.0000 </r>
       <r>    2.3977    1.0000 </r>
       <r>    3.1509    1.0000 </r>
       <r>    6.7290    0.0000 </r>
       <r>    7.8023    0.0000 </r>
       <r>   14.1091    0.0000 </r>
       <r>   14.1972    0.0000 </r>
      </set>
      <set comment="kpoint 142">
       <r>   -2.8358    1.0000 </r>
       <r>   -0.9960    1.0000 </r>
       <r>    2.3977    1.0000 </r>
       <r>    3.1509    1.0000 </r>
       <r>    6.7290    0.0000 </r>
       <r>    7.8023    0.0000 </r>
       <r>   14.1091    0.0000 </r>
       <r>   14.1972    0.0000 </r>
      </set>
      <set comment="kpoint 143">
       <r>   -2.8358    1.0000 </r>
       <r>   -0.9960    1.0000 </r>
       <r>    2.3977    1.0000 </r>
       <r>    3.1509    1.0000 </r>
       <r>    6.7290    0.0000 </r>
       <r>    7.8023    0.0000 </r>
       <r>   14.1091    0.0000 </r>
       <r>   14.1972    0.0000 </r>
      </set>
      <set comment="kpoint 144">
       <r>   -2.8358    1.0000 </r>
       <r>   -0.9960    1.0000 </r>
       <r>    2.3977    1.0000 </r>
       <r>    3.1509    1.0000 </r>
       <r>    6.7290    0.0000 </r>
       <r>    7.8023    0.0000 </r>
       <r>   14.1091    0.0000 </r>
       <r>   14.1972    0.0000 </r>
      </set>
      <set comment="kpoint 145">
       <r>   -2.8358    1.0000 </r>
       <r>   -0.9960    1.0000 </r>
       <r>    2.3977    1.0000 </r>
       <r>    3.1509    1.0000 </r>
       <r>    6.7290    0.0000 </r>
       <r>    7.8023    0.0000 </r>
       <r>   14.1091    0.0000 </r>
       <r>   14.1972    0.0000 </r>
      </set>
      <set comment="kpoint 146">
       <r>   -2.8358    1.0000 </r>
       <r>   -0.9960    1.0000 </r>
       <r>    2.3977    1.0000 </r>
       <r>    3.1509    1.0000 </r>
       <r>    6.7290    0.0000 </r>
       <r>    7.8023    0.0000 </r>
       <r>   14.1091    0.0000 </r>
       <r>   14.1972    0.0000 </r>
      </set>
      <set comment="kpoint 147">
       <r>   -2.3967    1.0000 </r>
       <r>   -1.3928    1.0000 </r>
       <r>    1.5314    1.0000 </r>
       <r>    3.4085    1.0000 </r>
       <r>    7.0386    0.0000 </r>
       <r>    9.9655    0.0000 </r>
       <r>   13.3117    0.0000 </r>
       <r>   13.8548    0.0000 </r>
      </set>
      <set comment="kpoint 148">
       <r>   -2.3967    1.0000 </r>
       <r>   -1.3928    1.0000 </r>
       <r>    1.5314    1.0000 </r>
       <r>    3.4085    1.0000 </r>
       <r>    7.0386    0.0000 </r>
       <r>    9.9655    0.0000 </r>
       <r>   13.3117    0.0000 </r>
       <r>   13.8548    0.0000 </r>
      </set>
      <set comment="kpoint 149">
       <r>   -2.3967    1.0000 </r>
       <r>   -1.3928    1.0000 </r>
       <r>    1.5314    1.0000 </r>
       <r>    3.4085    1.0000 </r>
       <r>    7.0386    0.0000 </r>
       <r>    9.9655    0.0000 </r>
       <r>   13.3117    0.0000 </r>
       <r>   13.8548    0.0000 </r>
      </set>
      <set comment="kpoint 150">
       <r>   -2.3967    1.0000 </r>
       <r>   -1.3928    1.0000 </r>
       <r>    1.5314    1.0000 </r>
       <r>    3.4085    1.0000 </r>
       <r>    7.0386    0.0000 </r>
       <r>    9.9655    0.0000 </r>
       <r>   13.3117    0.0000 </r>
       <r>   13.8548    0.0000 </r>
      </set>
      <set comment="kpoint 151">
       <r>   -2.3967    1.0000 </r>
       <r>   -1.3928    1.0000 </r>
       <r>    1.5314    1.0000 </r>
       <r>    3.4085    1.0000 </r>
       <r>    7.0386    0.0000 </r>
       <r>    9.9655    0.0000 </r>
       <r>   13.3117    0.0000 </r>
       <r>   13.8548    0.0000 </r>
      </set>
      <set comment="kpoint 152">
       <r>   -2.3967    1.0000 </r>
       <r>   -1.3928    1.0000 </r>
       <r>    1.5314    1.0000 </r>
       <r>    3.4085    1.0000 </r>
       <r>    7.0386    0.0000 </r>
       <r>    9.9655    0.0000 </r>
       <r>   13.3117    0.0000 </r>
       <r>   13.8548    0.0000 </r>
      </set>
      <set comment="kpoint 153">
       <r>   -1.9830    1.0000 </r>
       <r>   -1.9830    1.0000 </r>
       <r>    2.9813    1.0000 </r>
       <r>    2.9813    1.0000 </r>
       <r>    6.5440    0.0000 </r>
       <r>    6.5440    0.0000 </r>
       <r>   15.9556    0.0000 </r>
       <r>   15.9556    0.0000 </r>
      </set>
      <set comment="kpoint 154">
       <r>   -1.9830    1.0000 </r>
       <r>   -1.9830    1.0000 </r>
       <r>    2.9813    1.0000 </r>
       <r>    2.9813    1.0000 </r>
       <r>    6.5440    0.0000 </r>
       <r>    6.5440    0.0000 </r>
       <r>   15.9556    0.0000 </r>
       <r>   15.9556    0.0000 </r>
      </set>
      <set comment="kpoint 155">
       <r>   -1.9830    1.0000 </r>
       <r>   -1.9830    1.0000 </r>
       <r>    2.9813    1.0000 </r>
       <r>    2.9813    1.0000 </r>
       <r>    6.5440    0.0000 </r>
       <r>    6.5440    0.0000 </r>
       <r>   15.9556    0.0000 </r>
       <r>   15.9556    0.0000 </r>
      </set>
      <set comment="kpoint 156">
       <r>   -4.7991    1.0000 </r>
       <r>    1.5452    1.0000 </r>
       <r>    3.1205    1.0000 </r>
       <r>    4.4059    1.0000 </r>
       <r>    8.2833    0.0000 </r>
       <r>    9.7410    0.0000 </r>
       <r>   10.0296    0.0000 </r>
       <r>   11.3403    0.0000 </r>
      </set>
      <set comment="kpoint 157">
       <r>   -4.7991    1.0000 </r>
       <r>    1.5452    1.0000 </r>
       <r>    3.1205    1.0000 </r>
       <r>    4.4059    1.0000 </r>
       <r>    8.2833    0.0000 </r>
       <r>    9.7410    0.0000 </r>
       <r>   10.0296    0.0000 </r>
       <r>   11.3403    0.0000 </r>
      </set>
      <set comment="kpoint 158">
       <r>   -4.7991    1.0000 </r>
       <r>    1.5452    1.0000 </r>
       <r>    3.1205    1.0000 </r>
       <r>    4.4059    1.0000 </r>
       <r>    8.2833    0.0000 </r>
       <r>    9.7410    0.0000 </r>
       <r>   10.0296    0.0000 </r>
       <r>   11.3403    0.0000 </r>
      </set>
      <set comment="kpoint 159">
       <r>   -4.7991    1.0000 </r>
       <r>    1.5452    1.0000 </r>
       <r>    3.1205    1.0000 </r>
       <r>    4.4059    1.0000 </r>
       <r>    8.2833    0.0000 </r>
       <r>    9.7410    0.0000 </r>
       <r>   10.0296    0.0000 </r>
       <r>   11.3403    0.0000 </r>
      </set>
      <set comment="kpoint 160">
       <r>   -4.7991    1.0000 </r>
       <r>    1.5452    1.0000 </r>
       <r>    3.1205    1.0000 </r>
       <r>    4.4059    1.0000 </r>
       <r>    8.2833    0.0000 </r>
       <r>    9.7410    0.0000 </r>
       <r>   10.0296    0.0000 </r>
       <r>   11.3403    0.0000 </r>
      </set>
      <set comment="kpoint 161">
       <r>   -4.7991    1.0000 </r>
       <r>    1.5452    1.0000 </r>
       <r>    3.1205    1.0000 </r>
       <r>    4.4059    1.0000 </r>
       <r>    8.2833    0.0000 </r>
       <r>    9.7410    0.0000 </r>
       <r>   10.0296    0.0000 </r>
       <r>   11.3403    0.0000 </r>
      </set>
      <set comment="kpoint 162">
       <r>   -4.7991    1.0000 </r>
       <r>    1.5452    1.0000 </r>
       <r>    3.1205    1.0000 </r>
       <r>    4.4059    1.0000 </r>
       <r>    8.2833    0.0000 </r>
       <r>    9.7410    0.0000 </r>
       <r>   10.0296    0.0000 </r>
       <r>   11.3403    0.0000 </r>
      </set>
      <set comment="kpoint 163">
       <r>   -4.7991    1.0000 </r>
       <r>    1.5452    1.0000 </r>
       <r>    3.1205    1.0000 </r>
       <r>    4.4059    1.0000 </r>
       <r>    8.2833    0.0000 </r>
       <r>    9.7410    0.0000 </r>
       <r>   10.0296    0.0000 </r>
       <r>   11.3403    0.0000 </r>
      </set>
      <set comment="kpoint 164">
       <r>   -4.7991    1.0000 </r>
       <r>    1.5452    1.0000 </r>
       <r>    3.1205    1.0000 </r>
       <r>    4.4059    1.0000 </r>
       <r>    8.2833    0.0000 </r>
       <r>    9.7410    0.0000 </r>
       <r>   10.0296    0.0000 </r>
       <r>   11.3403    0.0000 </r>
      </set>
      <set comment="kpoint 165">
       <r>   -4.7991    1.0000 </r>
       <r>    1.5452    1.0000 </r>
       <r>    3.1205    1.0000 </r>
       <r>    4.4059    1.0000 </r>
       <r>    8.2833    0.0000 </r>
       <r>    9.7410    0.0000 </r>
       <r>   10.0296    0.0000 </r>
       <r>   11.3403    0.0000 </r>
      </set>
      <set comment="kpoint 166">
       <r>   -4.7991    1.0000 </r>
       <r>    1.5452    1.0000 </r>
       <r>    3.1205    1.0000 </r>
       <r>    4.4059    1.0000 </r>
       <r>    8.2833    0.0000 </r>
       <r>    9.7410    0.0000 </r>
       <r>   10.0296    0.0000 </r>
       <r>   11.3403    0.0000 </r>
      </set>
      <set comment="kpoint 167">
       <r>   -4.7991    1.0000 </r>
       <r>    1.5452    1.0000 </r>
       <r>    3.1205    1.0000 </r>
       <r>    4.4059    1.0000 </r>
       <r>    8.2833    0.0000 </r>
       <r>    9.7410    0.0000 </r>
       <r>   10.0296    0.0000 </r>
       <r>   11.3403    0.0000 </r>
      </set>
      <set comment="kpoint 168">
       <r>   -3.9103    1.0000 </r>
       <r>   -0.0072    1.0000 </r>
       <r>    2.5126    1.0000 </r>
       <r>    3.9043    1.0000 </r>
       <r>    8.7138    0.0000 </r>
       <r>    9.3913    0.0000 </r>
       <r>   10.8568    0.0000 </r>
       <r>   11.7750    0.0000 </r>
      </set>
      <set comment="kpoint 169">
       <r>   -3.9103    1.0000 </r>
       <r>   -0.0072    1.0000 </r>
       <r>    2.5126    1.0000 </r>
       <r>    3.9043    1.0000 </r>
       <r>    8.7138    0.0000 </r>
       <r>    9.3913    0.0000 </r>
       <r>   10.8568    0.0000 </r>
       <r>   11.7750    0.0000 </r>
      </set>
      <set comment="kpoint 170">
       <r>   -3.9103    1.0000 </r>
       <r>   -0.0072    1.0000 </r>
       <r>    2.5126    1.0000 </r>
       <r>    3.9043    1.0000 </r>
       <r>    8.7138    0.0000 </r>
       <r>    9.3913    0.0000 </r>
       <r>   10.8568    0.0000 </r>
       <r>   11.7750    0.0000 </r>
      </set>
      <set comment="kpoint 171">
       <r>   -3.9103    1.0000 </r>
       <r>   -0.0072    1.0000 </r>
       <r>    2.5126    1.0000 </r>
       <r>    3.9043    1.0000 </r>
       <r>    8.7138    0.0000 </r>
       <r>    9.3913    0.0000 </r>
       <r>   10.8568    0.0000 </r>
       <r>   11.7750    0.0000 </r>
      </set>
      <set comment="kpoint 172">
       <r>   -3.9103    1.0000 </r>
       <r>   -0.0072    1.0000 </r>
       <r>    2.5126    1.0000 </r>
       <r>    3.9043    1.0000 </r>
       <r>    8.7138    0.0000 </r>
       <r>    9.3913    0.0000 </r>
       <r>   10.8568    0.0000 </r>
       <r>   11.7750    0.0000 </r>
      </set>
      <set comment="kpoint 173">
       <r>   -3.9103    1.0000 </r>
       <r>   -0.0072    1.0000 </r>
       <r>    2.5126    1.0000 </r>
       <r>    3.9043    1.0000 </r>
       <r>    8.7138    0.0000 </r>
       <r>    9.3913    0.0000 </r>
       <r>   10.8568    0.0000 </r>
       <r>   11.7750    0.0000 </r>
      </set>
      <set comment="kpoint 174">
       <r>   -3.9103    1.0000 </r>
       <r>   -0.0072    1.0000 </r>
       <r>    2.5126    1.0000 </r>
       <r>    3.9043    1.0000 </r>
       <r>    8.7138    0.0000 </r>
       <r>    9.3913    0.0000 </r>
       <r>   10.8568    0.0000 </r>
       <r>   11.7750    0.0000 </r>
      </set>
      <set comment="kpoint 175">
       <r>   -3.9103    1.0000 </r>
       <r>   -0.0072    1.0000 </r>
       <r>    2.5126    1.0000 </r>
       <r>    3.9043    1.0000 </r>
       <r>    8.7138    0.0000 </r>
       <r>    9.3913    0.0000 </r>
       <r>   10.8568    0.0000 </r>
       <r>   11.7750    0.0000 </r>
      </set>
      <set comment="kpoint 176">
       <r>   -3.9103    1.0000 </r>
       <r>   -0.0072    1.0000 </r>
       <r>    2.5126    1.0000 </r>
       <r>    3.9043    1.0000 </r>
       <r>    8.7138    0.0000 </r>
       <r>    9.3913    0.0000 </r>
       <r>   10.8568    0.0000 </r>
       <r>   11.7750    0.0000 </r>
      </set>
      <set comment="kpoint 177">
       <r>   -3.9103    1.0000 </r>
       <r>   -0.0072    1.0000 </r>
       <r>    2.5126    1.0000 </r>
       <r>    3.9043    1.0000 </r>
       <r>    8.7138    0.0000 </r>
       <r>    9.3913    0.0000 </r>
       <r>   10.8568    0.0000 </r>
       <r>   11.7750    0.0000 </r>
      </set>
      <set comment="kpoint 178">
       <r>   -3.9103    1.0000 </r>
       <r>   -0.0072    1.0000 </r>
       <r>    2.5126    1.0000 </r>
       <r>    3.9043    1.0000 </r>
       <r>    8.7138    0.0000 </r>
       <r>    9.3913    0.0000 </r>
       <r>   10.8568    0.0000 </r>
       <r>   11.7750    0.0000 </r>
      </set>
      <set comment="kpoint 179">
       <r>   -3.9103    1.0000 </r>
       <r>   -0.0072    1.0000 </r>
       <r>    2.5126    1.0000 </r>
       <r>    3.9043    1.0000 </r>
       <r>    8.7138    0.0000 </r>
       <r>    9.3913    0.0000 </r>
       <r>   10.8568    0.0000 </r>
       <r>   11.7750    0.0000 </r>
      </set>
      <set comment="kpoint 180">
       <r>   -3.9103    1.0000 </r>
       <r>   -0.0072    1.0000 </r>
       <r>    2.5126    1.0000 </r>
       <r>    3.9043    1.0000 </r>
       <r>    8.7138    0.0000 </r>
       <r>    9.3913    0.0000 </r>
       <r>   10.8568    0.0000 </r>
       <r>   11.7750    0.0000 </r>
      </set>
      <set comment="kpoint 181">
       <r>   -3.9103    1.0000 </r>
       <r>   -0.0072    1.0000 </r>
       <r>    2.5126    1.0000 </r>
       <r>    3.9043    1.0000 </r>
       <r>    8.7138    0.0000 </r>
       <r>    9.3913    0.0000 </r>
       <r>   10.8568    0.0000 </r>
       <r>   11.7750    0.0000 </r>
      </set>
      <set comment="kpoint 182">
       <r>   -3.9103    1.0000 </r>
       <r>   -0.0072    1.0000 </r>
       <r>    2.5126    1.0000 </r>
       <r>    3.9043    1.0000 </r>
       <r>    8.7138    0.0000 </r>
       <r>    9.3913    0.0000 </r>
       <r>   10.8568    0.0000 </r>
       <r>   11.7750    0.0000 </r>
      </set>
      <set comment="kpoint 183">
       <r>   -3.9103    1.0000 </r>
       <r>   -0.0072    1.0000 </r>
       <r>    2.5126    1.0000 </r>
       <r>    3.9043    1.0000 </r>
       <r>    8.7138    0.0000 </r>
       <r>    9.3913    0.0000 </r>
       <r>   10.8568    0.0000 </r>
       <r>   11.7750    0.0000 </r>
      </set>
      <set comment="kpoint 184">
       <r>   -3.9103    1.0000 </r>
       <r>   -0.0072    1.0000 </r>
       <r>    2.5126    1.0000 </r>
       <r>    3.9043    1.0000 </r>
       <r>    8.7138    0.0000 </r>
       <r>    9.3913    0.0000 </r>
       <r>   10.8568    0.0000 </r>
       <r>   11.7750    0.0000 </r>
      </set>
      <set comment="kpoint 185">
       <r>   -3.9103    1.0000 </r>
       <r>   -0.0072    1.0000 </r>
       <r>    2.5126    1.0000 </r>
       <r>    3.9043    1.0000 </r>
       <r>    8.7138    0.0000 </r>
       <r>    9.3913    0.0000 </r>
       <r>   10.8568    0.0000 </r>
       <r>   11.7750    0.0000 </r>
      </set>
      <set comment="kpoint 186">
       <r>   -3.9103    1.0000 </r>
       <r>   -0.0072    1.0000 </r>
       <r>    2.5126    1.0000 </r>
       <r>    3.9043    1.0000 </r>
       <r>    8.7138    0.0000 </r>
       <r>    9.3913    0.0000 </r>
       <r>   10.8568    0.0000 </r>
       <r>   11.7750    0.0000 </r>
      </set>
      <set comment="kpoint 187">
       <r>   -3.9103    1.0000 </r>
       <r>   -0.0072    1.0000 </r>
       <r>    2.5126    1.0000 </r>
       <r>    3.9043    1.0000 </r>
       <r>    8.7138    0.0000 </r>
       <r>    9.3913    0.0000 </r>
       <r>   10.8568    0.0000 </r>
       <r>   11.7750    0.0000 </r>
      </set>
      <set comment="kpoint 188">
       <r>   -3.9103    1.0000 </r>
       <r>   -0.0072    1.0000 </r>
       <r>    2.5126    1.0000 </r>
       <r>    3.9043    1.0000 </r>
       <r>    8.7138    0.0000 </r>
       <r>    9.3913    0.0000 </r>
       <r>   10.8568    0.0000 </r>
       <r>   11.7750    0.0000 </r>
      </set>
      <set comment="kpoint 189">
       <r>   -3.9103    1.0000 </r>
       <r>   -0.0072    1.0000 </r>
       <r>    2.5126    1.0000 </r>
       <r>    3.9043    1.0000 </r>
       <r>    8.7138    0.0000 </r>
       <r>    9.3913    0.0000 </r>
       <r>   10.8568    0.0000 </r>
       <r>   11.7750    0.0000 </r>
      </set>
      <set comment="kpoint 190">
       <r>   -3.9103    1.0000 </r>
       <r>   -0.0072    1.0000 </r>
       <r>    2.5126    1.0000 </r>
       <r>    3.9043    1.0000 </r>
       <r>    8.7138    0.0000 </r>
       <r>    9.3913    0.0000 </r>
       <r>   10.8568    0.0000 </r>
       <r>   11.7750    0.0000 </r>
      </set>
      <set comment="kpoint 191">
       <r>   -3.9103    1.0000 </r>
       <r>   -0.0072    1.0000 </r>
       <r>    2.5126    1.0000 </r>
       <r>    3.9043    1.0000 </r>
       <r>    8.7138    0.0000 </r>
       <r>    9.3913    0.0000 </r>
       <r>   10.8568    0.0000 </r>
       <r>   11.7750    0.0000 </r>
      </set>
      <set comment="kpoint 192">
       <r>   -3.2576    1.0000 </r>
       <r>   -0.9528    1.0000 </r>
       <r>    2.3839    1.0000 </r>
       <r>    3.6745    1.0000 </r>
       <r>    8.9049    0.0000 </r>
       <r>    8.9675    0.0000 </r>
       <r>   11.7505    0.0000 </r>
       <r>   12.9578    0.0000 </r>
      </set>
      <set comment="kpoint 193">
       <r>   -3.2576    1.0000 </r>
       <r>   -0.9528    1.0000 </r>
       <r>    2.3839    1.0000 </r>
       <r>    3.6745    1.0000 </r>
       <r>    8.9049    0.0000 </r>
       <r>    8.9675    0.0000 </r>
       <r>   11.7505    0.0000 </r>
       <r>   12.9578    0.0000 </r>
      </set>
      <set comment="kpoint 194">
       <r>   -3.2576    1.0000 </r>
       <r>   -0.9528    1.0000 </r>
       <r>    2.3839    1.0000 </r>
       <r>    3.6745    1.0000 </r>
       <r>    8.9049    0.0000 </r>
       <r>    8.9675    0.0000 </r>
       <r>   11.7505    0.0000 </r>
       <r>   12.9578    0.0000 </r>
      </set>
      <set comment="kpoint 195">
       <r>   -3.2576    1.0000 </r>
       <r>   -0.9528    1.0000 </r>
       <r>    2.3839    1.0000 </r>
       <r>    3.6745    1.0000 </r>
       <r>    8.9049    0.0000 </r>
       <r>    8.9675    0.0000 </r>
       <r>   11.7505    0.0000 </r>
       <r>   12.9578    0.0000 </r>
      </set>
      <set comment="kpoint 196">
       <r>   -3.2576    1.0000 </r>
       <r>   -0.9528    1.0000 </r>
       <r>    2.3839    1.0000 </r>
       <r>    3.6745    1.0000 </r>
       <r>    8.9049    0.0000 </r>
       <r>    8.9675    0.0000 </r>
       <r>   11.7505    0.0000 </r>
       <r>   12.9578    0.0000 </r>
      </set>
      <set comment="kpoint 197">
       <r>   -3.2576    1.0000 </r>
       <r>   -0.9528    1.0000 </r>
       <r>    2.3839    1.0000 </r>
       <r>    3.6745    1.0000 </r>
       <r>    8.9049    0.0000 </r>
       <r>    8.9675    0.0000 </r>
       <r>   11.7505    0.0000 </r>
       <r>   12.9578    0.0000 </r>
      </set>
      <set comment="kpoint 198">
       <r>   -3.2576    1.0000 </r>
       <r>   -0.9528    1.0000 </r>
       <r>    2.3839    1.0000 </r>
       <r>    3.6745    1.0000 </r>
       <r>    8.9049    0.0000 </r>
       <r>    8.9675    0.0000 </r>
       <r>   11.7505    0.0000 </r>
       <r>   12.9578    0.0000 </r>
      </set>
      <set comment="kpoint 199">
       <r>   -3.2576    1.0000 </r>
       <r>   -0.9528    1.0000 </r>
       <r>    2.3839    1.0000 </r>
       <r>    3.6745    1.0000 </r>
       <r>    8.9049    0.0000 </r>
       <r>    8.9675    0.0000 </r>
       <r>   11.7505    0.0000 </r>
       <r>   12.9578    0.0000 </r>
      </set>
      <set comment="kpoint 200">
       <r>   -3.2576    1.0000 </r>
       <r>   -0.9528    1.0000 </r>
       <r>    2.3839    1.0000 </r>
       <r>    3.6745    1.0000 </r>
       <r>    8.9049    0.0000 </r>
       <r>    8.9675    0.0000 </r>
       <r>   11.7505    0.0000 </r>
       <r>   12.9578    0.0000 </r>
      </set>
      <set comment="kpoint 201">
       <r>   -3.2576    1.0000 </r>
       <r>   -0.9528    1.0000 </r>
       <r>    2.3839    1.0000 </r>
       <r>    3.6745    1.0000 </r>
       <r>    8.9049    0.0000 </r>
       <r>    8.9675    0.0000 </r>
       <r>   11.7505    0.0000 </r>
       <r>   12.9578    0.0000 </r>
      </set>
      <set comment="kpoint 202">
       <r>   -3.2576    1.0000 </r>
       <r>   -0.9528    1.0000 </r>
       <r>    2.3839    1.0000 </r>
       <r>    3.6745    1.0000 </r>
       <r>    8.9049    0.0000 </r>
       <r>    8.9675    0.0000 </r>
       <r>   11.7505    0.0000 </r>
       <r>   12.9578    0.0000 </r>
      </set>
      <set comment="kpoint 203">
       <r>   -3.2576    1.0000 </r>
       <r>   -0.9528    1.0000 </r>
       <r>    2.3839    1.0000 </r>
       <r>    3.6745    1.0000 </r>
       <r>    8.9049    0.0000 </r>
       <r>    8.9675    0.0000 </r>
       <r>   11.7505    0.0000 </r>
       <r>   12.9578    0.0000 </r>
      </set>
      <set comment="kpoint 204">
       <r>   -3.5348    1.0000 </r>
       <r>   -0.1297    1.0000 </r>
       <r>    2.4713    1.0000 </r>
       <r>    3.0743    1.0000 </r>
       <r>    7.7821    0.0000 </r>
       <r>    8.4811    0.0000 </r>
       <r>   11.5933    0.0000 </r>
       <r>   13.8319    0.0000 </r>
      </set>
      <set comment="kpoint 205">
       <r>   -3.5348    1.0000 </r>
       <r>   -0.1297    1.0000 </r>
       <r>    2.4713    1.0000 </r>
       <r>    3.0743    1.0000 </r>
       <r>    7.7821    0.0000 </r>
       <r>    8.4811    0.0000 </r>
       <r>   11.5933    0.0000 </r>
       <r>   13.8319    0.0000 </r>
      </set>
      <set comment="kpoint 206">
       <r>   -3.5348    1.0000 </r>
       <r>   -0.1297    1.0000 </r>
       <r>    2.4713    1.0000 </r>
       <r>    3.0743    1.0000 </r>
       <r>    7.7821    0.0000 </r>
       <r>    8.4811    0.0000 </r>
       <r>   11.5933    0.0000 </r>
       <r>   13.8319    0.0000 </r>
      </set>
      <set comment="kpoint 207">
       <r>   -3.5348    1.0000 </r>
       <r>   -0.1297    1.0000 </r>
       <r>    2.4713    1.0000 </r>
       <r>    3.0743    1.0000 </r>
       <r>    7.7821    0.0000 </r>
       <r>    8.4811    0.0000 </r>
       <r>   11.5933    0.0000 </r>
       <r>   13.8319    0.0000 </r>
      </set>
      <set comment="kpoint 208">
       <r>   -3.5348    1.0000 </r>
       <r>   -0.1297    1.0000 </r>
       <r>    2.4713    1.0000 </r>
       <r>    3.0743    1.0000 </r>
       <r>    7.7821    0.0000 </r>
       <r>    8.4811    0.0000 </r>
       <r>   11.5933    0.0000 </r>
       <r>   13.8319    0.0000 </r>
      </set>
      <set comment="kpoint 209">
       <r>   -3.5348    1.0000 </r>
       <r>   -0.1297    1.0000 </r>
       <r>    2.4713    1.0000 </r>
       <r>    3.0743    1.0000 </r>
       <r>    7.7821    0.0000 </r>
       <r>    8.4811    0.0000 </r>
       <r>   11.5933    0.0000 </r>
       <r>   13.8319    0.0000 </r>
      </set>
      <set comment="kpoint 210">
       <r>   -3.5348    1.0000 </r>
       <r>   -0.1297    1.0000 </r>
       <r>    2.4713    1.0000 </r>
       <r>    3.0743    1.0000 </r>
       <r>    7.7821    0.0000 </r>
       <r>    8.4811    0.0000 </r>
       <r>   11.5933    0.0000 </r>
       <r>   13.8319    0.0000 </r>
      </set>
      <set comment="kpoint 211">
       <r>   -3.5348    1.0000 </r>
       <r>   -0.1297    1.0000 </r>
       <r>    2.4713    1.0000 </r>
       <r>    3.0743    1.0000 </r>
       <r>    7.7821    0.0000 </r>
       <r>    8.4811    0.0000 </r>
       <r>   11.5933    0.0000 </r>
       <r>   13.8319    0.0000 </r>
      </set>
      <set comment="kpoint 212">
       <r>   -3.5348    1.0000 </r>
       <r>   -0.1297    1.0000 </r>
       <r>    2.4713    1.0000 </r>
       <r>    3.0743    1.0000 </r>
       <r>    7.7821    0.0000 </r>
       <r>    8.4811    0.0000 </r>
       <r>   11.5933    0.0000 </r>
       <r>   13.8319    0.0000 </r>
      </set>
      <set comment="kpoint 213">
       <r>   -3.5348    1.0000 </r>
       <r>   -0.1297    1.0000 </r>
       <r>    2.4713    1.0000 </r>
       <r>    3.0743    1.0000 </r>
       <r>    7.7821    0.0000 </r>
       <r>    8.4811    0.0000 </r>
       <r>   11.5933    0.0000 </r>
       <r>   13.8319    0.0000 </r>
      </set>
      <set comment="kpoint 214">
       <r>   -3.5348    1.0000 </r>
       <r>   -0.1297    1.0000 </r>
       <r>    2.4713    1.0000 </r>
       <r>    3.0743    1.0000 </r>
       <r>    7.7821    0.0000 </r>
       <r>    8.4811    0.0000 </r>
       <r>   11.5933    0.0000 </r>
       <r>   13.8319    0.0000 </r>
      </set>
      <set comment="kpoint 215">
       <r>   -3.5348    1.0000 </r>
       <r>   -0.1297    1.0000 </r>
       <r>    2.4713    1.0000 </r>
       <r>    3.0743    1.0000 </r>
       <r>    7.7821    0.0000 </r>
       <r>    8.4811    0.0000 </r>
       <r>   11.5933    0.0000 </r>
       <r>   13.8319    0.0000 </r>
      </set>
      <set comment="kpoint 216">
       <r>   -2.6596    1.0000 </r>
       <r>   -1.0980    1.0000 </r>
       <r>    1.7729    1.0000 </r>
       <r>    2.8735    1.0000 </r>
       <r>    8.2238    0.0000 </r>
       <r>   10.1171    0.0000 </r>
       <r>   11.1159    0.0000 </r>
       <r>   13.2807    0.0000 </r>
      </set>
      <set comment="kpoint 217">
       <r>   -2.6596    1.0000 </r>
       <r>   -1.0980    1.0000 </r>
       <r>    1.7729    1.0000 </r>
       <r>    2.8735    1.0000 </r>
       <r>    8.2238    0.0000 </r>
       <r>   10.1171    0.0000 </r>
       <r>   11.1159    0.0000 </r>
       <r>   13.2807    0.0000 </r>
      </set>
      <set comment="kpoint 218">
       <r>   -2.6596    1.0000 </r>
       <r>   -1.0980    1.0000 </r>
       <r>    1.7729    1.0000 </r>
       <r>    2.8735    1.0000 </r>
       <r>    8.2238    0.0000 </r>
       <r>   10.1171    0.0000 </r>
       <r>   11.1159    0.0000 </r>
       <r>   13.2807    0.0000 </r>
      </set>
      <set comment="kpoint 219">
       <r>   -2.6596    1.0000 </r>
       <r>   -1.0980    1.0000 </r>
       <r>    1.7729    1.0000 </r>
       <r>    2.8735    1.0000 </r>
       <r>    8.2238    0.0000 </r>
       <r>   10.1171    0.0000 </r>
       <r>   11.1159    0.0000 </r>
       <r>   13.2807    0.0000 </r>
      </set>
      <set comment="kpoint 220">
       <r>   -2.6596    1.0000 </r>
       <r>   -1.0980    1.0000 </r>
       <r>    1.7729    1.0000 </r>
       <r>    2.8735    1.0000 </r>
       <r>    8.2238    0.0000 </r>
       <r>   10.1171    0.0000 </r>
       <r>   11.1159    0.0000 </r>
       <r>   13.2807    0.0000 </r>
      </set>
      <set comment="kpoint 221">
       <r>   -2.6596    1.0000 </r>
       <r>   -1.0980    1.0000 </r>
       <r>    1.7729    1.0000 </r>
       <r>    2.8735    1.0000 </r>
       <r>    8.2238    0.0000 </r>
       <r>   10.1171    0.0000 </r>
       <r>   11.1159    0.0000 </r>
       <r>   13.2807    0.0000 </r>
      </set>
      <set comment="kpoint 222">
       <r>   -2.6596    1.0000 </r>
       <r>   -1.0980    1.0000 </r>
       <r>    1.7729    1.0000 </r>
       <r>    2.8735    1.0000 </r>
       <r>    8.2238    0.0000 </r>
       <r>   10.1171    0.0000 </r>
       <r>   11.1159    0.0000 </r>
       <r>   13.2807    0.0000 </r>
      </set>
      <set comment="kpoint 223">
       <r>   -2.6596    1.0000 </r>
       <r>   -1.0980    1.0000 </r>
       <r>    1.7729    1.0000 </r>
       <r>    2.8735    1.0000 </r>
       <r>    8.2238    0.0000 </r>
       <r>   10.1171    0.0000 </r>
       <r>   11.1159    0.0000 </r>
       <r>   13.2807    0.0000 </r>
      </set>
      <set comment="kpoint 224">
       <r>   -2.6596    1.0000 </r>
       <r>   -1.0980    1.0000 </r>
       <r>    1.7729    1.0000 </r>
       <r>    2.8735    1.0000 </r>
       <r>    8.2238    0.0000 </r>
       <r>   10.1171    0.0000 </r>
       <r>   11.1159    0.0000 </r>
       <r>   13.2807    0.0000 </r>
      </set>
      <set comment="kpoint 225">
       <r>   -2.6596    1.0000 </r>
       <r>   -1.0980    1.0000 </r>
       <r>    1.7729    1.0000 </r>
       <r>    2.8735    1.0000 </r>
       <r>    8.2238    0.0000 </r>
       <r>   10.1171    0.0000 </r>
       <r>   11.1159    0.0000 </r>
       <r>   13.2807    0.0000 </r>
      </set>
      <set comment="kpoint 226">
       <r>   -2.6596    1.0000 </r>
       <r>   -1.0980    1.0000 </r>
       <r>    1.7729    1.0000 </r>
       <r>    2.8735    1.0000 </r>
       <r>    8.2238    0.0000 </r>
       <r>   10.1171    0.0000 </r>
       <r>   11.1159    0.0000 </r>
       <r>   13.2807    0.0000 </r>
      </set>
      <set comment="kpoint 227">
       <r>   -2.6596    1.0000 </r>
       <r>   -1.0980    1.0000 </r>
       <r>    1.7729    1.0000 </r>
       <r>    2.8735    1.0000 </r>
       <r>    8.2238    0.0000 </r>
       <r>   10.1171    0.0000 </r>
       <r>   11.1159    0.0000 </r>
       <r>   13.2807    0.0000 </r>
      </set>
      <set comment="kpoint 228">
       <r>   -2.6596    1.0000 </r>
       <r>   -1.0980    1.0000 </r>
       <r>    1.7729    1.0000 </r>
       <r>    2.8735    1.0000 </r>
       <r>    8.2238    0.0000 </r>
       <r>   10.1171    0.0000 </r>
       <r>   11.1159    0.0000 </r>
       <r>   13.2807    0.0000 </r>
      </set>
      <set comment="kpoint 229">
       <r>   -2.6596    1.0000 </r>
       <r>   -1.0980    1.0000 </r>
       <r>    1.7729    1.0000 </r>
       <r>    2.8735    1.0000 </r>
       <r>    8.2238    0.0000 </r>
       <r>   10.1171    0.0000 </r>
       <r>   11.1159    0.0000 </r>
       <r>   13.2807    0.0000 </r>
      </set>
      <set comment="kpoint 230">
       <r>   -2.6596    1.0000 </r>
       <r>   -1.0980    1.0000 </r>
       <r>    1.7729    1.0000 </r>
       <r>    2.8735    1.0000 </r>
       <r>    8.2238    0.0000 </r>
       <r>   10.1171    0.0000 </r>
       <r>   11.1159    0.0000 </r>
       <r>   13.2807    0.0000 </r>
      </set>
      <set comment="kpoint 231">
       <r>   -2.6596    1.0000 </r>
       <r>   -1.0980    1.0000 </r>
       <r>    1.7729    1.0000 </r>
       <r>    2.8735    1.0000 </r>
       <r>    8.2238    0.0000 </r>
       <r>   10.1171    0.0000 </r>
       <r>   11.1159    0.0000 </r>
       <r>   13.2807    0.0000 </r>
      </set>
      <set comment="kpoint 232">
       <r>   -2.6596    1.0000 </r>
       <r>   -1.0980    1.0000 </r>
       <r>    1.7729    1.0000 </r>
       <r>    2.8735    1.0000 </r>
       <r>    8.2238    0.0000 </r>
       <r>   10.1171    0.0000 </r>
       <r>   11.1159    0.0000 </r>
       <r>   13.2807    0.0000 </r>
      </set>
      <set comment="kpoint 233">
       <r>   -2.6596    1.0000 </r>
       <r>   -1.0980    1.0000 </r>
       <r>    1.7729    1.0000 </r>
       <r>    2.8735    1.0000 </r>
       <r>    8.2238    0.0000 </r>
       <r>   10.1171    0.0000 </r>
       <r>   11.1159    0.0000 </r>
       <r>   13.2807    0.0000 </r>
      </set>
      <set comment="kpoint 234">
       <r>   -2.6596    1.0000 </r>
       <r>   -1.0980    1.0000 </r>
       <r>    1.7729    1.0000 </r>
       <r>    2.8735    1.0000 </r>
       <r>    8.2238    0.0000 </r>
       <r>   10.1171    0.0000 </r>
       <r>   11.1159    0.0000 </r>
       <r>   13.2807    0.0000 </r>
      </set>
      <set comment="kpoint 235">
       <r>   -2.6596    1.0000 </r>
       <r>   -1.0980    1.0000 </r>
       <r>    1.7729    1.0000 </r>
       <r>    2.8735    1.0000 </r>
       <r>    8.2238    0.0000 </r>
       <r>   10.1171    0.0000 </r>
       <r>   11.1159    0.0000 </r>
       <r>   13.2807    0.0000 </r>
      </set>
      <set comment="kpoint 236">
       <r>   -2.6596    1.0000 </r>
       <r>   -1.0980    1.0000 </r>
       <r>    1.7729    1.0000 </r>
       <r>    2.8735    1.0000 </r>
       <r>    8.2238    0.0000 </r>
       <r>   10.1171    0.0000 </r>
       <r>   11.1159    0.0000 </r>
       <r>   13.2807    0.0000 </r>
      </set>
      <set comment="kpoint 237">
       <r>   -2.6596    1.0000 </r>
       <r>   -1.0980    1.0000 </r>
       <r>    1.7729    1.0000 </r>
       <r>    2.8735    1.0000 </r>
       <r>    8.2238    0.0000 </r>
       <r>   10.1171    0.0000 </r>
       <r>   11.1159    0.0000 </r>
       <r>   13.2807    0.0000 </r>
      </set>
      <set comment="kpoint 238">
       <r>   -2.6596    1.0000 </r>
       <r>   -1.0980    1.0000 </r>
       <r>    1.7729    1.0000 </r>
       <r>    2.8735    1.0000 </r>
       <r>    8.2238    0.0000 </r>
       <r>   10.1171    0.0000 </r>
       <r>   11.1159    0.0000 </r>
       <r>   13.2807    0.0000 </r>
      </set>
      <set comment="kpoint 239">
       <r>   -2.6596    1.0000 </r>
       <r>   -1.0980    1.0000 </r>
       <r>    1.7729    1.0000 </r>
       <r>    2.8735    1.0000 </r>
       <r>    8.2238    0.0000 </r>
       <r>   10.1171    0.0000 </r>
       <r>   11.1159    0.0000 </r>
       <r>   13.2807    0.0000 </r>
      </set>
      <set comment="kpoint 240">
       <r>   -3.0103    1.0000 </r>
       <r>   -0.7346    1.0000 </r>
       <r>    1.6060    1.0000 </r>
       <r>    3.2496    1.0000 </r>
       <r>    8.7043    0.0000 </r>
       <r>   10.3815    0.0000 </r>
       <r>   11.0528    0.0000 </r>
       <r>   12.8693    0.0000 </r>
      </set>
      <set comment="kpoint 241">
       <r>   -3.0103    1.0000 </r>
       <r>   -0.7346    1.0000 </r>
       <r>    1.6060    1.0000 </r>
       <r>    3.2496    1.0000 </r>
       <r>    8.7043    0.0000 </r>
       <r>   10.3815    0.0000 </r>
       <r>   11.0528    0.0000 </r>
       <r>   12.8693    0.0000 </r>
      </set>
      <set comment="kpoint 242">
       <r>   -3.0103    1.0000 </r>
       <r>   -0.7346    1.0000 </r>
       <r>    1.6060    1.0000 </r>
       <r>    3.2496    1.0000 </r>
       <r>    8.7043    0.0000 </r>
       <r>   10.3815    0.0000 </r>
       <r>   11.0528    0.0000 </r>
       <r>   12.8693    0.0000 </r>
      </set>
      <set comment="kpoint 243">
       <r>   -3.0103    1.0000 </r>
       <r>   -0.7346    1.0000 </r>
       <r>    1.6060    1.0000 </r>
       <r>    3.2496    1.0000 </r>
       <r>    8.7043    0.0000 </r>
       <r>   10.3815    0.0000 </r>
       <r>   11.0528    0.0000 </r>
       <r>   12.8693    0.0000 </r>
      </set>
      <set comment="kpoint 244">
       <r>   -3.0103    1.0000 </r>
       <r>   -0.7346    1.0000 </r>
       <r>    1.6060    1.0000 </r>
       <r>    3.2496    1.0000 </r>
       <r>    8.7043    0.0000 </r>
       <r>   10.3815    0.0000 </r>
       <r>   11.0528    0.0000 </r>
       <r>   12.8693    0.0000 </r>
      </set>
      <set comment="kpoint 245">
       <r>   -3.0103    1.0000 </r>
       <r>   -0.7346    1.0000 </r>
       <r>    1.6060    1.0000 </r>
       <r>    3.2496    1.0000 </r>
       <r>    8.7043    0.0000 </r>
       <r>   10.3815    0.0000 </r>
       <r>   11.0528    0.0000 </r>
       <r>   12.8693    0.0000 </r>
      </set>
      <set comment="kpoint 246">
       <r>   -3.0103    1.0000 </r>
       <r>   -0.7346    1.0000 </r>
       <r>    1.6060    1.0000 </r>
       <r>    3.2496    1.0000 </r>
       <r>    8.7043    0.0000 </r>
       <r>   10.3815    0.0000 </r>
       <r>   11.0528    0.0000 </r>
       <r>   12.8693    0.0000 </r>
      </set>
      <set comment="kpoint 247">
       <r>   -3.0103    1.0000 </r>
       <r>   -0.7346    1.0000 </r>
       <r>    1.6060    1.0000 </r>
       <r>    3.2496    1.0000 </r>
       <r>    8.7043    0.0000 </r>
       <r>   10.3815    0.0000 </r>
       <r>   11.0528    0.0000 </r>
       <r>   12.8693    0.0000 </r>
      </set>
      <set comment="kpoint 248">
       <r>   -3.0103    1.0000 </r>
       <r>   -0.7346    1.0000 </r>
       <r>    1.6060    1.0000 </r>
       <r>    3.2496    1.0000 </r>
       <r>    8.7043    0.0000 </r>
       <r>   10.3815    0.0000 </r>
       <r>   11.0528    0.0000 </r>
       <r>   12.8693    0.0000 </r>
      </set>
      <set comment="kpoint 249">
       <r>   -3.0103    1.0000 </r>
       <r>   -0.7346    1.0000 </r>
       <r>    1.6060    1.0000 </r>
       <r>    3.2496    1.0000 </r>
       <r>    8.7043    0.0000 </r>
       <r>   10.3815    0.0000 </r>
       <r>   11.0528    0.0000 </r>
       <r>   12.8693    0.0000 </r>
      </set>
      <set comment="kpoint 250">
       <r>   -3.0103    1.0000 </r>
       <r>   -0.7346    1.0000 </r>
       <r>    1.6060    1.0000 </r>
       <r>    3.2496    1.0000 </r>
       <r>    8.7043    0.0000 </r>
       <r>   10.3815    0.0000 </r>
       <r>   11.0528    0.0000 </r>
       <r>   12.8693    0.0000 </r>
      </set>
      <set comment="kpoint 251">
       <r>   -3.0103    1.0000 </r>
       <r>   -0.7346    1.0000 </r>
       <r>    1.6060    1.0000 </r>
       <r>    3.2496    1.0000 </r>
       <r>    8.7043    0.0000 </r>
       <r>   10.3815    0.0000 </r>
       <r>   11.0528    0.0000 </r>
       <r>   12.8693    0.0000 </r>
      </set>
      <set comment="kpoint 252">
       <r>   -1.9049    1.0000 </r>
       <r>   -1.9049    1.0000 </r>
       <r>    2.4168    1.0000 </r>
       <r>    2.4168    1.0000 </r>
       <r>    7.8058    0.0000 </r>
       <r>    7.8058    0.0000 </r>
       <r>   13.6884    0.0000 </r>
       <r>   13.6884    0.0000 </r>
      </set>
      <set comment="kpoint 253">
       <r>   -1.9049    1.0000 </r>
       <r>   -1.9049    1.0000 </r>
       <r>    2.4168    1.0000 </r>
       <r>    2.4168    1.0000 </r>
       <r>    7.8058    0.0000 </r>
       <r>    7.8058    0.0000 </r>
       <r>   13.6884    0.0000 </r>
       <r>   13.6884    0.0000 </r>
      </set>
      <set comment="kpoint 254">
       <r>   -1.9049    1.0000 </r>
       <r>   -1.9049    1.0000 </r>
       <r>    2.4168    1.0000 </r>
       <r>    2.4168    1.0000 </r>
       <r>    7.8058    0.0000 </r>
       <r>    7.8058    0.0000 </r>
       <r>   13.6884    0.0000 </r>
       <r>   13.6884    0.0000 </r>
      </set>
      <set comment="kpoint 255">
       <r>   -1.9049    1.0000 </r>
       <r>   -1.9049    1.0000 </r>
       <r>    2.4168    1.0000 </r>
       <r>    2.4168    1.0000 </r>
       <r>    7.8058    0.0000 </r>
       <r>    7.8058    0.0000 </r>
       <r>   13.6884    0.0000 </r>
       <r>   13.6884    0.0000 </r>
      </set>
      <set comment="kpoint 256">
       <r>   -1.9049    1.0000 </r>
       <r>   -1.9049    1.0000 </r>
       <r>    2.4168    1.0000 </r>
       <r>    2.4168    1.0000 </r>
       <r>    7.8058    0.0000 </r>
       <r>    7.8058    0.0000 </r>
       <r>   13.6884    0.0000 </r>
       <r>   13.6884    0.0000 </r>
      </set>
      <set comment="kpoint 257">
       <r>   -1.9049    1.0000 </r>
       <r>   -1.9049    1.0000 </r>
       <r>    2.4168    1.0000 </r>
       <r>    2.4168    1.0000 </r>
       <r>    7.8058    0.0000 </r>
       <r>    7.8058    0.0000 </r>
       <r>   13.6884    0.0000 </r>
       <r>   13.6884    0.0000 </r>
      </set>
      <set comment="kpoint 258">
       <r>   -1.8189    1.0000 </r>
       <r>   -1.8189    1.0000 </r>
       <r>    1.9806    1.0000 </r>
       <r>    1.9806    1.0000 </r>
       <r>   10.1046    0.0000 </r>
       <r>   10.1046    0.0000 </r>
       <r>   10.8424    0.0000 </r>
       <r>   10.8424    0.0000 </r>
      </set>
      <set comment="kpoint 259">
       <r>   -1.8189    1.0000 </r>
       <r>   -1.8189    1.0000 </r>
       <r>    1.9806    1.0000 </r>
       <r>    1.9806    1.0000 </r>
       <r>   10.1046    0.0000 </r>
       <r>   10.1046    0.0000 </r>
       <r>   10.8424    0.0000 </r>
       <r>   10.8424    0.0000 </r>
      </set>
      <set comment="kpoint 260">
       <r>   -1.8189    1.0000 </r>
       <r>   -1.8189    1.0000 </r>
       <r>    1.9806    1.0000 </r>
       <r>    1.9806    1.0000 </r>
       <r>   10.1046    0.0000 </r>
       <r>   10.1046    0.0000 </r>
       <r>   10.8424    0.0000 </r>
       <r>   10.8424    0.0000 </r>
      </set>
     </set>
    </set>
   </array>
  </eigenvalues>
  <separator name="orbital magnetization" >
   <v name="MAGDIPOLOUT">      0.00000000      0.00000000      0.00000000</v>
  </separator>
  <dos>
   <i name="efermi">      6.04947172 </i>
   <total>
    <array>
     <dimension dim="1">gridpoints</dimension>
     <dimension dim="2">spin</dimension>
     <field>energy</field>
     <field>total</field>
     <field>integrated</field>
     <set>
      <set comment="spin 1">
       <r>    -7.2333     0.0000     0.0000 </r>
       <r>    -7.1524     0.0000     0.0000 </r>
       <r>    -7.0714     0.0000     0.0000 </r>
       <r>    -6.9904     0.0000     0.0000 </r>
       <r>    -6.9094     0.0000     0.0000 </r>
       <r>    -6.8285     0.0000     0.0000 </r>
       <r>    -6.7475     0.0000     0.0000 </r>
       <r>    -6.6665     0.0000     0.0000 </r>
       <r>    -6.5855     0.0000     0.0000 </r>
       <r>    -6.5046     0.0000     0.0000 </r>
       <r>    -6.4236     0.0000     0.0000 </r>
       <r>    -6.3426     0.0000     0.0000 </r>
       <r>    -6.2616     0.0000     0.0000 </r>
       <r>    -6.1806     0.0035     0.0003 </r>
       <r>    -6.0997     0.0350     0.0031 </r>
       <r>    -6.0187     0.0113     0.0040 </r>
       <r>    -5.9377     0.1399     0.0154 </r>
       <r>    -5.8567     0.3767     0.0459 </r>
       <r>    -5.7758     0.1539     0.0583 </r>
       <r>    -5.6948     0.0041     0.0587 </r>
       <r>    -5.6138     0.1365     0.0697 </r>
       <r>    -5.5328     0.4083     0.1028 </r>
       <r>    -5.4518     0.0724     0.1086 </r>
       <r>    -5.3709     0.7911     0.1727 </r>
       <r>    -5.2899     0.6583     0.2260 </r>
       <r>    -5.2089     0.0550     0.2305 </r>
       <r>    -5.1279     0.0032     0.2307 </r>
       <r>    -5.0470     0.1406     0.2421 </r>
       <r>    -4.9660     0.1501     0.2543 </r>
       <r>    -4.8850     0.4957     0.2944 </r>
       <r>    -4.8040     1.1512     0.3876 </r>
       <r>    -4.7231     0.6460     0.4399 </r>
       <r>    -4.6421     0.0454     0.4436 </r>
       <r>    -4.5611     0.6895     0.4994 </r>
       <r>    -4.4801     0.4743     0.5378 </r>
       <r>    -4.3991     0.3361     0.5651 </r>
       <r>    -4.3182     0.8221     0.6316 </r>
       <r>    -4.2372     0.3494     0.6599 </r>
       <r>    -4.1562     0.0151     0.6611 </r>
       <r>    -4.0752     0.3366     0.6884 </r>
       <r>    -3.9943     0.3989     0.7207 </r>
       <r>    -3.9133     1.9295     0.8770 </r>
       <r>    -3.8323     1.3740     0.9882 </r>
       <r>    -3.7513     0.4033     1.0209 </r>
       <r>    -3.6703     1.0748     1.1079 </r>
       <r>    -3.5894     0.2337     1.1268 </r>
       <r>    -3.5084     0.8270     1.1938 </r>
       <r>    -3.4274     0.6163     1.2437 </r>
       <r>    -3.3464     0.7659     1.3057 </r>
       <r>    -3.2655     0.5638     1.3514 </r>
       <r>    -3.1845     1.4437     1.4683 </r>
       <r>    -3.1035     0.3459     1.4963 </r>
       <r>    -3.0225     0.4202     1.5303 </r>
       <r>    -2.9415     0.7067     1.5876 </r>
       <r>    -2.8606     0.3086     1.6125 </r>
       <r>    -2.7796     0.8136     1.6784 </r>
       <r>    -2.6986     0.3760     1.7089 </r>
       <r>    -2.6176     1.7308     1.8490 </r>
       <r>    -2.5367     0.2719     1.8710 </r>
       <r>    -2.4557     0.0282     1.8733 </r>
       <r>    -2.3747     0.3970     1.9055 </r>
       <r>    -2.2937     0.1532     1.9179 </r>
       <r>    -2.2128     0.0010     1.9180 </r>
       <r>    -2.1318     0.0000     1.9180 </r>
       <r>    -2.0508     0.0080     1.9186 </r>
       <r>    -1.9698     0.2172     1.9362 </r>
       <r>    -1.8888     0.8582     2.0057 </r>
       <r>    -1.8079     0.7208     2.0641 </r>
       <r>    -1.7269     0.2192     2.0818 </r>
       <r>    -1.6459     0.0027     2.0820 </r>
       <r>    -1.5649     0.0000     2.0820 </r>
       <r>    -1.4840     0.0029     2.0823 </r>
       <r>    -1.4030     0.2210     2.1002 </r>
       <r>    -1.3220     0.3419     2.1278 </r>
       <r>    -1.2410     0.0134     2.1289 </r>
       <r>    -1.1600     0.1396     2.1402 </r>
       <r>    -1.0791     1.6830     2.2765 </r>
       <r>    -0.9981     1.3579     2.3865 </r>
       <r>    -0.9171     1.9957     2.5481 </r>
       <r>    -0.8361     1.0303     2.6315 </r>
       <r>    -0.7552     1.1754     2.7267 </r>
       <r>    -0.6742     0.8645     2.7967 </r>
       <r>    -0.5932     0.2643     2.8181 </r>
       <r>    -0.5122     1.7109     2.9567 </r>
       <r>    -0.4312     0.3892     2.9882 </r>
       <r>    -0.3503     0.0014     2.9883 </r>
       <r>    -0.2693     0.0000     2.9883 </r>
       <r>    -0.1883     0.0629     2.9934 </r>
       <r>    -0.1073     1.0143     3.0755 </r>
       <r>    -0.0264     1.1432     3.1681 </r>
       <r>     0.0546     1.5932     3.2971 </r>
       <r>     0.1356     0.3074     3.3220 </r>
       <r>     0.2166     0.0275     3.3242 </r>
       <r>     0.2975     0.0317     3.3268 </r>
       <r>     0.3785     0.4052     3.3596 </r>
       <r>     0.4595     0.1476     3.3715 </r>
       <r>     0.5405     0.4593     3.4087 </r>
       <r>     0.6215     0.6690     3.4629 </r>
       <r>     0.7024     0.0239     3.4648 </r>
       <r>     0.7834     0.0010     3.4649 </r>
       <r>     0.8644     0.2328     3.4838 </r>
       <r>     0.9454     0.8397     3.5518 </r>
       <r>     1.0263     0.0841     3.5586 </r>
       <r>     1.1073     0.0025     3.5588 </r>
       <r>     1.1883     0.3234     3.5850 </r>
       <r>     1.2693     0.7816     3.6483 </r>
       <r>     1.3503     0.0503     3.6523 </r>
       <r>     1.4312     0.0021     3.6525 </r>
       <r>     1.5122     0.3759     3.6830 </r>
       <r>     1.5932     1.6498     3.8165 </r>
       <r>     1.6742     0.8413     3.8847 </r>
       <r>     1.7551     0.7467     3.9451 </r>
       <r>     1.8361     2.0365     4.1101 </r>
       <r>     1.9171     0.9546     4.1874 </r>
       <r>     1.9981     0.5494     4.2318 </r>
       <r>     2.0790     0.4529     4.2685 </r>
       <r>     2.1600     0.2948     4.2924 </r>
       <r>     2.2410     0.0688     4.2980 </r>
       <r>     2.3220     1.0217     4.3807 </r>
       <r>     2.4030     2.2592     4.5636 </r>
       <r>     2.4839     2.7574     4.7869 </r>
       <r>     2.5649     2.2438     4.9686 </r>
       <r>     2.6459     1.0261     5.0517 </r>
       <r>     2.7269     0.1809     5.0664 </r>
       <r>     2.8078     0.0737     5.0723 </r>
       <r>     2.8888     1.4735     5.1917 </r>
       <r>     2.9698     0.8709     5.2622 </r>
       <r>     3.0508     0.5059     5.3031 </r>
       <r>     3.1318     2.2361     5.4842 </r>
       <r>     3.2127     2.8584     5.7157 </r>
       <r>     3.2937     1.4085     5.8297 </r>
       <r>     3.3747     0.8337     5.8973 </r>
       <r>     3.4557     1.0004     5.9783 </r>
       <r>     3.5366     1.1535     6.0717 </r>
       <r>     3.6176     2.1205     6.2434 </r>
       <r>     3.6986     2.2055     6.4220 </r>
       <r>     3.7796     0.3352     6.4491 </r>
       <r>     3.8606     0.2650     6.4706 </r>
       <r>     3.9415     2.5537     6.6774 </r>
       <r>     4.0225     2.0645     6.8445 </r>
       <r>     4.1035     0.3271     6.8710 </r>
       <r>     4.1845     0.2458     6.8909 </r>
       <r>     4.2654     1.9340     7.0476 </r>
       <r>     4.3464     1.1322     7.1392 </r>
       <r>     4.4274     0.8335     7.2067 </r>
       <r>     4.5084     1.3287     7.3143 </r>
       <r>     4.5893     2.4009     7.5087 </r>
       <r>     4.6703     1.2249     7.6079 </r>
       <r>     4.7513     0.4929     7.6478 </r>
       <r>     4.8323     0.3391     7.6753 </r>
       <r>     4.9133     0.0063     7.6758 </r>
       <r>     4.9942     0.1524     7.6882 </r>
       <r>     5.0752     1.5564     7.8142 </r>
       <r>     5.1562     0.7881     7.8780 </r>
       <r>     5.2372     0.0111     7.8789 </r>
       <r>     5.3181     0.0000     7.8789 </r>
       <r>     5.3991     0.0000     7.8789 </r>
       <r>     5.4801     0.0532     7.8832 </r>
       <r>     5.5611     0.8948     7.9557 </r>
       <r>     5.6421     0.3994     7.9880 </r>
       <r>     5.7230     0.0034     7.9883 </r>
       <r>     5.8040     0.0303     7.9907 </r>
       <r>     5.8850     0.1043     7.9992 </r>
       <r>     5.9660     0.0099     8.0000 </r>
       <r>     6.0469     0.0000     8.0000 </r>
       <r>     6.1279     0.0000     8.0000 </r>
       <r>     6.2089     0.0000     8.0000 </r>
       <r>     6.2899     0.0000     8.0000 </r>
       <r>     6.3709     0.0038     8.0003 </r>
       <r>     6.4518     0.1503     8.0125 </r>
       <r>     6.5328     0.2415     8.0320 </r>
       <r>     6.6138     0.1768     8.0464 </r>
       <r>     6.6948     0.1993     8.0625 </r>
       <r>     6.7757     0.8572     8.1319 </r>
       <r>     6.8567     0.1077     8.1406 </r>
       <r>     6.9377     0.0642     8.1458 </r>
       <r>     7.0187     0.3721     8.1760 </r>
       <r>     7.0996     0.4159     8.2096 </r>
       <r>     7.1806     0.5243     8.2521 </r>
       <r>     7.2616     0.6356     8.3036 </r>
       <r>     7.3426     0.5211     8.3458 </r>
       <r>     7.4236     1.0658     8.4321 </r>
       <r>     7.5045     0.2640     8.4535 </r>
       <r>     7.5855     0.1893     8.4688 </r>
       <r>     7.6665     0.4072     8.5018 </r>
       <r>     7.7475     1.0350     8.5856 </r>
       <r>     7.8284     2.6499     8.8002 </r>
       <r>     7.9094     1.1760     8.8954 </r>
       <r>     7.9904     0.8565     8.9647 </r>
       <r>     8.0714     1.7673     9.1079 </r>
       <r>     8.1524     1.0208     9.1905 </r>
       <r>     8.2333     2.3745     9.3828 </r>
       <r>     8.3143     2.4355     9.5800 </r>
       <r>     8.3953     0.7023     9.6369 </r>
       <r>     8.4763     0.6207     9.6872 </r>
       <r>     8.5572     1.1896     9.7835 </r>
       <r>     8.6382     0.6655     9.8374 </r>
       <r>     8.7192     2.4457    10.0354 </r>
       <r>     8.8002     2.2730    10.2195 </r>
       <r>     8.8811     1.1725    10.3144 </r>
       <r>     8.9621     2.0474    10.4802 </r>
       <r>     9.0431     1.1313    10.5718 </r>
       <r>     9.1241     0.0667    10.5772 </r>
       <r>     9.2051     0.6414    10.6292 </r>
       <r>     9.2860     0.7826    10.6925 </r>
       <r>     9.3670     2.2418    10.8741 </r>
       <r>     9.4480     2.8781    11.1071 </r>
       <r>     9.5290     2.9707    11.3477 </r>
       <r>     9.6099     1.6406    11.4806 </r>
       <r>     9.6909     1.0779    11.5678 </r>
       <r>     9.7719     2.1711    11.7436 </r>
       <r>     9.8529     0.2805    11.7664 </r>
       <r>     9.9339     0.6321    11.8175 </r>
       <r>    10.0148     1.4307    11.9334 </r>
       <r>    10.0958     1.6525    12.0672 </r>
       <r>    10.1768     1.9590    12.2258 </r>
       <r>    10.2578     0.7827    12.2892 </r>
       <r>    10.3387     2.7626    12.5129 </r>
       <r>    10.4197     1.3174    12.6196 </r>
       <r>    10.5007     0.1981    12.6357 </r>
       <r>    10.5817     0.8310    12.7029 </r>
       <r>    10.6627     1.1416    12.7954 </r>
       <r>    10.7436     0.1176    12.8049 </r>
       <r>    10.8246     0.5944    12.8530 </r>
       <r>    10.9056     2.1010    13.0232 </r>
       <r>    10.9866     0.6239    13.0737 </r>
       <r>    11.0675     1.1134    13.1639 </r>
       <r>    11.1485     2.0943    13.3334 </r>
       <r>    11.2295     0.4633    13.3710 </r>
       <r>    11.3105     1.9847    13.5317 </r>
       <r>    11.3914     2.7717    13.7561 </r>
       <r>    11.4724     0.4022    13.7887 </r>
       <r>    11.5534     0.4390    13.8242 </r>
       <r>    11.6344     2.1478    13.9982 </r>
       <r>    11.7154     0.7320    14.0574 </r>
       <r>    11.7963     3.4446    14.3364 </r>
       <r>    11.8773     1.7714    14.4798 </r>
       <r>    11.9583     0.2737    14.5020 </r>
       <r>    12.0393     0.4498    14.5384 </r>
       <r>    12.1202     1.0898    14.6267 </r>
       <r>    12.2012     1.1852    14.7226 </r>
       <r>    12.2822     0.0486    14.7266 </r>
       <r>    12.3632     0.0000    14.7266 </r>
       <r>    12.4442     0.0000    14.7266 </r>
       <r>    12.5251     0.0000    14.7266 </r>
       <r>    12.6061     0.0000    14.7266 </r>
       <r>    12.6871     0.0083    14.7272 </r>
       <r>    12.7681     0.4335    14.7623 </r>
       <r>    12.8490     1.3334    14.8703 </r>
       <r>    12.9300     1.1267    14.9615 </r>
       <r>    13.0110     0.8806    15.0329 </r>
       <r>    13.0920     0.0770    15.0391 </r>
       <r>    13.1730     0.1777    15.0535 </r>
       <r>    13.2539     1.4083    15.1675 </r>
       <r>    13.3349     2.1722    15.3434 </r>
       <r>    13.4159     0.2923    15.3671 </r>
       <r>    13.4969     0.0067    15.3676 </r>
       <r>    13.5778     0.1217    15.3775 </r>
       <r>    13.6588     0.3182    15.4033 </r>
       <r>    13.7398     1.4800    15.5231 </r>
       <r>    13.8208     1.4858    15.6434 </r>
       <r>    13.9017     1.5473    15.7687 </r>
       <r>    13.9827     0.2499    15.7890 </r>
       <r>    14.0637     0.1163    15.7984 </r>
       <r>    14.1447     0.9400    15.8745 </r>
       <r>    14.2257     1.0164    15.9568 </r>
       <r>    14.3066     0.2429    15.9765 </r>
       <r>    14.3876     0.0011    15.9766 </r>
       <r>    14.4686     0.0000    15.9766 </r>
       <r>    14.5496     0.0000    15.9766 </r>
       <r>    14.6305     0.0000    15.9766 </r>
       <r>    14.7115     0.0000    15.9766 </r>
       <r>    14.7925     0.0000    15.9766 </r>
       <r>    14.8735     0.0000    15.9766 </r>
       <r>    14.9545     0.0000    15.9766 </r>
       <r>    15.0354     0.0000    15.9766 </r>
       <r>    15.1164     0.0000    15.9766 </r>
       <r>    15.1974     0.0000    15.9766 </r>
       <r>    15.2784     0.0000    15.9766 </r>
       <r>    15.3593     0.0000    15.9766 </r>
       <r>    15.4403     0.0000    15.9766 </r>
       <r>    15.5213     0.0000    15.9766 </r>
       <r>    15.6023     0.0000    15.9766 </r>
       <r>    15.6832     0.0000    15.9766 </r>
       <r>    15.7642     0.0000    15.9766 </r>
       <r>    15.8452     0.0003    15.9766 </r>
       <r>    15.9262     0.0583    15.9813 </r>
       <r>    16.0072     0.2099    15.9983 </r>
       <r>    16.0881     0.0210    16.0000 </r>
       <r>    16.1691     0.0000    16.0000 </r>
       <r>    16.2501     0.0000    16.0000 </r>
       <r>    16.3311     0.0000    16.0000 </r>
       <r>    16.4120     0.0000    16.0000 </r>
       <r>    16.4930     0.0000    16.0000 </r>
       <r>    16.5740     0.0000    16.0000 </r>
       <r>    16.6550     0.0000    16.0000 </r>
       <r>    16.7360     0.0000    16.0000 </r>
       <r>    16.8169     0.0000    16.0000 </r>
       <r>    16.8979     0.0000    16.0000 </r>
       <r>    16.9789     0.0000    16.0000 </r>
       <r>    17.0599     0.0000    16.0000 </r>
      </set>
     </set>
    </array>
   </total>
  </dos>
 </calculation>
 <structure name="finalpos" >
  <crystal>
   <varray name="basis" >
    <v>       0.00000000       2.71500000       2.71500000 </v>
    <v>       2.71500000       0.00000000       2.71500000 </v>
    <v>       2.71500000       2.71500000       0.00000000 </v>
   </varray>
   <i name="volume">     40.02575175 </i>
   <varray name="rec_basis" >
    <v>      -0.18416206       0.18416206       0.18416206 </v>
    <v>       0.18416206      -0.18416206       0.18416206 </v>
    <v>       0.18416206       0.18416206      -0.18416206 </v>
   </varray>
  </crystal>
  <varray name="positions" >
   <v>       0.00000000       0.00000000       0.00000000 </v>
   <v>       0.25000000       0.25000000       0.25000000 </v>
  </varray>
 </structure>
</modeling>
