       N       E                     dE             d eps       ncg     rms          rms(c)
DAV:   1     0.950727843756E+01    0.95073E+01   -0.25877E+03  1280   0.508E+02
DAV:   2    -0.513381078560E+01   -0.14641E+02   -0.13683E+02  2200   0.676E+01
DAV:   3    -0.531404240479E+01   -0.18023E+00   -0.18023E+00  1672   0.958E+00
DAV:   4    -0.531467029035E+01   -0.62789E-03   -0.62789E-03  2016   0.572E-01
DAV:   5    -0.531467171722E+01   -0.14269E-05   -0.14267E-05  1712   0.185E-02
DAV:   6    -0.531467173893E+01   -0.21708E-07   -0.21338E-07  1456   0.173E-03
   1 F= -.53146717E+01 E0= -.53146717E+01  d E =-.194496E-10
