       N       E                     dE             d eps       ncg     rms          rms(c)
DAV:   1     0.985508950098E+01    0.98551E+01   -0.25869E+03  1280   0.515E+02
DAV:   2    -0.493313887071E+01   -0.14788E+02   -0.14026E+02  2144   0.684E+01
DAV:   3    -0.512138256697E+01   -0.18824E+00   -0.18824E+00  1624   0.978E+00
DAV:   4    -0.512207385929E+01   -0.69129E-03   -0.69129E-03  2112   0.590E-01
DAV:   5    -0.512207452377E+01   -0.66448E-06   -0.66450E-06  1648   0.141E-02
DAV:   6    -0.512207453005E+01   -0.62821E-08   -0.62740E-08  1424   0.974E-04
   1 F= -.51220745E+01 E0= -.51220745E+01  d E =-.569759E-13
