<?xml version="1.0" encoding="ISO-8859-1"?>
<modeling>
 <generator>
  <i name="program" type="string">vasp </i>
  <i name="version" type="string">6.3.0  </i>
  <i name="subversion" type="string">20Jan22 (build Mar 29 2022 17:59:55) complex                          parallel </i>
  <i name="platform" type="string">IFC91_ompi </i>
  <i name="date" type="string">2026 06 03 </i>
  <i name="time" type="string">12:47:49 </i>
 </generator>
 <incar>
  <i type="int" name="ISTART">     0</i>
  <i type="int" name="ICHARG">    11</i>
  <i type="int" name="ISYM">     2</i>
  <i name="ENCUT">    320.00000000</i>
  <i type="int" name="ISMEAR">     0</i>
  <i name="SIGMA">      0.05000000</i>
  <i type="int" name="LORBIT">    11</i>
  <i type="string" name="GGA">PE</i>
 </incar>
 <primitive_cell>
  <structure name="primitive_cell" >
   <crystal>
    <varray name="basis" >
     <v>       0.00000000       2.68785000       2.68785000 </v>
     <v>       2.68785000       0.00000000       2.68785000 </v>
     <v>       2.68785000       2.68785000       0.00000000 </v>
    </varray>
    <i name="volume">     38.83694690 </i>
    <varray name="rec_basis" >
     <v>      -0.18602229       0.18602229       0.18602229 </v>
     <v>       0.18602229      -0.18602229       0.18602229 </v>
     <v>       0.18602229       0.18602229      -0.18602229 </v>
    </varray>
   </crystal>
   <varray name="positions" >
    <v>       0.00000000       0.00000000       0.00000000 </v>
    <v>       0.25000000       0.25000000       0.25000000 </v>
   </varray>
  </structure>
  <varray name="primitive_index" >
   <v type="int" >        1 </v>
   <v type="int" >        2 </v>
  </varray>
 </primitive_cell>
 <kpoints>
  <generation param="listgenerated">
   <i name="divisions" type="int">      40 </i>
   <v>       0.00000000       0.50000000       0.50000000 </v>
   <v>       0.00000000       0.00000000       0.00000000 </v>
   <v>       0.50000000       0.00000000       0.50000000 </v>
  </generation>
  <varray name="kpointlist" >
   <v>       0.00000000       0.50000000       0.50000000 </v>
   <v>       0.00000000       0.48717949       0.48717949 </v>
   <v>       0.00000000       0.47435897       0.47435897 </v>
   <v>       0.00000000       0.46153846       0.46153846 </v>
   <v>       0.00000000       0.44871795       0.44871795 </v>
   <v>       0.00000000       0.43589744       0.43589744 </v>
   <v>       0.00000000       0.42307692       0.42307692 </v>
   <v>       0.00000000       0.41025641       0.41025641 </v>
   <v>       0.00000000       0.39743590       0.39743590 </v>
   <v>       0.00000000       0.38461538       0.38461538 </v>
   <v>       0.00000000       0.37179487       0.37179487 </v>
   <v>       0.00000000       0.35897436       0.35897436 </v>
   <v>       0.00000000       0.34615385       0.34615385 </v>
   <v>       0.00000000       0.33333333       0.33333333 </v>
   <v>       0.00000000       0.32051282       0.32051282 </v>
   <v>       0.00000000       0.30769231       0.30769231 </v>
   <v>       0.00000000       0.29487179       0.29487179 </v>
   <v>       0.00000000       0.28205128       0.28205128 </v>
   <v>       0.00000000       0.26923077       0.26923077 </v>
   <v>       0.00000000       0.25641026       0.25641026 </v>
   <v>       0.00000000       0.24358974       0.24358974 </v>
   <v>       0.00000000       0.23076923       0.23076923 </v>
   <v>       0.00000000       0.21794872       0.21794872 </v>
   <v>       0.00000000       0.20512821       0.20512821 </v>
   <v>       0.00000000       0.19230769       0.19230769 </v>
   <v>       0.00000000       0.17948718       0.17948718 </v>
   <v>       0.00000000       0.16666667       0.16666667 </v>
   <v>       0.00000000       0.15384615       0.15384615 </v>
   <v>       0.00000000       0.14102564       0.14102564 </v>
   <v>       0.00000000       0.12820513       0.12820513 </v>
   <v>       0.00000000       0.11538462       0.11538462 </v>
   <v>       0.00000000       0.10256410       0.10256410 </v>
   <v>       0.00000000       0.08974359       0.08974359 </v>
   <v>       0.00000000       0.07692308       0.07692308 </v>
   <v>       0.00000000       0.06410256       0.06410256 </v>
   <v>       0.00000000       0.05128205       0.05128205 </v>
   <v>       0.00000000       0.03846154       0.03846154 </v>
   <v>       0.00000000       0.02564103       0.02564103 </v>
   <v>       0.00000000       0.01282051       0.01282051 </v>
   <v>       0.00000000       0.00000000       0.00000000 </v>
   <v>       0.00000000       0.00000000       0.00000000 </v>
   <v>       0.01282051       0.00000000       0.01282051 </v>
   <v>       0.02564103       0.00000000       0.02564103 </v>
   <v>       0.03846154       0.00000000       0.03846154 </v>
   <v>       0.05128205       0.00000000       0.05128205 </v>
   <v>       0.06410256       0.00000000       0.06410256 </v>
   <v>       0.07692308       0.00000000       0.07692308 </v>
   <v>       0.08974359       0.00000000       0.08974359 </v>
   <v>       0.10256410       0.00000000       0.10256410 </v>
   <v>       0.11538462       0.00000000       0.11538462 </v>
   <v>       0.12820513       0.00000000       0.12820513 </v>
   <v>       0.14102564       0.00000000       0.14102564 </v>
   <v>       0.15384615       0.00000000       0.15384615 </v>
   <v>       0.16666667       0.00000000       0.16666667 </v>
   <v>       0.17948718       0.00000000       0.17948718 </v>
   <v>       0.19230769       0.00000000       0.19230769 </v>
   <v>       0.20512821       0.00000000       0.20512821 </v>
   <v>       0.21794872       0.00000000       0.21794872 </v>
   <v>       0.23076923       0.00000000       0.23076923 </v>
   <v>       0.24358974       0.00000000       0.24358974 </v>
   <v>       0.25641026       0.00000000       0.25641026 </v>
   <v>       0.26923077       0.00000000       0.26923077 </v>
   <v>       0.28205128       0.00000000       0.28205128 </v>
   <v>       0.29487179       0.00000000       0.29487179 </v>
   <v>       0.30769231       0.00000000       0.30769231 </v>
   <v>       0.32051282       0.00000000       0.32051282 </v>
   <v>       0.33333333       0.00000000       0.33333333 </v>
   <v>       0.34615385       0.00000000       0.34615385 </v>
   <v>       0.35897436       0.00000000       0.35897436 </v>
   <v>       0.37179487       0.00000000       0.37179487 </v>
   <v>       0.38461538       0.00000000       0.38461538 </v>
   <v>       0.39743590       0.00000000       0.39743590 </v>
   <v>       0.41025641       0.00000000       0.41025641 </v>
   <v>       0.42307692       0.00000000       0.42307692 </v>
   <v>       0.43589744       0.00000000       0.43589744 </v>
   <v>       0.44871795       0.00000000       0.44871795 </v>
   <v>       0.46153846       0.00000000       0.46153846 </v>
   <v>       0.47435897       0.00000000       0.47435897 </v>
   <v>       0.48717949       0.00000000       0.48717949 </v>
   <v>       0.50000000       0.00000000       0.50000000 </v>
  </varray>
  <varray name="weights" >
   <v>       0.01250000 </v>
   <v>       0.01250000 </v>
   <v>       0.01250000 </v>
   <v>       0.01250000 </v>
   <v>       0.01250000 </v>
   <v>       0.01250000 </v>
   <v>       0.01250000 </v>
   <v>       0.01250000 </v>
   <v>       0.01250000 </v>
   <v>       0.01250000 </v>
   <v>       0.01250000 </v>
   <v>       0.01250000 </v>
   <v>       0.01250000 </v>
   <v>       0.01250000 </v>
   <v>       0.01250000 </v>
   <v>       0.01250000 </v>
   <v>       0.01250000 </v>
   <v>       0.01250000 </v>
   <v>       0.01250000 </v>
   <v>       0.01250000 </v>
   <v>       0.01250000 </v>
   <v>       0.01250000 </v>
   <v>       0.01250000 </v>
   <v>       0.01250000 </v>
   <v>       0.01250000 </v>
   <v>       0.01250000 </v>
   <v>       0.01250000 </v>
   <v>       0.01250000 </v>
   <v>       0.01250000 </v>
   <v>       0.01250000 </v>
   <v>       0.01250000 </v>
   <v>       0.01250000 </v>
   <v>       0.01250000 </v>
   <v>       0.01250000 </v>
   <v>       0.01250000 </v>
   <v>       0.01250000 </v>
   <v>       0.01250000 </v>
   <v>       0.01250000 </v>
   <v>       0.01250000 </v>
   <v>       0.01250000 </v>
   <v>       0.01250000 </v>
   <v>       0.01250000 </v>
   <v>       0.01250000 </v>
   <v>       0.01250000 </v>
   <v>       0.01250000 </v>
   <v>       0.01250000 </v>
   <v>       0.01250000 </v>
   <v>       0.01250000 </v>
   <v>       0.01250000 </v>
   <v>       0.01250000 </v>
   <v>       0.01250000 </v>
   <v>       0.01250000 </v>
   <v>       0.01250000 </v>
   <v>       0.01250000 </v>
   <v>       0.01250000 </v>
   <v>       0.01250000 </v>
   <v>       0.01250000 </v>
   <v>       0.01250000 </v>
   <v>       0.01250000 </v>
   <v>       0.01250000 </v>
   <v>       0.01250000 </v>
   <v>       0.01250000 </v>
   <v>       0.01250000 </v>
   <v>       0.01250000 </v>
   <v>       0.01250000 </v>
   <v>       0.01250000 </v>
   <v>       0.01250000 </v>
   <v>       0.01250000 </v>
   <v>       0.01250000 </v>
   <v>       0.01250000 </v>
   <v>       0.01250000 </v>
   <v>       0.01250000 </v>
   <v>       0.01250000 </v>
   <v>       0.01250000 </v>
   <v>       0.01250000 </v>
   <v>       0.01250000 </v>
   <v>       0.01250000 </v>
   <v>       0.01250000 </v>
   <v>       0.01250000 </v>
   <v>       0.01250000 </v>
  </varray>
  <kpoints_labels>
   <i name="X_par" type="int">       1 </i>
   <i name="\Gamma" type="int">       2 </i>
   <i name="\Gamma" type="int">       3 </i>
   <i name="X_perp" type="int">       4 </i>
  </kpoints_labels>
 </kpoints>
 <parameters>
  <separator name="general" >
   <i type="string" name="SYSTEM">unknown system</i>
   <i type="logical" name="LCOMPAT"> F  </i>
  </separator>
  <separator name="electronic" >
   <i type="string" name="PREC">normal</i>
   <i name="ENMAX">    320.00000000</i>
   <i name="ENAUG">    322.06900000</i>
   <i name="EDIFF">      0.00010000</i>
   <i type="int" name="IALGO">    38</i>
   <i type="int" name="IWAVPR">    10</i>
   <i type="int" name="NBANDS">     8</i>
   <i type="int" name="NBANDSLOW">    -1</i>
   <i type="int" name="NBANDSHIGH">    -1</i>
   <i name="NELECT">      8.00000000</i>
   <i type="int" name="TURBO">     0</i>
   <i type="int" name="IRESTART">     0</i>
   <i type="int" name="NREBOOT">     0</i>
   <i type="int" name="NMIN">     0</i>
   <i name="EREF">      0.00000000</i>
   <separator name="electronic smearing" >
    <i type="int" name="ISMEAR">     0</i>
    <i name="SIGMA">      0.05000000</i>
    <i name="KSPACING">      0.50000000</i>
    <i type="logical" name="KGAMMA"> T  </i>
    <i type="logical" name="KBLOWUP"> T  </i>
   </separator>
   <separator name="electronic projectors" >
    <i type="logical" name="LREAL"> F  </i>
    <v name="ROPT">      0.00000000</v>
    <i type="int" name="LMAXPAW">  -100</i>
    <i type="int" name="LMAXMIX">     2</i>
    <i type="logical" name="NLSPLINE"> F  </i>
   </separator>
   <separator name="electronic startup" >
    <i type="int" name="ISTART">     0</i>
    <i type="int" name="ICHARG">    11</i>
    <i type="int" name="INIWAV">     1</i>
   </separator>
   <separator name="electronic spin" >
    <i type="int" name="ISPIN">     1</i>
    <i type="logical" name="LNONCOLLINEAR"> F  </i>
    <v name="MAGMOM">      1.00000000      1.00000000</v>
    <i name="NUPDOWN">     -1.00000000</i>
    <i type="logical" name="LSORBIT"> F  </i>
    <v name="SAXIS">      0.00000000      0.00000000      1.00000000</v>
    <i type="logical" name="LSPIRAL"> F  </i>
    <v name="QSPIRAL">      0.00000000      0.00000000      0.00000000</v>
    <i type="logical" name="LZEROZ"> F  </i>
   </separator>
   <separator name="electronic exchange-correlation" >
    <i type="logical" name="LASPH"> F  </i>
    <i type="logical" name="LMETAGGA"> F  </i>
   </separator>
   <separator name="electronic convergence" >
    <i type="int" name="NELM">    60</i>
    <i type="int" name="NELMDL">    -5</i>
    <i type="int" name="NELMIN">     2</i>
    <i name="ENINI">    320.00000000</i>
    <separator name="electronic convergence detail" >
     <i type="logical" name="LDIAG"> T  </i>
     <i type="logical" name="LSUBROT"> F  </i>
     <i name="WEIMIN">      0.00000000</i>
     <i name="EBREAK">      0.00000313</i>
     <i name="DEPER">      0.30000000</i>
     <i type="int" name="NRMM">     4</i>
     <i name="TIME">      0.40000000</i>
    </separator>
   </separator>
   <separator name="electronic mixer" >
    <i name="AMIX">      0.40000000</i>
    <i name="BMIX">      1.00000000</i>
    <i name="AMIN">      0.10000000</i>
    <i name="AMIX_MAG">      1.60000000</i>
    <i name="BMIX_MAG">      1.00000000</i>
    <separator name="electronic mixer details" >
     <i type="int" name="IMIX">     4</i>
     <i type="logical" name="MIXFIRST"> F  </i>
     <i type="int" name="MAXMIX">   -45</i>
     <i name="WC">    100.00000000</i>
     <i type="int" name="INIMIX">     1</i>
     <i type="int" name="MIXPRE">     1</i>
     <i type="int" name="MREMOVE">     5</i>
    </separator>
   </separator>
   <separator name="electronic dipolcorrection" >
    <i type="logical" name="LDIPOL"> F  </i>
    <i type="logical" name="LMONO"> F  </i>
    <i type="int" name="IDIPOL">     0</i>
    <i name="EPSILON">      1.00000000</i>
    <v name="DIPOL">   -100.00000000   -100.00000000   -100.00000000</v>
    <i name="EFIELD">      0.00000000</i>
   </separator>
  </separator>
  <separator name="grids" >
   <i type="int" name="NGX">    18</i>
   <i type="int" name="NGY">    18</i>
   <i type="int" name="NGZ">    18</i>
   <i type="int" name="NGXF">    36</i>
   <i type="int" name="NGYF">    36</i>
   <i type="int" name="NGZF">    36</i>
   <i type="logical" name="ADDGRID"> F  </i>
  </separator>
  <separator name="ionic" >
   <i type="int" name="NSW">     0</i>
   <i type="int" name="IBRION">    -1</i>
   <i type="int" name="MDALGO">     0</i>
   <i type="int" name="ISIF">     2</i>
   <i name="PSTRESS">      0.00000000</i>
   <i name="EDIFFG">      0.00100000</i>
   <i type="int" name="NFREE">     0</i>
   <i name="POTIM">      0.50000000</i>
   <i name="SMASS">     -3.00000000</i>
   <i name="SCALEE">      1.00000000</i>
  </separator>
  <separator name="ionic md" >
   <i name="TEBEG">      0.00010000</i>
   <i name="TEEND">      0.00010000</i>
   <i type="int" name="NBLOCK">     1</i>
   <i type="int" name="KBLOCK">     1</i>
   <i type="int" name="NPACO">   256</i>
   <i name="APACO">     10.00000000</i>
  </separator>
  <separator name="symmetry" >
   <i type="int" name="ISYM">     2</i>
   <i name="SYMPREC">      0.00001000</i>
  </separator>
  <separator name="dos" >
   <i type="int" name="LORBIT">    11</i>
   <v name="RWIGS">     -1.00000000</v>
   <i type="int" name="NEDOS">   301</i>
   <i name="EMIN">     10.00000000</i>
   <i name="EMAX">    -10.00000000</i>
   <i name="EFERMI">      0.00000000</i>
  </separator>
  <separator name="writing" >
   <i type="int" name="NWRITE">     2</i>
   <i type="logical" name="LWAVE"> T  </i>
   <i type="logical" name="LDOWNSAMPLE"> F  </i>
   <i type="logical" name="LCHARG"> T  </i>
   <i type="logical" name="LPARD"> F  </i>
   <i type="logical" name="LVTOT"> F  </i>
   <i type="logical" name="LVHAR"> F  </i>
   <i type="logical" name="LELF"> F  </i>
   <i type="logical" name="LOPTICS"> F  </i>
   <v name="STM">      0.00000000      0.00000000      0.00000000      0.00000000      0.00000000      0.00000000      0.00000000</v>
  </separator>
  <separator name="performance" >
   <i type="int" name="NPAR">     1</i>
   <i type="int" name="NSIM">     4</i>
   <i type="int" name="NBLK">    -1</i>
   <i type="logical" name="LPLANE"> T  </i>
   <i type="logical" name="LSCALAPACK"> T  </i>
   <i type="logical" name="LSCAAWARE"> F  </i>
   <i type="logical" name="LSCALU"> F  </i>
   <i type="logical" name="LASYNC"> F  </i>
   <i type="logical" name="LORBITALREAL"> F  </i>
  </separator>
  <separator name="miscellaneous" >
   <i type="int" name="IDIOT">     3</i>
   <i type="int" name="PHON_NSTRUCT">    -1</i>
   <i type="logical" name="LMUSIC"> F  </i>
   <v name="POMASS">     28.08500000</v>
   <v name="DARWINR">      0.00000000</v>
   <v name="DARWINV">      1.00000000</v>
   <i type="logical" name="LCORR"> T  </i>
  </separator>
  <i type="logical" name="GGA_COMPAT"> T  </i>
  <i type="logical" name="LBERRY"> F  </i>
  <i type="int" name="ICORELEVEL">     0</i>
  <i type="logical" name="LDAU"> F  </i>
  <i type="int" name="I_CONSTRAINED_M">     0</i>
  <separator name="electronic exchange-correlation" >
   <i type="string" name="GGA">PE</i>
   <i type="int" name="VOSKOWN">     0</i>
   <i type="logical" name="LHFCALC"> F  </i>
   <i type="string" name="PRECFOCK"></i>
   <i type="logical" name="LSYMGRAD"> F  </i>
   <i type="logical" name="LHFONE"> F  </i>
   <i type="logical" name="LRHFCALC"> F  </i>
   <i type="logical" name="LTHOMAS"> F  </i>
   <i type="logical" name="LMODELHF"> F  </i>
   <i type="logical" name="LFOCKACE"> F  </i>
   <i name="ENCUT4O">     -1.00000000</i>
   <i type="int" name="EXXOEP">     0</i>
   <i type="int" name="FOURORBIT">     0</i>
   <i name="AEXX">      0.00000000</i>
   <i name="HFALPHA">      0.00000000</i>
   <i name="MCALPHA">      0.00000000</i>
   <i name="ALDAX">      1.00000000</i>
   <i name="AGGAX">      1.00000000</i>
   <i name="ALDAC">      1.00000000</i>
   <i name="AGGAC">      1.00000000</i>
   <i type="int" name="NKREDX">     1</i>
   <i type="int" name="NKREDY">     1</i>
   <i type="int" name="NKREDZ">     1</i>
   <i type="logical" name="SHIFTRED"> F  </i>
   <i type="logical" name="ODDONLY"> F  </i>
   <i type="logical" name="EVENONLY"> F  </i>
   <i type="int" name="LMAXFOCK">     0</i>
   <i type="int" name="NMAXFOCKAE">     0</i>
   <i type="logical" name="LFOCKAEDFT"> F  </i>
   <i name="HFSCREEN">      0.00000000</i>
   <i name="HFSCREENC">      0.00000000</i>
   <i type="int" name="NBANDSGWLOW">     0</i>
  </separator>
  <separator name="vdW DFT" >
   <i type="logical" name="LUSE_VDW"> F  </i>
   <i name="Zab_VDW">     -0.84910000</i>
   <i name="PARAM1">      0.12340000</i>
   <i name="PARAM2">      1.00000000</i>
   <i name="PARAM3">      0.00000000</i>
  </separator>
  <separator name="model GW" >
   <i type="int" name="MODEL_GW">     0</i>
   <i name="MODEL_EPS0">     11.65108407</i>
   <i name="MODEL_ALPHA">      1.00000000</i>
  </separator>
  <separator name="linear response parameters" >
   <i type="logical" name="LEPSILON"> F  </i>
   <i type="logical" name="LRPA"> F  </i>
   <i type="logical" name="LNABLA"> F  </i>
   <i type="logical" name="LVEL"> F  </i>
   <i name="CSHIFT">      0.10000000</i>
   <i name="OMEGAMAX">     -1.00000000</i>
   <i name="DEG_THRESHOLD">      0.00200000</i>
   <i name="RTIME">     -0.10000000</i>
   <i name="WPLASMAI">      0.00000000</i>
   <v name="DFIELD">      0.00000000      0.00000000      0.00000000</v>
   <v name="WPLASMA">      0.00000000      0.00000000      0.00000000      0.00000000      0.00000000      0.00000000      0.00000000      0.00000000      0.00000000</v>
  </separator>
  <separator name="orbital magnetization" >
   <i type="logical" name="NUCIND"> F  </i>
   <v name="MAGPOS">      0.00000000      0.00000000      0.00000000</v>
   <i type="logical" name="LNICSALL"> T  </i>
   <i type="logical" name="ORBITALMAG"> F  </i>
   <i type="logical" name="LMAGBLOCH"> F  </i>
   <i type="logical" name="LCHIMAG"> F  </i>
   <i type="logical" name="LGAUGE"> T  </i>
   <i type="int" name="MAGATOM">     0</i>
   <v name="MAGDIPOL">      0.00000000      0.00000000      0.00000000</v>
   <v name="AVECCONST">      0.00000000      0.00000000      0.00000000</v>
  </separator>
  <separator name="response functions" >
   <i type="logical" name="LFINITE_TEMPERATURE"> F  </i>
   <i type="logical" name="LADDER"> F  </i>
   <i type="logical" name="LRPAFORCE"> F  </i>
   <i type="logical" name="LFXC"> F  </i>
   <i type="logical" name="LHARTREE"> T  </i>
   <i type="int" name="IBSE">     0</i>
   <v type="int" name="KPOINT">    -1     0     0     0</v>
   <i type="logical" name="LTCTC"> F  </i>
   <i type="logical" name="LTCTE"> F  </i>
   <i type="logical" name="LTETE"> F  </i>
   <i type="logical" name="LTRIPLET"> F  </i>
   <i type="logical" name="LFXCEPS"> F  </i>
   <i type="logical" name="LFXHEG"> F  </i>
   <i type="int" name="NATURALO">     2</i>
   <i type="logical" name="LHOLEGF"> F  </i>
   <i type="logical" name="L2ORDER"> F  </i>
   <i type="logical" name="LDMP1"> F  </i>
   <i type="logical" name="LMP2LT"> F  </i>
   <i type="logical" name="LSMP2LT"> F  </i>
   <i type="logical" name="LGWLF"> F  </i>
   <i name="ENCUTGW">     -2.00000000</i>
   <i name="ENCUTGWSOFT">     -2.00000000</i>
   <i name="ENCUTLF">     -1.00000000</i>
   <i type="logical" name="LESF_SPLINES"> F  </i>
   <i type="int" name="LMAXMP2">    -1</i>
   <i name="SCISSOR">      0.00000000</i>
   <i type="int" name="NOMEGA">     0</i>
   <i type="int" name="NOMEGAR">     0</i>
   <i type="int" name="NBANDSGW">    -1</i>
   <i type="int" name="NBANDSO">    -1</i>
   <i type="int" name="NBANDSV">    -1</i>
   <i type="int" name="NELMGW">     1</i>
   <i type="int" name="NELMHF">     1</i>
   <i type="int" name="DIM">     3</i>
   <i type="int" name="IESPILON">     4</i>
   <i type="int" name="ANTIRES">     0</i>
   <i name="OMEGAMAX">    -30.00000000</i>
   <i name="OMEGAMIN">    -30.00000000</i>
   <i name="OMEGATL">   -200.00000000</i>
   <i type="int" name="OMEGAGRID">     0</i>
   <i name="CSHIFT">     -0.10000000</i>
   <i type="logical" name="LSELFENERGY"> F  </i>
   <i type="logical" name="LSPECTRAL"> F  </i>
   <i type="logical" name="LSPECTRALGW"> F  </i>
   <i type="logical" name="LSINGLES"> F  </i>
   <i type="logical" name="LFERMIGW"> F  </i>
   <i type="logical" name="ODDONLYGW"> F  </i>
   <i type="logical" name="EVENONLYGW"> F  </i>
   <i type="int" name="NKREDLFX">     1</i>
   <i type="int" name="NKREDLFY">     1</i>
   <i type="int" name="NKREDLFZ">     1</i>
   <i type="int" name="MAXMEM">  2800</i>
   <i type="int" name="TELESCOPE">     0</i>
   <i type="int" name="NTAUPAR">    -1</i>
   <i type="int" name="NOMEGAPAR">    -1</i>
   <i name="DAMP_NEWTON">      0.80000001</i>
   <i name="LAMBDA">      1.00000000</i>
  </separator>
  <separator name="External order field" >
   <i name="OFIELD_KAPPA">      0.00000000</i>
   <v name="OFIELD_K">      0.00000000      0.00000000      0.00000000</v>
   <i name="OFIELD_Q6_NEAR">      0.00000000</i>
   <i name="OFIELD_Q6_FAR">      0.00000000</i>
   <i name="OFIELD_A">      0.00000000</i>
  </separator>
  <separator name="optional k-points parameters" >
   <i type="int" name="KPOINTS_OPT_MODE">     1</i>
   <i type="logical" name="LKPOINTS_OPT"> F  </i>
  </separator>
 </parameters>
 <atominfo>
  <atoms>       2 </atoms>
  <types>       1 </types>
  <array name="atoms" >
   <dimension dim="1">ion</dimension>
   <field type="string">element</field>
   <field type="int">atomtype</field>
   <set>
    <rc><c>Si</c><c>   1</c></rc>
    <rc><c>Si</c><c>   1</c></rc>
   </set>
  </array>
  <array name="atomtypes" >
   <dimension dim="1">type</dimension>
   <field type="int">atomspertype</field>
   <field type="string">element</field>
   <field>mass</field>
   <field>valence</field>
   <field type="string">pseudopotential</field>
   <set>
    <rc><c>   2</c><c>Si</c><c>     28.08500000</c><c>      4.00000000</c><c>  PAW_PBE Si 05Jan2001                  </c></rc>
   </set>
  </array>
 </atominfo>
 <structure name="initialpos" >
  <crystal>
   <varray name="basis" >
    <v>       0.00000000       2.68785000       2.68785000 </v>
    <v>       2.68785000       0.00000000       2.68785000 </v>
    <v>       2.68785000       2.68785000       0.00000000 </v>
   </varray>
   <i name="volume">     38.83694690 </i>
   <varray name="rec_basis" >
    <v>      -0.18602229       0.18602229       0.18602229 </v>
    <v>       0.18602229      -0.18602229       0.18602229 </v>
    <v>       0.18602229       0.18602229      -0.18602229 </v>
   </varray>
  </crystal>
  <varray name="positions" >
   <v>       0.00000000       0.00000000       0.00000000 </v>
   <v>       0.25000000       0.25000000       0.25000000 </v>
  </varray>
 </structure>
 <calculation>
  <scstep>
   <time name="dav">    0.45    0.45</time>
   <time name="total">    0.48    0.48</time>
   <energy>
    <i name="alphaZ">      3.46712432 </i>
    <i name="ewald">   -230.87224740 </i>
    <i name="hartreedc">    -14.57221007 </i>
    <i name="XCdc">    -17.81955908 </i>
    <i name="pawpsdc">    955.09567234 </i>
    <i name="pawaedc">   -920.16279411 </i>
    <i name="eentropy">     -0.00101488 </i>
    <i name="bandstr">     28.58945149 </i>
    <i name="atom">    206.13066687 </i>
    <i name="e_fr_energy">      9.85508950 </i>
    <i name="e_wo_entrp">      9.85610438 </i>
    <i name="e_0_energy">      9.85559694 </i>
   </energy>
  </scstep>
  <scstep>
   <time name="dav">    0.69    0.69</time>
   <time name="total">    0.69    0.69</time>
   <energy>
    <i name="e_fr_energy">     -4.93313887 </i>
    <i name="e_wo_entrp">     -4.93313887 </i>
    <i name="e_0_energy">     -4.93313887 </i>
   </energy>
  </scstep>
  <scstep>
   <time name="dav">    0.54    0.54</time>
   <time name="total">    0.54    0.54</time>
   <energy>
    <i name="e_fr_energy">     -5.12138257 </i>
    <i name="e_wo_entrp">     -5.12138257 </i>
    <i name="e_0_energy">     -5.12138257 </i>
   </energy>
  </scstep>
  <scstep>
   <time name="dav">    0.68    0.68</time>
   <time name="total">    0.68    0.68</time>
   <energy>
    <i name="e_fr_energy">     -5.12207386 </i>
    <i name="e_wo_entrp">     -5.12207386 </i>
    <i name="e_0_energy">     -5.12207386 </i>
   </energy>
  </scstep>
  <scstep>
   <time name="dav">    0.55    0.55</time>
   <time name="total">    0.55    0.55</time>
   <energy>
    <i name="e_fr_energy">     -5.12207452 </i>
    <i name="e_wo_entrp">     -5.12207452 </i>
    <i name="e_0_energy">     -5.12207452 </i>
   </energy>
  </scstep>
  <scstep>
   <time name="dav">    0.50    0.50</time>
   <time name="total">    0.50    0.50</time>
   <energy>
    <i name="alphaZ">      3.46712432 </i>
    <i name="ewald">   -230.87224740 </i>
    <i name="hartreedc">    -14.57221007 </i>
    <i name="XCdc">    -17.81955908 </i>
    <i name="pawpsdc">    955.09567234 </i>
    <i name="pawaedc">   -920.16279411 </i>
    <i name="eentropy">     -0.00000000 </i>
    <i name="bandstr">     13.61127259 </i>
    <i name="atom">    206.13066687 </i>
    <i name="e_fr_energy">     -5.12207453 </i>
    <i name="e_wo_entrp">     -5.12207453 </i>
    <i name="e_0_energy">     -5.12207453 </i>
   </energy>
  </scstep>
  <structure>
   <crystal>
    <varray name="basis" >
     <v>       0.00000000       2.68785000       2.68785000 </v>
     <v>       2.68785000       0.00000000       2.68785000 </v>
     <v>       2.68785000       2.68785000       0.00000000 </v>
    </varray>
    <i name="volume">     38.83694690 </i>
    <varray name="rec_basis" >
     <v>      -0.18602229       0.18602229       0.18602229 </v>
     <v>       0.18602229      -0.18602229       0.18602229 </v>
     <v>       0.18602229       0.18602229      -0.18602229 </v>
    </varray>
   </crystal>
   <varray name="positions" >
    <v>       0.00000000       0.00000000       0.00000000 </v>
    <v>       0.25000000       0.25000000       0.25000000 </v>
   </varray>
  </structure>
  <varray name="forces" >
   <v>       0.00000000       0.00000000       0.00000000 </v>
   <v>      -0.00000000      -0.00000000      -0.00000000 </v>
  </varray>
  <varray name="stress" >
   <v>     316.36832643       0.00000000      -0.00000000 </v>
   <v>       0.00000000     316.36832643      -0.00000000 </v>
   <v>      -0.00000000      -0.00000000     316.36832643 </v>
  </varray>
  <energy>
   <i name="e_fr_energy">     -5.12207453 </i>
   <i name="e_wo_entrp">     -5.12207453 </i>
   <i name="e_0_energy">     -5.12207453 </i>
  </energy>
  <time name="totalsc">    3.85    3.85</time>
  <eigenvalues>
   <array>
    <dimension dim="1">band</dimension>
    <dimension dim="2">kpoint</dimension>
    <dimension dim="3">spin</dimension>
    <field>eigene</field>
    <field>occ</field>
    <set>
     <set comment="spin 1">
      <set comment="kpoint 1">
       <r>   -1.7728    1.0000 </r>
       <r>   -1.7728    1.0000 </r>
       <r>    3.2106    1.0000 </r>
       <r>    3.2106    1.0000 </r>
       <r>    6.7914    0.0000 </r>
       <r>    6.7914    0.0000 </r>
       <r>   16.5288    0.0000 </r>
       <r>   16.5311    0.0000 </r>
      </set>
      <set comment="kpoint 2">
       <r>   -1.9749    1.0000 </r>
       <r>   -1.5672    1.0000 </r>
       <r>    3.2132    1.0000 </r>
       <r>    3.2132    1.0000 </r>
       <r>    6.7500    0.0000 </r>
       <r>    6.8407    0.0000 </r>
       <r>   16.4403    0.0000 </r>
       <r>   16.4418    0.0000 </r>
      </set>
      <set comment="kpoint 3">
       <r>   -2.1734    1.0000 </r>
       <r>   -1.3583    1.0000 </r>
       <r>    3.2212    1.0000 </r>
       <r>    3.2212    1.0000 </r>
       <r>    6.7163    0.0000 </r>
       <r>    6.8980    0.0000 </r>
       <r>   16.2455    0.0000 </r>
       <r>   16.2460    0.0000 </r>
      </set>
      <set comment="kpoint 4">
       <r>   -2.3680    1.0000 </r>
       <r>   -1.1462    1.0000 </r>
       <r>    3.2345    1.0000 </r>
       <r>    3.2345    1.0000 </r>
       <r>    6.6905    0.0000 </r>
       <r>    6.9636    0.0000 </r>
       <r>   16.0156    0.0000 </r>
       <r>   16.0156    0.0000 </r>
      </set>
      <set comment="kpoint 5">
       <r>   -2.5585    1.0000 </r>
       <r>   -0.9310    1.0000 </r>
       <r>    3.2531    1.0000 </r>
       <r>    3.2531    1.0000 </r>
       <r>    6.6731    0.0000 </r>
       <r>    7.0376    0.0000 </r>
       <r>   15.7742    0.0000 </r>
       <r>   15.7742    0.0000 </r>
      </set>
      <set comment="kpoint 6">
       <r>   -2.7450    1.0000 </r>
       <r>   -0.7131    1.0000 </r>
       <r>    3.2770    1.0000 </r>
       <r>    3.2770    1.0000 </r>
       <r>    6.6623    0.0000 </r>
       <r>    7.1199    0.0000 </r>
       <r>   15.5267    0.0000 </r>
       <r>   15.5267    0.0000 </r>
      </set>
      <set comment="kpoint 7">
       <r>   -2.9272    1.0000 </r>
       <r>   -0.4926    1.0000 </r>
       <r>    3.3062    1.0000 </r>
       <r>    3.3062    1.0000 </r>
       <r>    6.6587    0.0000 </r>
       <r>    7.2107    0.0000 </r>
       <r>   15.2767    0.0000 </r>
       <r>   15.2767    0.0000 </r>
      </set>
      <set comment="kpoint 8">
       <r>   -3.1051    1.0000 </r>
       <r>   -0.2697    1.0000 </r>
       <r>    3.3406    1.0000 </r>
       <r>    3.3406    1.0000 </r>
       <r>    6.6624    0.0000 </r>
       <r>    7.3101    0.0000 </r>
       <r>   15.0270    0.0000 </r>
       <r>   15.0271    0.0000 </r>
      </set>
      <set comment="kpoint 9">
       <r>   -3.2785    1.0000 </r>
       <r>   -0.0446    1.0000 </r>
       <r>    3.3802    1.0000 </r>
       <r>    3.3802    1.0000 </r>
       <r>    6.6730    0.0000 </r>
       <r>    7.4181    0.0000 </r>
       <r>   14.7777    0.0000 </r>
       <r>   14.7778    0.0000 </r>
      </set>
      <set comment="kpoint 10">
       <r>   -3.4472    1.0000 </r>
       <r>    0.1825    1.0000 </r>
       <r>    3.4250    1.0000 </r>
       <r>    3.4250    1.0000 </r>
       <r>    6.6906    0.0000 </r>
       <r>    7.5349    0.0000 </r>
       <r>   14.5294    0.0000 </r>
       <r>   14.5294    0.0000 </r>
      </set>
      <set comment="kpoint 11">
       <r>   -3.6113    1.0000 </r>
       <r>    0.4114    1.0000 </r>
       <r>    3.4750    1.0000 </r>
       <r>    3.4750    1.0000 </r>
       <r>    6.7149    0.0000 </r>
       <r>    7.6602    0.0000 </r>
       <r>   14.2810    0.0000 </r>
       <r>   14.2810    0.0000 </r>
      </set>
      <set comment="kpoint 12">
       <r>   -3.7706    1.0000 </r>
       <r>    0.6418    1.0000 </r>
       <r>    3.5301    1.0000 </r>
       <r>    3.5301    1.0000 </r>
       <r>    6.7457    0.0000 </r>
       <r>    7.7944    0.0000 </r>
       <r>   14.0349    0.0000 </r>
       <r>   14.0350    0.0000 </r>
      </set>
      <set comment="kpoint 13">
       <r>   -3.9250    1.0000 </r>
       <r>    0.8735    1.0000 </r>
       <r>    3.5903    1.0000 </r>
       <r>    3.5903    1.0000 </r>
       <r>    6.7827    0.0000 </r>
       <r>    7.9370    0.0000 </r>
       <r>   13.7903    0.0000 </r>
       <r>   13.7904    0.0000 </r>
      </set>
      <set comment="kpoint 14">
       <r>   -4.0744    1.0000 </r>
       <r>    1.1064    1.0000 </r>
       <r>    3.6555    1.0000 </r>
       <r>    3.6555    1.0000 </r>
       <r>    6.8263    0.0000 </r>
       <r>    8.0886    0.0000 </r>
       <r>   13.5470    0.0000 </r>
       <r>   13.5470    0.0000 </r>
      </set>
      <set comment="kpoint 15">
       <r>   -4.2187    1.0000 </r>
       <r>    1.3401    1.0000 </r>
       <r>    3.7256    1.0000 </r>
       <r>    3.7257    1.0000 </r>
       <r>    6.8757    0.0000 </r>
       <r>    8.2486    0.0000 </r>
       <r>   13.3053    0.0000 </r>
       <r>   13.3053    0.0000 </r>
      </set>
      <set comment="kpoint 16">
       <r>   -4.3579    1.0000 </r>
       <r>    1.5745    1.0000 </r>
       <r>    3.8006    1.0000 </r>
       <r>    3.8006    1.0000 </r>
       <r>    6.9309    0.0000 </r>
       <r>    8.4169    0.0000 </r>
       <r>   13.0644    0.0000 </r>
       <r>   13.0644    0.0000 </r>
      </set>
      <set comment="kpoint 17">
       <r>   -4.4919    1.0000 </r>
       <r>    1.8094    1.0000 </r>
       <r>    3.8804    1.0000 </r>
       <r>    3.8804    1.0000 </r>
       <r>    6.9917    0.0000 </r>
       <r>    8.5932    0.0000 </r>
       <r>   12.8257    0.0000 </r>
       <r>   12.8257    0.0000 </r>
      </set>
      <set comment="kpoint 18">
       <r>   -4.6206    1.0000 </r>
       <r>    2.0446    1.0000 </r>
       <r>    3.9649    1.0000 </r>
       <r>    3.9649    1.0000 </r>
       <r>    7.0581    0.0000 </r>
       <r>    8.7773    0.0000 </r>
       <r>   12.5894    0.0000 </r>
       <r>   12.5894    0.0000 </r>
      </set>
      <set comment="kpoint 19">
       <r>   -4.7440    1.0000 </r>
       <r>    2.2797    1.0000 </r>
       <r>    4.0540    1.0000 </r>
       <r>    4.0540    1.0000 </r>
       <r>    7.1293    0.0000 </r>
       <r>    8.9684    0.0000 </r>
       <r>   12.3542    0.0000 </r>
       <r>   12.3542    0.0000 </r>
      </set>
      <set comment="kpoint 20">
       <r>   -4.8620    1.0000 </r>
       <r>    2.5146    1.0000 </r>
       <r>    4.1476    1.0000 </r>
       <r>    4.1476    1.0000 </r>
       <r>    7.2053    0.0000 </r>
       <r>    9.1659    0.0000 </r>
       <r>   12.1208    0.0000 </r>
       <r>   12.1208    0.0000 </r>
      </set>
      <set comment="kpoint 21">
       <r>   -4.9745    1.0000 </r>
       <r>    2.7491    1.0000 </r>
       <r>    4.2455    1.0000 </r>
       <r>    4.2455    1.0000 </r>
       <r>    7.2858    0.0000 </r>
       <r>    9.3688    0.0000 </r>
       <r>   11.8894    0.0000 </r>
       <r>   11.8894    0.0000 </r>
      </set>
      <set comment="kpoint 22">
       <r>   -5.0816    1.0000 </r>
       <r>    2.9829    1.0000 </r>
       <r>    4.3475    1.0000 </r>
       <r>    4.3475    1.0000 </r>
       <r>    7.3703    0.0000 </r>
       <r>    9.5756    0.0000 </r>
       <r>   11.6603    0.0000 </r>
       <r>   11.6603    0.0000 </r>
      </set>
      <set comment="kpoint 23">
       <r>   -5.1832    1.0000 </r>
       <r>    3.2157    1.0000 </r>
       <r>    4.4533    1.0000 </r>
       <r>    4.4533    1.0000 </r>
       <r>    7.4583    0.0000 </r>
       <r>    9.7846    0.0000 </r>
       <r>   11.4330    0.0000 </r>
       <r>   11.4330    0.0000 </r>
      </set>
      <set comment="kpoint 24">
       <r>   -5.2791    1.0000 </r>
       <r>    3.4476    1.0000 </r>
       <r>    4.5629    1.0000 </r>
       <r>    4.5629    1.0000 </r>
       <r>    7.5497    0.0000 </r>
       <r>    9.9947    0.0000 </r>
       <r>   11.2091    0.0000 </r>
       <r>   11.2091    0.0000 </r>
      </set>
      <set comment="kpoint 25">
       <r>   -5.3694    1.0000 </r>
       <r>    3.6774    1.0000 </r>
       <r>    4.6759    1.0000 </r>
       <r>    4.6759    1.0000 </r>
       <r>    7.6436    0.0000 </r>
       <r>   10.1984    0.0000 </r>
       <r>   10.9876    0.0000 </r>
       <r>   10.9876    0.0000 </r>
      </set>
      <set comment="kpoint 26">
       <r>   -5.4540    1.0000 </r>
       <r>    3.9053    1.0000 </r>
       <r>    4.7920    1.0000 </r>
       <r>    4.7920    1.0000 </r>
       <r>    7.7397    0.0000 </r>
       <r>   10.3909    0.0000 </r>
       <r>   10.7702    0.0000 </r>
       <r>   10.7702    0.0000 </r>
      </set>
      <set comment="kpoint 27">
       <r>   -5.5329    1.0000 </r>
       <r>    4.1307    1.0000 </r>
       <r>    4.9107    1.0000 </r>
       <r>    4.9107    1.0000 </r>
       <r>    7.8372    0.0000 </r>
       <r>   10.5566    0.0000 </r>
       <r>   10.5566    0.0000 </r>
       <r>   10.5629    0.0000 </r>
      </set>
      <set comment="kpoint 28">
       <r>   -5.6061    1.0000 </r>
       <r>    4.3529    1.0000 </r>
       <r>    5.0316    1.0000 </r>
       <r>    5.0316    1.0000 </r>
       <r>    7.9352    0.0000 </r>
       <r>   10.3476    0.0000 </r>
       <r>   10.3476    0.0000 </r>
       <r>   10.7009    0.0000 </r>
      </set>
      <set comment="kpoint 29">
       <r>   -5.6736    1.0000 </r>
       <r>    4.5712    1.0000 </r>
       <r>    5.1539    1.0000 </r>
       <r>    5.1539    1.0000 </r>
       <r>    8.0330    0.0000 </r>
       <r>   10.1439    0.0000 </r>
       <r>   10.1439    0.0000 </r>
       <r>   10.7880    0.0000 </r>
      </set>
      <set comment="kpoint 30">
       <r>   -5.7353    1.0000 </r>
       <r>    4.7846    1.0000 </r>
       <r>    5.2770    1.0000 </r>
       <r>    5.2770    1.0000 </r>
       <r>    8.1294    0.0000 </r>
       <r>    9.9461    0.0000 </r>
       <r>    9.9461    0.0000 </r>
       <r>   10.8105    0.0000 </r>
      </set>
      <set comment="kpoint 31">
       <r>   -5.7911    1.0000 </r>
       <r>    4.9918    1.0000 </r>
       <r>    5.3996    1.0000 </r>
       <r>    5.3996    1.0000 </r>
       <r>    8.2232    0.0000 </r>
       <r>    9.7554    0.0000 </r>
       <r>    9.7554    0.0000 </r>
       <r>   10.7678    0.0000 </r>
      </set>
      <set comment="kpoint 32">
       <r>   -5.8412    1.0000 </r>
       <r>    5.1912    1.0000 </r>
       <r>    5.5208    1.0000 </r>
       <r>    5.5208    1.0000 </r>
       <r>    8.3133    0.0000 </r>
       <r>    9.5733    0.0000 </r>
       <r>    9.5733    0.0000 </r>
       <r>   10.6741    0.0000 </r>
      </set>
      <set comment="kpoint 33">
       <r>   -5.8853    1.0000 </r>
       <r>    5.3809    1.0000 </r>
       <r>    5.6388    1.0000 </r>
       <r>    5.6388    1.0000 </r>
       <r>    8.3983    0.0000 </r>
       <r>    9.4014    0.0000 </r>
       <r>    9.4014    0.0000 </r>
       <r>   10.5489    0.0000 </r>
      </set>
      <set comment="kpoint 34">
       <r>   -5.9237    1.0000 </r>
       <r>    5.5580    1.0000 </r>
       <r>    5.7514    1.0000 </r>
       <r>    5.7514    1.0000 </r>
       <r>    8.4764    0.0000 </r>
       <r>    9.2411    0.0000 </r>
       <r>    9.2411    0.0000 </r>
       <r>   10.4096    0.0000 </r>
      </set>
      <set comment="kpoint 35">
       <r>   -5.9562    1.0000 </r>
       <r>    5.7194    1.0000 </r>
       <r>    5.8564    1.0000 </r>
       <r>    5.8564    1.0000 </r>
       <r>    8.5464    0.0000 </r>
       <r>    9.0964    0.0000 </r>
       <r>    9.0964    0.0000 </r>
       <r>   10.2700    0.0000 </r>
      </set>
      <set comment="kpoint 36">
       <r>   -5.9827    1.0000 </r>
       <r>    5.8612    1.0000 </r>
       <r>    5.9504    1.0000 </r>
       <r>    5.9504    1.0000 </r>
       <r>    8.6064    0.0000 </r>
       <r>    8.9698    0.0000 </r>
       <r>    8.9698    0.0000 </r>
       <r>   10.1402    0.0000 </r>
      </set>
      <set comment="kpoint 37">
       <r>   -6.0034    1.0000 </r>
       <r>    5.9789    1.0000 </r>
       <r>    6.0297    1.0000 </r>
       <r>    6.0297    1.0000 </r>
       <r>    8.6551    0.0000 </r>
       <r>    8.8650    0.0000 </r>
       <r>    8.8650    0.0000 </r>
       <r>   10.0289    0.0000 </r>
      </set>
      <set comment="kpoint 38">
       <r>   -6.0182    1.0000 </r>
       <r>    6.0676    1.0000 </r>
       <r>    6.0904    1.0000 </r>
       <r>    6.0904    1.0000 </r>
       <r>    8.6909    0.0000 </r>
       <r>    8.7862    0.0000 </r>
       <r>    8.7862    0.0000 </r>
       <r>    9.9433    0.0000 </r>
      </set>
      <set comment="kpoint 39">
       <r>   -6.0270    1.0000 </r>
       <r>    6.1229    1.0000 </r>
       <r>    6.1287    1.0000 </r>
       <r>    6.1287    1.0000 </r>
       <r>    8.7129    0.0000 </r>
       <r>    8.7370    0.0000 </r>
       <r>    8.7370    0.0000 </r>
       <r>    9.8893    0.0000 </r>
      </set>
      <set comment="kpoint 40">
       <r>   -6.0300    1.0000 </r>
       <r>    6.1418    1.0000 </r>
       <r>    6.1418    1.0000 </r>
       <r>    6.1418    1.0000 </r>
       <r>    8.7203    0.0000 </r>
       <r>    8.7203    0.0000 </r>
       <r>    8.7203    0.0000 </r>
       <r>    9.8708    0.0000 </r>
      </set>
      <set comment="kpoint 41">
       <r>   -6.0300    1.0000 </r>
       <r>    6.1418    1.0000 </r>
       <r>    6.1418    1.0000 </r>
       <r>    6.1418    1.0000 </r>
       <r>    8.7203    0.0000 </r>
       <r>    8.7203    0.0000 </r>
       <r>    8.7203    0.0000 </r>
       <r>    9.8708    0.0000 </r>
      </set>
      <set comment="kpoint 42">
       <r>   -6.0270    1.0000 </r>
       <r>    6.1229    1.0000 </r>
       <r>    6.1287    1.0000 </r>
       <r>    6.1287    1.0000 </r>
       <r>    8.7129    0.0000 </r>
       <r>    8.7370    0.0000 </r>
       <r>    8.7370    0.0000 </r>
       <r>    9.8893    0.0000 </r>
      </set>
      <set comment="kpoint 43">
       <r>   -6.0182    1.0000 </r>
       <r>    6.0676    1.0000 </r>
       <r>    6.0904    1.0000 </r>
       <r>    6.0904    1.0000 </r>
       <r>    8.6909    0.0000 </r>
       <r>    8.7862    0.0000 </r>
       <r>    8.7862    0.0000 </r>
       <r>    9.9433    0.0000 </r>
      </set>
      <set comment="kpoint 44">
       <r>   -6.0034    1.0000 </r>
       <r>    5.9789    1.0000 </r>
       <r>    6.0297    1.0000 </r>
       <r>    6.0297    1.0000 </r>
       <r>    8.6551    0.0000 </r>
       <r>    8.8650    0.0000 </r>
       <r>    8.8650    0.0000 </r>
       <r>   10.0289    0.0000 </r>
      </set>
      <set comment="kpoint 45">
       <r>   -5.9827    1.0000 </r>
       <r>    5.8612    1.0000 </r>
       <r>    5.9504    1.0000 </r>
       <r>    5.9504    1.0000 </r>
       <r>    8.6064    0.0000 </r>
       <r>    8.9698    0.0000 </r>
       <r>    8.9698    0.0000 </r>
       <r>   10.1402    0.0000 </r>
      </set>
      <set comment="kpoint 46">
       <r>   -5.9562    1.0000 </r>
       <r>    5.7194    1.0000 </r>
       <r>    5.8564    1.0000 </r>
       <r>    5.8564    1.0000 </r>
       <r>    8.5464    0.0000 </r>
       <r>    9.0964    0.0000 </r>
       <r>    9.0964    0.0000 </r>
       <r>   10.2700    0.0000 </r>
      </set>
      <set comment="kpoint 47">
       <r>   -5.9237    1.0000 </r>
       <r>    5.5580    1.0000 </r>
       <r>    5.7514    1.0000 </r>
       <r>    5.7514    1.0000 </r>
       <r>    8.4764    0.0000 </r>
       <r>    9.2411    0.0000 </r>
       <r>    9.2411    0.0000 </r>
       <r>   10.4096    0.0000 </r>
      </set>
      <set comment="kpoint 48">
       <r>   -5.8853    1.0000 </r>
       <r>    5.3809    1.0000 </r>
       <r>    5.6388    1.0000 </r>
       <r>    5.6388    1.0000 </r>
       <r>    8.3983    0.0000 </r>
       <r>    9.4014    0.0000 </r>
       <r>    9.4014    0.0000 </r>
       <r>   10.5489    0.0000 </r>
      </set>
      <set comment="kpoint 49">
       <r>   -5.8412    1.0000 </r>
       <r>    5.1912    1.0000 </r>
       <r>    5.5208    1.0000 </r>
       <r>    5.5208    1.0000 </r>
       <r>    8.3133    0.0000 </r>
       <r>    9.5733    0.0000 </r>
       <r>    9.5733    0.0000 </r>
       <r>   10.6741    0.0000 </r>
      </set>
      <set comment="kpoint 50">
       <r>   -5.7911    1.0000 </r>
       <r>    4.9918    1.0000 </r>
       <r>    5.3996    1.0000 </r>
       <r>    5.3996    1.0000 </r>
       <r>    8.2232    0.0000 </r>
       <r>    9.7554    0.0000 </r>
       <r>    9.7554    0.0000 </r>
       <r>   10.7678    0.0000 </r>
      </set>
      <set comment="kpoint 51">
       <r>   -5.7353    1.0000 </r>
       <r>    4.7846    1.0000 </r>
       <r>    5.2770    1.0000 </r>
       <r>    5.2770    1.0000 </r>
       <r>    8.1294    0.0000 </r>
       <r>    9.9461    0.0000 </r>
       <r>    9.9461    0.0000 </r>
       <r>   10.8105    0.0000 </r>
      </set>
      <set comment="kpoint 52">
       <r>   -5.6736    1.0000 </r>
       <r>    4.5712    1.0000 </r>
       <r>    5.1539    1.0000 </r>
       <r>    5.1539    1.0000 </r>
       <r>    8.0330    0.0000 </r>
       <r>   10.1439    0.0000 </r>
       <r>   10.1439    0.0000 </r>
       <r>   10.7880    0.0000 </r>
      </set>
      <set comment="kpoint 53">
       <r>   -5.6061    1.0000 </r>
       <r>    4.3529    1.0000 </r>
       <r>    5.0316    1.0000 </r>
       <r>    5.0316    1.0000 </r>
       <r>    7.9352    0.0000 </r>
       <r>   10.3476    0.0000 </r>
       <r>   10.3476    0.0000 </r>
       <r>   10.7009    0.0000 </r>
      </set>
      <set comment="kpoint 54">
       <r>   -5.5329    1.0000 </r>
       <r>    4.1307    1.0000 </r>
       <r>    4.9107    1.0000 </r>
       <r>    4.9107    1.0000 </r>
       <r>    7.8372    0.0000 </r>
       <r>   10.5566    0.0000 </r>
       <r>   10.5566    0.0000 </r>
       <r>   10.5629    0.0000 </r>
      </set>
      <set comment="kpoint 55">
       <r>   -5.4540    1.0000 </r>
       <r>    3.9053    1.0000 </r>
       <r>    4.7920    1.0000 </r>
       <r>    4.7920    1.0000 </r>
       <r>    7.7397    0.0000 </r>
       <r>   10.3909    0.0000 </r>
       <r>   10.7702    0.0000 </r>
       <r>   10.7702    0.0000 </r>
      </set>
      <set comment="kpoint 56">
       <r>   -5.3694    1.0000 </r>
       <r>    3.6774    1.0000 </r>
       <r>    4.6759    1.0000 </r>
       <r>    4.6759    1.0000 </r>
       <r>    7.6436    0.0000 </r>
       <r>   10.1984    0.0000 </r>
       <r>   10.9876    0.0000 </r>
       <r>   10.9876    0.0000 </r>
      </set>
      <set comment="kpoint 57">
       <r>   -5.2791    1.0000 </r>
       <r>    3.4476    1.0000 </r>
       <r>    4.5629    1.0000 </r>
       <r>    4.5629    1.0000 </r>
       <r>    7.5497    0.0000 </r>
       <r>    9.9947    0.0000 </r>
       <r>   11.2091    0.0000 </r>
       <r>   11.2091    0.0000 </r>
      </set>
      <set comment="kpoint 58">
       <r>   -5.1832    1.0000 </r>
       <r>    3.2157    1.0000 </r>
       <r>    4.4533    1.0000 </r>
       <r>    4.4533    1.0000 </r>
       <r>    7.4583    0.0000 </r>
       <r>    9.7846    0.0000 </r>
       <r>   11.4330    0.0000 </r>
       <r>   11.4330    0.0000 </r>
      </set>
      <set comment="kpoint 59">
       <r>   -5.0816    1.0000 </r>
       <r>    2.9829    1.0000 </r>
       <r>    4.3475    1.0000 </r>
       <r>    4.3475    1.0000 </r>
       <r>    7.3703    0.0000 </r>
       <r>    9.5756    0.0000 </r>
       <r>   11.6603    0.0000 </r>
       <r>   11.6603    0.0000 </r>
      </set>
      <set comment="kpoint 60">
       <r>   -4.9745    1.0000 </r>
       <r>    2.7491    1.0000 </r>
       <r>    4.2455    1.0000 </r>
       <r>    4.2455    1.0000 </r>
       <r>    7.2858    0.0000 </r>
       <r>    9.3688    0.0000 </r>
       <r>   11.8894    0.0000 </r>
       <r>   11.8895    0.0000 </r>
      </set>
      <set comment="kpoint 61">
       <r>   -4.8620    1.0000 </r>
       <r>    2.5146    1.0000 </r>
       <r>    4.1476    1.0000 </r>
       <r>    4.1476    1.0000 </r>
       <r>    7.2053    0.0000 </r>
       <r>    9.1659    0.0000 </r>
       <r>   12.1208    0.0000 </r>
       <r>   12.1208    0.0000 </r>
      </set>
      <set comment="kpoint 62">
       <r>   -4.7440    1.0000 </r>
       <r>    2.2797    1.0000 </r>
       <r>    4.0540    1.0000 </r>
       <r>    4.0540    1.0000 </r>
       <r>    7.1293    0.0000 </r>
       <r>    8.9684    0.0000 </r>
       <r>   12.3542    0.0000 </r>
       <r>   12.3542    0.0000 </r>
      </set>
      <set comment="kpoint 63">
       <r>   -4.6206    1.0000 </r>
       <r>    2.0446    1.0000 </r>
       <r>    3.9649    1.0000 </r>
       <r>    3.9649    1.0000 </r>
       <r>    7.0581    0.0000 </r>
       <r>    8.7773    0.0000 </r>
       <r>   12.5894    0.0000 </r>
       <r>   12.5894    0.0000 </r>
      </set>
      <set comment="kpoint 64">
       <r>   -4.4919    1.0000 </r>
       <r>    1.8094    1.0000 </r>
       <r>    3.8804    1.0000 </r>
       <r>    3.8804    1.0000 </r>
       <r>    6.9917    0.0000 </r>
       <r>    8.5932    0.0000 </r>
       <r>   12.8257    0.0000 </r>
       <r>   12.8258    0.0000 </r>
      </set>
      <set comment="kpoint 65">
       <r>   -4.3579    1.0000 </r>
       <r>    1.5745    1.0000 </r>
       <r>    3.8006    1.0000 </r>
       <r>    3.8006    1.0000 </r>
       <r>    6.9309    0.0000 </r>
       <r>    8.4169    0.0000 </r>
       <r>   13.0644    0.0000 </r>
       <r>   13.0644    0.0000 </r>
      </set>
      <set comment="kpoint 66">
       <r>   -4.2187    1.0000 </r>
       <r>    1.3401    1.0000 </r>
       <r>    3.7256    1.0000 </r>
       <r>    3.7257    1.0000 </r>
       <r>    6.8757    0.0000 </r>
       <r>    8.2486    0.0000 </r>
       <r>   13.3053    0.0000 </r>
       <r>   13.3053    0.0000 </r>
      </set>
      <set comment="kpoint 67">
       <r>   -4.0744    1.0000 </r>
       <r>    1.1064    1.0000 </r>
       <r>    3.6555    1.0000 </r>
       <r>    3.6555    1.0000 </r>
       <r>    6.8263    0.0000 </r>
       <r>    8.0886    0.0000 </r>
       <r>   13.5470    0.0000 </r>
       <r>   13.5470    0.0000 </r>
      </set>
      <set comment="kpoint 68">
       <r>   -3.9250    1.0000 </r>
       <r>    0.8735    1.0000 </r>
       <r>    3.5903    1.0000 </r>
       <r>    3.5903    1.0000 </r>
       <r>    6.7827    0.0000 </r>
       <r>    7.9370    0.0000 </r>
       <r>   13.7903    0.0000 </r>
       <r>   13.7903    0.0000 </r>
      </set>
      <set comment="kpoint 69">
       <r>   -3.7706    1.0000 </r>
       <r>    0.6418    1.0000 </r>
       <r>    3.5301    1.0000 </r>
       <r>    3.5301    1.0000 </r>
       <r>    6.7457    0.0000 </r>
       <r>    7.7944    0.0000 </r>
       <r>   14.0349    0.0000 </r>
       <r>   14.0349    0.0000 </r>
      </set>
      <set comment="kpoint 70">
       <r>   -3.6113    1.0000 </r>
       <r>    0.4114    1.0000 </r>
       <r>    3.4750    1.0000 </r>
       <r>    3.4750    1.0000 </r>
       <r>    6.7149    0.0000 </r>
       <r>    7.6602    0.0000 </r>
       <r>   14.2810    0.0000 </r>
       <r>   14.2810    0.0000 </r>
      </set>
      <set comment="kpoint 71">
       <r>   -3.4472    1.0000 </r>
       <r>    0.1825    1.0000 </r>
       <r>    3.4250    1.0000 </r>
       <r>    3.4250    1.0000 </r>
       <r>    6.6906    0.0000 </r>
       <r>    7.5349    0.0000 </r>
       <r>   14.5293    0.0000 </r>
       <r>   14.5294    0.0000 </r>
      </set>
      <set comment="kpoint 72">
       <r>   -3.2785    1.0000 </r>
       <r>   -0.0446    1.0000 </r>
       <r>    3.3802    1.0000 </r>
       <r>    3.3802    1.0000 </r>
       <r>    6.6730    0.0000 </r>
       <r>    7.4181    0.0000 </r>
       <r>   14.7777    0.0000 </r>
       <r>   14.7778    0.0000 </r>
      </set>
      <set comment="kpoint 73">
       <r>   -3.1051    1.0000 </r>
       <r>   -0.2697    1.0000 </r>
       <r>    3.3406    1.0000 </r>
       <r>    3.3406    1.0000 </r>
       <r>    6.6624    0.0000 </r>
       <r>    7.3101    0.0000 </r>
       <r>   15.0270    0.0000 </r>
       <r>   15.0270    0.0000 </r>
      </set>
      <set comment="kpoint 74">
       <r>   -2.9272    1.0000 </r>
       <r>   -0.4926    1.0000 </r>
       <r>    3.3062    1.0000 </r>
       <r>    3.3062    1.0000 </r>
       <r>    6.6587    0.0000 </r>
       <r>    7.2107    0.0000 </r>
       <r>   15.2767    0.0000 </r>
       <r>   15.2767    0.0000 </r>
      </set>
      <set comment="kpoint 75">
       <r>   -2.7450    1.0000 </r>
       <r>   -0.7131    1.0000 </r>
       <r>    3.2770    1.0000 </r>
       <r>    3.2770    1.0000 </r>
       <r>    6.6623    0.0000 </r>
       <r>    7.1199    0.0000 </r>
       <r>   15.5267    0.0000 </r>
       <r>   15.5267    0.0000 </r>
      </set>
      <set comment="kpoint 76">
       <r>   -2.5585    1.0000 </r>
       <r>   -0.9310    1.0000 </r>
       <r>    3.2531    1.0000 </r>
       <r>    3.2531    1.0000 </r>
       <r>    6.6731    0.0000 </r>
       <r>    7.0376    0.0000 </r>
       <r>   15.7742    0.0000 </r>
       <r>   15.7742    0.0000 </r>
      </set>
      <set comment="kpoint 77">
       <r>   -2.3680    1.0000 </r>
       <r>   -1.1462    1.0000 </r>
       <r>    3.2345    1.0000 </r>
       <r>    3.2345    1.0000 </r>
       <r>    6.6905    0.0000 </r>
       <r>    6.9636    0.0000 </r>
       <r>   16.0156    0.0000 </r>
       <r>   16.0156    0.0000 </r>
      </set>
      <set comment="kpoint 78">
       <r>   -2.1734    1.0000 </r>
       <r>   -1.3583    1.0000 </r>
       <r>    3.2212    1.0000 </r>
       <r>    3.2212    1.0000 </r>
       <r>    6.7163    0.0000 </r>
       <r>    6.8980    0.0000 </r>
       <r>   16.2455    0.0000 </r>
       <r>   16.2458    0.0000 </r>
      </set>
      <set comment="kpoint 79">
       <r>   -1.9749    1.0000 </r>
       <r>   -1.5672    1.0000 </r>
       <r>    3.2132    1.0000 </r>
       <r>    3.2132    1.0000 </r>
       <r>    6.7500    0.0000 </r>
       <r>    6.8407    0.0000 </r>
       <r>   16.4407    0.0000 </r>
       <r>   16.4415    0.0000 </r>
      </set>
      <set comment="kpoint 80">
       <r>   -1.7728    1.0000 </r>
       <r>   -1.7728    1.0000 </r>
       <r>    3.2106    1.0000 </r>
       <r>    3.2106    1.0000 </r>
       <r>    6.7914    0.0000 </r>
       <r>    6.7914    0.0000 </r>
       <r>   16.5285    0.0000 </r>
       <r>   16.5309    0.0000 </r>
      </set>
     </set>
    </set>
   </array>
  </eigenvalues>
  <separator name="orbital magnetization" >
   <v name="MAGDIPOLOUT">      0.00000000      0.00000000      0.00000000</v>
  </separator>
  <dos>
   <i name="efermi">      6.41383872 </i>
   <total>
    <array>
     <dimension dim="1">gridpoints</dimension>
     <dimension dim="2">spin</dimension>
     <field>energy</field>
     <field>total</field>
     <field>integrated</field>
     <set>
      <set comment="spin 1">
       <r>    -7.1580     0.0000     0.0000 </r>
       <r>    -7.0753     0.0000     0.0000 </r>
       <r>    -6.9926     0.0000     0.0000 </r>
       <r>    -6.9099     0.0000     0.0000 </r>
       <r>    -6.8271     0.0000     0.0000 </r>
       <r>    -6.7444     0.0000     0.0000 </r>
       <r>    -6.6617     0.0000     0.0000 </r>
       <r>    -6.5790     0.0000     0.0000 </r>
       <r>    -6.4962     0.0000     0.0000 </r>
       <r>    -6.4135     0.0000     0.0000 </r>
       <r>    -6.3308     0.0000     0.0000 </r>
       <r>    -6.2481     0.0000     0.0000 </r>
       <r>    -6.1653     0.0001     0.0000 </r>
       <r>    -6.0826     0.1059     0.0088 </r>
       <r>    -5.9999     1.8618     0.1628 </r>
       <r>    -5.9172     2.0182     0.3297 </r>
       <r>    -5.8345     1.2161     0.4303 </r>
       <r>    -5.7517     0.9605     0.5098 </r>
       <r>    -5.6690     0.8237     0.5779 </r>
       <r>    -5.5863     0.7333     0.6386 </r>
       <r>    -5.5036     0.6672     0.6938 </r>
       <r>    -5.4208     0.6179     0.7449 </r>
       <r>    -5.3381     0.5807     0.7929 </r>
       <r>    -5.2554     0.5499     0.8384 </r>
       <r>    -5.1727     0.5149     0.8810 </r>
       <r>    -5.0899     0.4731     0.9202 </r>
       <r>    -5.0072     0.4575     0.9580 </r>
       <r>    -4.9245     0.4836     0.9980 </r>
       <r>    -4.8418     0.4588     1.0360 </r>
       <r>    -4.7590     0.3714     1.0667 </r>
       <r>    -4.6763     0.4208     1.1015 </r>
       <r>    -4.5936     0.4533     1.1390 </r>
       <r>    -4.5109     0.3115     1.1648 </r>
       <r>    -4.4281     0.4187     1.1994 </r>
       <r>    -4.3454     0.3932     1.2319 </r>
       <r>    -4.2627     0.2808     1.2552 </r>
       <r>    -4.1800     0.4603     1.2932 </r>
       <r>    -4.0973     0.2379     1.3129 </r>
       <r>    -4.0145     0.4243     1.3480 </r>
       <r>    -3.9318     0.2798     1.3712 </r>
       <r>    -3.8491     0.3469     1.3999 </r>
       <r>    -3.7664     0.3325     1.4274 </r>
       <r>    -3.6836     0.2817     1.4507 </r>
       <r>    -3.6009     0.3640     1.4808 </r>
       <r>    -3.5182     0.2433     1.5009 </r>
       <r>    -3.4355     0.3701     1.5315 </r>
       <r>    -3.3527     0.2319     1.5507 </r>
       <r>    -3.2700     0.3508     1.5797 </r>
       <r>    -3.1873     0.2482     1.6003 </r>
       <r>    -3.1046     0.3026     1.6253 </r>
       <r>    -3.0218     0.2954     1.6497 </r>
       <r>    -2.9391     0.2259     1.6684 </r>
       <r>    -2.8564     0.3688     1.6989 </r>
       <r>    -2.7737     0.1392     1.7104 </r>
       <r>    -2.6909     0.4402     1.7468 </r>
       <r>    -2.6082     0.0864     1.7540 </r>
       <r>    -2.5255     0.4502     1.7912 </r>
       <r>    -2.4428     0.1161     1.8008 </r>
       <r>    -2.3601     0.3458     1.8294 </r>
       <r>    -2.2773     0.2465     1.8498 </r>
       <r>    -2.1946     0.1680     1.8637 </r>
       <r>    -2.1119     0.4139     1.8980 </r>
       <r>    -2.0292     0.0625     1.9031 </r>
       <r>    -1.9464     0.4397     1.9395 </r>
       <r>    -1.8637     0.1326     1.9505 </r>
       <r>    -1.7810     0.4887     1.9909 </r>
       <r>    -1.6983     0.6935     2.0483 </r>
       <r>    -1.6155     0.0730     2.0543 </r>
       <r>    -1.5328     0.4527     2.0917 </r>
       <r>    -1.4501     0.1024     2.1002 </r>
       <r>    -1.3674     0.2384     2.1199 </r>
       <r>    -1.2846     0.3522     2.1491 </r>
       <r>    -1.2019     0.0459     2.1529 </r>
       <r>    -1.1192     0.4351     2.1889 </r>
       <r>    -1.0365     0.1350     2.2000 </r>
       <r>    -0.9537     0.1570     2.2130 </r>
       <r>    -0.8710     0.4200     2.2478 </r>
       <r>    -0.7883     0.0372     2.2508 </r>
       <r>    -0.7056     0.3431     2.2792 </r>
       <r>    -0.6229     0.2481     2.2997 </r>
       <r>    -0.5401     0.0573     2.3045 </r>
       <r>    -0.4574     0.4539     2.3420 </r>
       <r>    -0.3747     0.0971     2.3501 </r>
       <r>    -0.2920     0.1593     2.3632 </r>
       <r>    -0.2092     0.4182     2.3978 </r>
       <r>    -0.1265     0.0325     2.4005 </r>
       <r>    -0.0438     0.3016     2.4255 </r>
       <r>     0.0389     0.2912     2.4495 </r>
       <r>     0.1217     0.0313     2.4521 </r>
       <r>     0.2044     0.4167     2.4866 </r>
       <r>     0.2871     0.1611     2.4999 </r>
       <r>     0.3698     0.0734     2.5060 </r>
       <r>     0.4526     0.4581     2.5439 </r>
       <r>     0.5353     0.0743     2.5501 </r>
       <r>     0.6180     0.1509     2.5625 </r>
       <r>     0.7007     0.4240     2.5976 </r>
       <r>     0.7835     0.0321     2.6003 </r>
       <r>     0.8662     0.2493     2.6209 </r>
       <r>     0.9489     0.3419     2.6492 </r>
       <r>     1.0316     0.0204     2.6509 </r>
       <r>     1.1143     0.3457     2.6795 </r>
       <r>     1.1971     0.2452     2.6997 </r>
       <r>     1.2798     0.0297     2.7022 </r>
       <r>     1.3625     0.4187     2.7368 </r>
       <r>     1.4452     0.1583     2.7499 </r>
       <r>     1.5280     0.0577     2.7547 </r>
       <r>     1.6107     0.4551     2.7924 </r>
       <r>     1.6934     0.0925     2.8000 </r>
       <r>     1.7761     0.1049     2.8087 </r>
       <r>     1.8589     0.4506     2.8460 </r>
       <r>     1.9416     0.0498     2.8501 </r>
       <r>     2.0243     0.1703     2.8642 </r>
       <r>     2.1070     0.4098     2.8981 </r>
       <r>     2.1898     0.0266     2.9003 </r>
       <r>     2.2725     0.2501     2.9210 </r>
       <r>     2.3552     0.3412     2.9492 </r>
       <r>     2.4379     0.0190     2.9508 </r>
       <r>     2.5207     0.3341     2.9784 </r>
       <r>     2.6034     0.2576     2.9997 </r>
       <r>     2.6861     0.0262     3.0019 </r>
       <r>     2.7688     0.4075     3.0356 </r>
       <r>     2.8515     0.1733     3.0499 </r>
       <r>     2.9343     0.0522     3.0542 </r>
       <r>     3.0170     0.4522     3.0916 </r>
       <r>     3.0997     0.1035     3.1002 </r>
       <r>     3.1824     0.8745     3.1725 </r>
       <r>     3.2652     5.3726     3.6170 </r>
       <r>     3.3479     3.5813     3.9132 </r>
       <r>     3.4306     2.5541     4.1245 </r>
       <r>     3.5133     2.3282     4.3171 </r>
       <r>     3.5961     1.7095     4.4585 </r>
       <r>     3.6788     1.8180     4.6089 </r>
       <r>     3.7615     1.6738     4.7474 </r>
       <r>     3.8442     1.3196     4.8566 </r>
       <r>     3.9270     1.6281     4.9912 </r>
       <r>     4.0097     1.3164     5.1001 </r>
       <r>     4.0924     1.1952     5.1990 </r>
       <r>     4.1751     1.5265     5.3253 </r>
       <r>     4.2579     1.0765     5.4143 </r>
       <r>     4.3406     1.1582     5.5101 </r>
       <r>     4.4233     1.2927     5.6171 </r>
       <r>     4.5060     1.0052     5.7002 </r>
       <r>     4.5887     1.3505     5.8119 </r>
       <r>     4.6715     1.0025     5.8949 </r>
       <r>     4.7542     0.9403     5.9727 </r>
       <r>     4.8369     1.3965     6.0882 </r>
       <r>     4.9196     0.8810     6.1611 </r>
       <r>     5.0024     1.0853     6.2508 </r>
       <r>     5.0851     1.1494     6.3459 </r>
       <r>     5.1678     0.9927     6.4280 </r>
       <r>     5.2505     1.1123     6.5201 </r>
       <r>     5.3333     0.9894     6.6019 </r>
       <r>     5.4160     1.3068     6.7100 </r>
       <r>     5.4987     0.8305     6.7787 </r>
       <r>     5.5814     1.3242     6.8883 </r>
       <r>     5.6642     1.1081     6.9799 </r>
       <r>     5.7469     1.2578     7.0840 </r>
       <r>     5.8296     1.1651     7.1804 </r>
       <r>     5.9123     1.5219     7.3063 </r>
       <r>     5.9950     1.6316     7.4412 </r>
       <r>     6.0778     2.2304     7.6257 </r>
       <r>     6.1605     3.6433     7.9271 </r>
       <r>     6.2432     0.8764     7.9996 </r>
       <r>     6.3259     0.0047     8.0000 </r>
       <r>     6.4087     0.0000     8.0000 </r>
       <r>     6.4914     0.0000     8.0000 </r>
       <r>     6.5741     0.0164     8.0014 </r>
       <r>     6.6568     1.4645     8.1225 </r>
       <r>     6.7396     4.1494     8.4658 </r>
       <r>     6.8223     3.0055     8.7144 </r>
       <r>     6.9050     2.0108     8.8807 </r>
       <r>     6.9877     1.5933     9.0125 </r>
       <r>     7.0705     1.4051     9.1288 </r>
       <r>     7.1532     1.2812     9.2347 </r>
       <r>     7.2359     1.1901     9.3332 </r>
       <r>     7.3186     1.1047     9.4246 </r>
       <r>     7.4014     1.0179     9.5088 </r>
       <r>     7.4841     1.0072     9.5921 </r>
       <r>     7.5668     1.0142     9.6760 </r>
       <r>     7.6495     0.8647     9.7475 </r>
       <r>     7.7322     0.8945     9.8215 </r>
       <r>     7.8150     0.9296     9.8984 </r>
       <r>     7.8977     0.7637     9.9616 </r>
       <r>     7.9804     0.9835    10.0430 </r>
       <r>     8.0631     0.7314    10.1035 </r>
       <r>     8.1459     0.9509    10.1821 </r>
       <r>     8.2286     0.7307    10.2426 </r>
       <r>     8.3113     0.9607    10.3221 </r>
       <r>     8.3940     0.7670    10.3855 </r>
       <r>     8.4768     1.0642    10.4735 </r>
       <r>     8.5595     0.8644    10.5450 </r>
       <r>     8.6422     1.4329    10.6636 </r>
       <r>     8.7249     2.8486    10.8992 </r>
       <r>     8.8077     3.2101    11.1648 </r>
       <r>     8.8904     1.3692    11.2780 </r>
       <r>     8.9731     1.2481    11.3813 </r>
       <r>     9.0558     0.9700    11.4615 </r>
       <r>     9.1386     1.0636    11.5495 </r>
       <r>     9.2213     0.9220    11.6258 </r>
       <r>     9.3040     0.8754    11.6982 </r>
       <r>     9.3867     0.8510    11.7686 </r>
       <r>     9.4694     0.9527    11.8474 </r>
       <r>     9.5522     0.5165    11.8901 </r>
       <r>     9.6349     1.2508    11.9936 </r>
       <r>     9.7176     0.2671    12.0157 </r>
       <r>     9.8003     1.3195    12.1249 </r>
       <r>     9.8831     1.0190    12.2091 </r>
       <r>     9.9658     1.9352    12.3692 </r>
       <r>    10.0485     1.3712    12.4827 </r>
       <r>    10.1312     0.9035    12.5574 </r>
       <r>    10.2140     1.5189    12.6831 </r>
       <r>    10.2967     0.7648    12.7463 </r>
       <r>    10.3794     1.3737    12.8600 </r>
       <r>    10.4621     1.0430    12.9462 </r>
       <r>    10.5449     0.9510    13.0249 </r>
       <r>    10.6276     1.5253    13.1511 </r>
       <r>    10.7103     0.9602    13.2305 </r>
       <r>    10.7930     2.1132    13.4053 </r>
       <r>    10.8758     1.1194    13.4979 </r>
       <r>    10.9585     0.2728    13.5205 </r>
       <r>    11.0412     0.8827    13.5935 </r>
       <r>    11.1239     0.0879    13.6008 </r>
       <r>    11.2066     0.5609    13.6472 </r>
       <r>    11.2894     0.6243    13.6988 </r>
       <r>    11.3721     0.0655    13.7043 </r>
       <r>    11.4548     0.8331    13.7732 </r>
       <r>    11.5375     0.3227    13.7999 </r>
       <r>    11.6203     0.1569    13.8129 </r>
       <r>    11.7030     0.9159    13.8886 </r>
       <r>    11.7857     0.1394    13.9001 </r>
       <r>    11.8684     0.3320    13.9276 </r>
       <r>    11.9512     0.8261    13.9960 </r>
       <r>    12.0339     0.0573    14.0007 </r>
       <r>    12.1166     0.5392    14.0453 </r>
       <r>    12.1993     0.6453    14.0987 </r>
       <r>    12.2821     0.0409    14.1021 </r>
       <r>    12.3648     0.7222    14.1618 </r>
       <r>    12.4475     0.4566    14.1996 </r>
       <r>    12.5302     0.0618    14.2047 </r>
       <r>    12.6130     0.8463    14.2747 </r>
       <r>    12.6957     0.3043    14.2999 </r>
       <r>    12.7784     0.1105    14.3090 </r>
       <r>    12.8611     0.9081    14.3841 </r>
       <r>    12.9438     0.1915    14.4000 </r>
       <r>    13.0266     0.1721    14.4142 </r>
       <r>    13.1093     0.9134    14.4898 </r>
       <r>    13.1920     0.1241    14.5001 </r>
       <r>    13.2747     0.2340    14.5194 </r>
       <r>    13.3575     0.8898    14.5930 </r>
       <r>    13.4402     0.0859    14.6001 </r>
       <r>    13.5229     0.2978    14.6248 </r>
       <r>    13.6056     0.8507    14.6951 </r>
       <r>    13.6884     0.0612    14.7002 </r>
       <r>    13.7711     0.3524    14.7293 </r>
       <r>    13.8538     0.8103    14.7964 </r>
       <r>    13.9365     0.0470    14.8003 </r>
       <r>    14.0193     0.3940    14.8329 </r>
       <r>    14.1020     0.7766    14.8971 </r>
       <r>    14.1847     0.0389    14.9003 </r>
       <r>    14.2674     0.4202    14.9351 </r>
       <r>    14.3502     0.7543    14.9975 </r>
       <r>    14.4329     0.0343    15.0003 </r>
       <r>    14.5156     0.4176    15.0349 </r>
       <r>    14.5983     0.7565    15.0974 </r>
       <r>    14.6810     0.0346    15.1003 </r>
       <r>    14.7638     0.4148    15.1346 </r>
       <r>    14.8465     0.7590    15.1974 </r>
       <r>    14.9292     0.0348    15.2003 </r>
       <r>    15.0119     0.4014    15.2335 </r>
       <r>    15.0947     0.7704    15.2972 </r>
       <r>    15.1774     0.0367    15.3002 </r>
       <r>    15.2601     0.3833    15.3320 </r>
       <r>    15.3428     0.7855    15.3969 </r>
       <r>    15.4256     0.0396    15.4002 </r>
       <r>    15.5083     0.3617    15.4301 </r>
       <r>    15.5910     0.8029    15.4966 </r>
       <r>    15.6737     0.0443    15.5002 </r>
       <r>    15.7565     0.3693    15.5308 </r>
       <r>    15.8392     0.7969    15.5967 </r>
       <r>    15.9219     0.0448    15.6004 </r>
       <r>    16.0046     0.4519    15.6378 </r>
       <r>    16.0874     0.7264    15.6979 </r>
       <r>    16.1701     0.0453    15.7016 </r>
       <r>    16.2528     0.6812    15.7580 </r>
       <r>    16.3355     0.5031    15.7996 </r>
       <r>    16.4182     0.3194    15.8260 </r>
       <r>    16.5010     1.0905    15.9162 </r>
       <r>    16.5837     0.9355    15.9936 </r>
       <r>    16.6664     0.0772    16.0000 </r>
       <r>    16.7491     0.0001    16.0000 </r>
       <r>    16.8319     0.0000    16.0000 </r>
       <r>    16.9146     0.0000    16.0000 </r>
       <r>    16.9973     0.0000    16.0000 </r>
       <r>    17.0800     0.0000    16.0000 </r>
       <r>    17.1628     0.0000    16.0000 </r>
       <r>    17.2455     0.0000    16.0000 </r>
       <r>    17.3282     0.0000    16.0000 </r>
       <r>    17.4109     0.0000    16.0000 </r>
       <r>    17.4937     0.0000    16.0000 </r>
       <r>    17.5764     0.0000    16.0000 </r>
       <r>    17.6591     0.0000    16.0000 </r>
      </set>
     </set>
    </array>
   </total>
   <partial>
    <array>
     <dimension dim="1">gridpoints</dimension>
     <dimension dim="2">spin</dimension>
     <dimension dim="3">ion</dimension>
     <field>energy</field>
     <field>    s</field>
     <field>   py</field>
     <field>   pz</field>
     <field>   px</field>
     <field>  dxy</field>
     <field>  dyz</field>
     <field>  dz2</field>
     <field>  dxz</field>
     <field>x2-y2</field>
     <set>
      <set comment="ion 1">
       <set comment="spin 1">
        <r>    -7.1580     0.0000     0.0000     0.0000     0.0000     0.0000     0.0000     0.0000     0.0000     0.0000 </r>
        <r>    -7.0753     0.0000     0.0000     0.0000     0.0000     0.0000     0.0000     0.0000     0.0000     0.0000 </r>
        <r>    -6.9926     0.0000     0.0000     0.0000     0.0000     0.0000     0.0000     0.0000     0.0000     0.0000 </r>
        <r>    -6.9099     0.0000     0.0000     0.0000     0.0000     0.0000     0.0000     0.0000     0.0000     0.0000 </r>
        <r>    -6.8271     0.0000     0.0000     0.0000     0.0000     0.0000     0.0000     0.0000     0.0000     0.0000 </r>
        <r>    -6.7444     0.0000     0.0000     0.0000     0.0000     0.0000     0.0000     0.0000     0.0000     0.0000 </r>
        <r>    -6.6617     0.0000     0.0000     0.0000     0.0000     0.0000     0.0000     0.0000     0.0000     0.0000 </r>
        <r>    -6.5790     0.0000     0.0000     0.0000     0.0000     0.0000     0.0000     0.0000     0.0000     0.0000 </r>
        <r>    -6.4962     0.0000     0.0000     0.0000     0.0000     0.0000     0.0000     0.0000     0.0000     0.0000 </r>
        <r>    -6.4135     0.0000     0.0000     0.0000     0.0000     0.0000     0.0000     0.0000     0.0000     0.0000 </r>
        <r>    -6.3308     0.0000     0.0000     0.0000     0.0000     0.0000     0.0000     0.0000     0.0000     0.0000 </r>
        <r>    -6.2481     0.0000     0.0000     0.0000     0.0000     0.0000     0.0000     0.0000     0.0000     0.0000 </r>
        <r>    -6.1653     0.0000     0.0000     0.0000     0.0000     0.0000     0.0000     0.0000     0.0000     0.0000 </r>
        <r>    -6.0826     0.0228     0.0000     0.0000     0.0000     0.0000     0.0000     0.0000     0.0000     0.0000 </r>
        <r>    -5.9999     0.4014     0.0001     0.0001     0.0001     0.0000     0.0000     0.0000     0.0000     0.0000 </r>
        <r>    -5.9172     0.4346     0.0004     0.0004     0.0004     0.0000     0.0000     0.0000     0.0000     0.0000 </r>
        <r>    -5.8345     0.2613     0.0007     0.0007     0.0007     0.0000     0.0000     0.0000     0.0000     0.0000 </r>
        <r>    -5.7517     0.2059     0.0008     0.0008     0.0008     0.0000     0.0000     0.0000     0.0000     0.0000 </r>
        <r>    -5.6690     0.1762     0.0010     0.0010     0.0010     0.0000     0.0000     0.0000     0.0000     0.0000 </r>
        <r>    -5.5863     0.1565     0.0011     0.0011     0.0011     0.0000     0.0000     0.0000     0.0000     0.0000 </r>
        <r>    -5.5036     0.1421     0.0012     0.0012     0.0012     0.0000     0.0000     0.0000     0.0000     0.0000 </r>
        <r>    -5.4208     0.1313     0.0013     0.0013     0.0013     0.0000     0.0000     0.0000     0.0000     0.0000 </r>
        <r>    -5.3381     0.1231     0.0014     0.0014     0.0014     0.0000     0.0000     0.0000     0.0000     0.0000 </r>
        <r>    -5.2554     0.1164     0.0015     0.0015     0.0015     0.0000     0.0000     0.0000     0.0000     0.0000 </r>
        <r>    -5.1727     0.1087     0.0016     0.0016     0.0016     0.0000     0.0000     0.0000     0.0000     0.0000 </r>
        <r>    -5.0899     0.0997     0.0016     0.0016     0.0016     0.0000     0.0000     0.0000     0.0000     0.0000 </r>
        <r>    -5.0072     0.0962     0.0017     0.0017     0.0017     0.0000     0.0000     0.0000     0.0000     0.0000 </r>
        <r>    -4.9245     0.1015     0.0019     0.0019     0.0019     0.0000     0.0000     0.0000     0.0000     0.0000 </r>
        <r>    -4.8418     0.0961     0.0020     0.0020     0.0020     0.0000     0.0000     0.0000     0.0000     0.0000 </r>
        <r>    -4.7590     0.0776     0.0017     0.0017     0.0017     0.0000     0.0000     0.0000     0.0000     0.0000 </r>
        <r>    -4.6763     0.0878     0.0020     0.0020     0.0020     0.0000     0.0000     0.0000     0.0000     0.0000 </r>
        <r>    -4.5936     0.0943     0.0024     0.0024     0.0024     0.0000     0.0000     0.0000     0.0000     0.0000 </r>
        <r>    -4.5109     0.0647     0.0017     0.0017     0.0017     0.0000     0.0000     0.0000     0.0000     0.0000 </r>
        <r>    -4.4281     0.0868     0.0024     0.0024     0.0024     0.0000     0.0000     0.0000     0.0000     0.0000 </r>
        <r>    -4.3454     0.0813     0.0025     0.0025     0.0025     0.0000     0.0000     0.0000     0.0000     0.0000 </r>
        <r>    -4.2627     0.0580     0.0018     0.0018     0.0018     0.0000     0.0000     0.0000     0.0000     0.0000 </r>
        <r>    -4.1800     0.0948     0.0031     0.0031     0.0031     0.0000     0.0000     0.0000     0.0000     0.0000 </r>
        <r>    -4.0973     0.0489     0.0017     0.0017     0.0017     0.0000     0.0000     0.0000     0.0000     0.0000 </r>
        <r>    -4.0145     0.0871     0.0031     0.0031     0.0031     0.0000     0.0000     0.0000     0.0000     0.0000 </r>
        <r>    -3.9318     0.0572     0.0022     0.0022     0.0022     0.0000     0.0000     0.0000     0.0000     0.0000 </r>
        <r>    -3.8491     0.0709     0.0027     0.0027     0.0027     0.0000     0.0000     0.0000     0.0000     0.0000 </r>
        <r>    -3.7664     0.0677     0.0028     0.0028     0.0028     0.0000     0.0000     0.0000     0.0000     0.0000 </r>
        <r>    -3.6836     0.0574     0.0024     0.0024     0.0024     0.0000     0.0000     0.0000     0.0000     0.0000 </r>
        <r>    -3.6009     0.0738     0.0033     0.0033     0.0033     0.0000     0.0000     0.0000     0.0000     0.0000 </r>
        <r>    -3.5182     0.0493     0.0022     0.0022     0.0022     0.0000     0.0000     0.0000     0.0000     0.0000 </r>
        <r>    -3.4355     0.0748     0.0036     0.0036     0.0036     0.0000     0.0000     0.0000     0.0000     0.0000 </r>
        <r>    -3.3527     0.0468     0.0023     0.0023     0.0023     0.0000     0.0000     0.0000     0.0000     0.0000 </r>
        <r>    -3.2700     0.0706     0.0036     0.0036     0.0036     0.0000     0.0000     0.0000     0.0000     0.0000 </r>
        <r>    -3.1873     0.0499     0.0026     0.0026     0.0026     0.0000     0.0000     0.0000     0.0000     0.0000 </r>
        <r>    -3.1046     0.0606     0.0033     0.0033     0.0033     0.0000     0.0000     0.0000     0.0000     0.0000 </r>
        <r>    -3.0218     0.0592     0.0032     0.0032     0.0032     0.0000     0.0000     0.0000     0.0000     0.0000 </r>
        <r>    -2.9391     0.0450     0.0026     0.0026     0.0026     0.0000     0.0000     0.0000     0.0000     0.0000 </r>
        <r>    -2.8564     0.0735     0.0043     0.0043     0.0043     0.0000     0.0000     0.0000     0.0000     0.0000 </r>
        <r>    -2.7737     0.0276     0.0017     0.0017     0.0017     0.0000     0.0000     0.0000     0.0000     0.0000 </r>
        <r>    -2.6909     0.0874     0.0054     0.0054     0.0054     0.0000     0.0000     0.0000     0.0000     0.0000 </r>
        <r>    -2.6082     0.0171     0.0011     0.0011     0.0011     0.0000     0.0000     0.0000     0.0000     0.0000 </r>
        <r>    -2.5255     0.0889     0.0059     0.0059     0.0059     0.0000     0.0000     0.0000     0.0000     0.0000 </r>
        <r>    -2.4428     0.0229     0.0015     0.0015     0.0015     0.0000     0.0000     0.0000     0.0000     0.0000 </r>
        <r>    -2.3601     0.0679     0.0047     0.0047     0.0047     0.0000     0.0000     0.0000     0.0000     0.0000 </r>
        <r>    -2.2773     0.0484     0.0034     0.0034     0.0034     0.0000     0.0000     0.0000     0.0000     0.0000 </r>
        <r>    -2.1946     0.0328     0.0024     0.0024     0.0024     0.0000     0.0000     0.0000     0.0000     0.0000 </r>
        <r>    -2.1119     0.0809     0.0060     0.0060     0.0060     0.0000     0.0000     0.0000     0.0000     0.0000 </r>
        <r>    -2.0292     0.0122     0.0009     0.0009     0.0009     0.0000     0.0000     0.0000     0.0000     0.0000 </r>
        <r>    -1.9464     0.0855     0.0067     0.0067     0.0067     0.0000     0.0000     0.0000     0.0000     0.0000 </r>
        <r>    -1.8637     0.0258     0.0020     0.0020     0.0020     0.0000     0.0000     0.0000     0.0000     0.0000 </r>
        <r>    -1.7810     0.0945     0.0078     0.0078     0.0078     0.0000     0.0000     0.0000     0.0000     0.0000 </r>
        <r>    -1.6983     0.1341     0.0111     0.0111     0.0111     0.0000     0.0000     0.0000     0.0000     0.0000 </r>
        <r>    -1.6155     0.0141     0.0012     0.0012     0.0012     0.0000     0.0000     0.0000     0.0000     0.0000 </r>
        <r>    -1.5328     0.0870     0.0076     0.0076     0.0076     0.0000     0.0000     0.0000     0.0000     0.0000 </r>
        <r>    -1.4501     0.0197     0.0017     0.0017     0.0017     0.0000     0.0000     0.0000     0.0000     0.0000 </r>
        <r>    -1.3674     0.0456     0.0042     0.0042     0.0042     0.0000     0.0000     0.0000     0.0000     0.0000 </r>
        <r>    -1.2846     0.0673     0.0062     0.0062     0.0062     0.0000     0.0000     0.0000     0.0000     0.0000 </r>
        <r>    -1.2019     0.0087     0.0008     0.0008     0.0008     0.0000     0.0000     0.0000     0.0000     0.0000 </r>
        <r>    -1.1192     0.0826     0.0080     0.0080     0.0080     0.0000     0.0000     0.0000     0.0000     0.0000 </r>
        <r>    -1.0365     0.0256     0.0025     0.0025     0.0025     0.0000     0.0000     0.0000     0.0000     0.0000 </r>
        <r>    -0.9537     0.0296     0.0030     0.0030     0.0030     0.0000     0.0000     0.0000     0.0000     0.0000 </r>
        <r>    -0.8710     0.0792     0.0081     0.0081     0.0081     0.0000     0.0000     0.0000     0.0000     0.0000 </r>
        <r>    -0.7883     0.0070     0.0007     0.0007     0.0007     0.0000     0.0000     0.0000     0.0000     0.0000 </r>
        <r>    -0.7056     0.0642     0.0069     0.0069     0.0069     0.0000     0.0000     0.0000     0.0000     0.0000 </r>
        <r>    -0.6229     0.0465     0.0050     0.0050     0.0050     0.0000     0.0000     0.0000     0.0000     0.0000 </r>
        <r>    -0.5401     0.0107     0.0012     0.0012     0.0012     0.0000     0.0000     0.0000     0.0000     0.0000 </r>
        <r>    -0.4574     0.0843     0.0095     0.0095     0.0095     0.0000     0.0000     0.0000     0.0000     0.0000 </r>
        <r>    -0.3747     0.0180     0.0020     0.0020     0.0020     0.0000     0.0000     0.0000     0.0000     0.0000 </r>
        <r>    -0.2920     0.0294     0.0035     0.0035     0.0035     0.0000     0.0000     0.0000     0.0000     0.0000 </r>
        <r>    -0.2092     0.0771     0.0091     0.0091     0.0091     0.0000     0.0000     0.0000     0.0000     0.0000 </r>
        <r>    -0.1265     0.0060     0.0007     0.0007     0.0007     0.0000     0.0000     0.0000     0.0000     0.0000 </r>
        <r>    -0.0438     0.0551     0.0069     0.0069     0.0069     0.0000     0.0000     0.0000     0.0000     0.0000 </r>
        <r>     0.0389     0.0532     0.0066     0.0066     0.0066     0.0000     0.0000     0.0000     0.0000     0.0000 </r>
        <r>     0.1217     0.0057     0.0007     0.0007     0.0007     0.0000     0.0000     0.0000     0.0000     0.0000 </r>
        <r>     0.2044     0.0754     0.0099     0.0099     0.0099     0.0000     0.0000     0.0000     0.0000     0.0000 </r>
        <r>     0.2871     0.0292     0.0038     0.0038     0.0038     0.0000     0.0000     0.0000     0.0000     0.0000 </r>
        <r>     0.3698     0.0132     0.0018     0.0018     0.0018     0.0000     0.0000     0.0000     0.0000     0.0000 </r>
        <r>     0.4526     0.0821     0.0113     0.0113     0.0113     0.0000     0.0000     0.0000     0.0000     0.0000 </r>
        <r>     0.5353     0.0133     0.0018     0.0018     0.0018     0.0000     0.0000     0.0000     0.0000     0.0000 </r>
        <r>     0.6180     0.0267     0.0039     0.0039     0.0039     0.0000     0.0000     0.0000     0.0000     0.0000 </r>
        <r>     0.7007     0.0751     0.0109     0.0109     0.0109     0.0000     0.0000     0.0000     0.0000     0.0000 </r>
        <r>     0.7835     0.0057     0.0008     0.0008     0.0008     0.0000     0.0000     0.0000     0.0000     0.0000 </r>
        <r>     0.8662     0.0436     0.0066     0.0066     0.0066     0.0000     0.0000     0.0000     0.0000     0.0000 </r>
        <r>     0.9489     0.0599     0.0091     0.0091     0.0091     0.0000     0.0000     0.0000     0.0000     0.0000 </r>
        <r>     1.0316     0.0035     0.0006     0.0006     0.0006     0.0000     0.0000     0.0000     0.0000     0.0000 </r>
        <r>     1.1143     0.0597     0.0096     0.0096     0.0096     0.0000     0.0000     0.0000     0.0000     0.0000 </r>
        <r>     1.1971     0.0424     0.0068     0.0068     0.0068     0.0000     0.0000     0.0000     0.0000     0.0000 </r>
        <r>     1.2798     0.0051     0.0008     0.0008     0.0008     0.0000     0.0000     0.0000     0.0000     0.0000 </r>
        <r>     1.3625     0.0713     0.0120     0.0120     0.0120     0.0000     0.0000     0.0000     0.0000     0.0000 </r>
        <r>     1.4452     0.0270     0.0045     0.0045     0.0045     0.0000     0.0000     0.0000     0.0000     0.0000 </r>
        <r>     1.5280     0.0097     0.0017     0.0017     0.0017     0.0000     0.0000     0.0000     0.0000     0.0000 </r>
        <r>     1.6107     0.0763     0.0135     0.0135     0.0135     0.0000     0.0000     0.0000     0.0000     0.0000 </r>
        <r>     1.6934     0.0155     0.0028     0.0028     0.0028     0.0000     0.0000     0.0000     0.0000     0.0000 </r>
        <r>     1.7761     0.0173     0.0032     0.0032     0.0032     0.0000     0.0000     0.0000     0.0000     0.0000 </r>
        <r>     1.8589     0.0742     0.0139     0.0139     0.0139     0.0000     0.0000     0.0000     0.0000     0.0000 </r>
        <r>     1.9416     0.0082     0.0015     0.0015     0.0015     0.0000     0.0000     0.0000     0.0000     0.0000 </r>
        <r>     2.0243     0.0275     0.0055     0.0055     0.0055     0.0000     0.0000     0.0000     0.0000     0.0000 </r>
        <r>     2.1070     0.0662     0.0131     0.0131     0.0131     0.0000     0.0000     0.0000     0.0000     0.0000 </r>
        <r>     2.1898     0.0043     0.0009     0.0009     0.0009     0.0000     0.0000     0.0000     0.0000     0.0000 </r>
        <r>     2.2725     0.0396     0.0083     0.0083     0.0083     0.0000     0.0000     0.0000     0.0000     0.0000 </r>
        <r>     2.3552     0.0540     0.0113     0.0113     0.0113     0.0000     0.0000     0.0000     0.0000     0.0000 </r>
        <r>     2.4379     0.0030     0.0006     0.0006     0.0006     0.0000     0.0000     0.0000     0.0000     0.0000 </r>
        <r>     2.5207     0.0516     0.0115     0.0115     0.0115     0.0000     0.0000     0.0000     0.0000     0.0000 </r>
        <r>     2.6034     0.0398     0.0089     0.0089     0.0089     0.0000     0.0000     0.0000     0.0000     0.0000 </r>
        <r>     2.6861     0.0040     0.0009     0.0009     0.0009     0.0000     0.0000     0.0000     0.0000     0.0000 </r>
        <r>     2.7688     0.0613     0.0146     0.0146     0.0146     0.0000     0.0000     0.0000     0.0000     0.0000 </r>
        <r>     2.8515     0.0261     0.0062     0.0062     0.0062     0.0000     0.0000     0.0000     0.0000     0.0000 </r>
        <r>     2.9343     0.0076     0.0019     0.0019     0.0019     0.0000     0.0000     0.0000     0.0000     0.0000 </r>
        <r>     3.0170     0.0661     0.0168     0.0168     0.0168     0.0000     0.0000     0.0000     0.0000     0.0000 </r>
        <r>     3.0997     0.0148     0.0039     0.0039     0.0039     0.0000     0.0000     0.0000     0.0000     0.0000 </r>
        <r>     3.1824     0.0148     0.0558     0.0558     0.0558     0.0000     0.0000     0.0000     0.0000     0.0000 </r>
        <r>     3.2652     0.0637     0.3485     0.3485     0.3485     0.0000     0.0000     0.0000     0.0000     0.0000 </r>
        <r>     3.3479     0.0071     0.2396     0.2396     0.2396     0.0000     0.0000     0.0000     0.0000     0.0000 </r>
        <r>     3.4306     0.0258     0.1667     0.1667     0.1667     0.0000     0.0000     0.0000     0.0000     0.0000 </r>
        <r>     3.5133     0.0538     0.1459     0.1459     0.1459     0.0000     0.0000     0.0000     0.0000     0.0000 </r>
        <r>     3.5961     0.0034     0.1143     0.1143     0.1143     0.0000     0.0000     0.0000     0.0000     0.0000 </r>
        <r>     3.6788     0.0399     0.1145     0.1145     0.1145     0.0000     0.0000     0.0000     0.0000     0.0000 </r>
        <r>     3.7615     0.0376     0.1053     0.1053     0.1053     0.0000     0.0000     0.0000     0.0000     0.0000 </r>
        <r>     3.8442     0.0038     0.0881     0.0881     0.0881     0.0000     0.0000     0.0000     0.0000     0.0000 </r>
        <r>     3.9270     0.0518     0.0996     0.0996     0.0996     0.0000     0.0000     0.0000     0.0000     0.0000 </r>
        <r>     4.0097     0.0202     0.0848     0.0848     0.0848     0.0000     0.0000     0.0000     0.0000     0.0000 </r>
        <r>     4.0924     0.0100     0.0787     0.0787     0.0787     0.0000     0.0000     0.0000     0.0000     0.0000 </r>
        <r>     4.1751     0.0539     0.0927     0.0927     0.0927     0.0000     0.0000     0.0000     0.0000     0.0000 </r>
        <r>     4.2579     0.0077     0.0712     0.0712     0.0712     0.0000     0.0000     0.0000     0.0000     0.0000 </r>
        <r>     4.3406     0.0241     0.0737     0.0737     0.0737     0.0000     0.0000     0.0000     0.0000     0.0000 </r>
        <r>     4.4233     0.0410     0.0797     0.0797     0.0797     0.0000     0.0000     0.0000     0.0000     0.0000 </r>
        <r>     4.5060     0.0036     0.0674     0.0674     0.0674     0.0000     0.0000     0.0000     0.0000     0.0000 </r>
        <r>     4.5887     0.0408     0.0840     0.0840     0.0840     0.0000     0.0000     0.0000     0.0000     0.0000 </r>
        <r>     4.6715     0.0191     0.0645     0.0645     0.0645     0.0000     0.0000     0.0000     0.0000     0.0000 </r>
        <r>     4.7542     0.0112     0.0619     0.0619     0.0619     0.0000     0.0000     0.0000     0.0000     0.0000 </r>
        <r>     4.8369     0.0418     0.0875     0.0875     0.0875     0.0000     0.0000     0.0000     0.0000     0.0000 </r>
        <r>     4.9196     0.0050     0.0592     0.0592     0.0592     0.0000     0.0000     0.0000     0.0000     0.0000 </r>
        <r>     5.0024     0.0305     0.0687     0.0687     0.0687     0.0000     0.0000     0.0000     0.0000     0.0000 </r>
        <r>     5.0851     0.0194     0.0752     0.0752     0.0752     0.0000     0.0000     0.0000     0.0000     0.0000 </r>
        <r>     5.1678     0.0116     0.0662     0.0662     0.0662     0.0000     0.0000     0.0000     0.0000     0.0000 </r>
        <r>     5.2505     0.0315     0.0710     0.0710     0.0710     0.0000     0.0000     0.0000     0.0000     0.0000 </r>
        <r>     5.3333     0.0055     0.0674     0.0674     0.0674     0.0000     0.0000     0.0000     0.0000     0.0000 </r>
        <r>     5.4160     0.0288     0.0857     0.0857     0.0857     0.0000     0.0000     0.0000     0.0000     0.0000 </r>
        <r>     5.4987     0.0076     0.0565     0.0565     0.0565     0.0000     0.0000     0.0000     0.0000     0.0000 </r>
        <r>     5.5814     0.0220     0.0888     0.0888     0.0888     0.0000     0.0000     0.0000     0.0000     0.0000 </r>
        <r>     5.6642     0.0093     0.0762     0.0762     0.0762     0.0000     0.0000     0.0000     0.0000     0.0000 </r>
        <r>     5.7469     0.0175     0.0858     0.0858     0.0858     0.0000     0.0000     0.0000     0.0000     0.0000 </r>
        <r>     5.8296     0.0084     0.0812     0.0812     0.0812     0.0000     0.0000     0.0000     0.0000     0.0000 </r>
        <r>     5.9123     0.0130     0.1065     0.1065     0.1065     0.0000     0.0000     0.0000     0.0000     0.0000 </r>
        <r>     5.9950     0.0081     0.1160     0.1160     0.1160     0.0000     0.0000     0.0000     0.0000     0.0000 </r>
        <r>     6.0778     0.0064     0.1608     0.1608     0.1608     0.0000     0.0000     0.0000     0.0000     0.0000 </r>
        <r>     6.1605     0.0029     0.2658     0.2658     0.2658     0.0000     0.0000     0.0000     0.0000     0.0000 </r>
        <r>     6.2432     0.0002     0.0641     0.0641     0.0641     0.0000     0.0000     0.0000     0.0000     0.0000 </r>
        <r>     6.3259     0.0000     0.0003     0.0003     0.0003     0.0000     0.0000     0.0000     0.0000     0.0000 </r>
        <r>     6.4087     0.0000     0.0000     0.0000     0.0000     0.0000     0.0000     0.0000     0.0000     0.0000 </r>
        <r>     6.4914     0.0000     0.0000     0.0000     0.0000     0.0000     0.0000     0.0000     0.0000     0.0000 </r>
        <r>     6.5741     0.0009     0.0002     0.0002     0.0002     0.0000     0.0000     0.0000     0.0000     0.0000 </r>
        <r>     6.6568     0.0796     0.0205     0.0205     0.0205     0.0000     0.0000     0.0000     0.0000     0.0000 </r>
        <r>     6.7396     0.2240     0.0586     0.0586     0.0586     0.0000     0.0000     0.0000     0.0000     0.0000 </r>
        <r>     6.8223     0.1588     0.0426     0.0426     0.0426     0.0000     0.0000     0.0000     0.0000     0.0000 </r>
        <r>     6.9050     0.1038     0.0303     0.0303     0.0303     0.0000     0.0000     0.0000     0.0000     0.0000 </r>
        <r>     6.9877     0.0802     0.0254     0.0254     0.0254     0.0000     0.0000     0.0000     0.0000     0.0000 </r>
        <r>     7.0705     0.0690     0.0233     0.0233     0.0233     0.0000     0.0000     0.0000     0.0000     0.0000 </r>
        <r>     7.1532     0.0613     0.0220     0.0220     0.0220     0.0000     0.0000     0.0000     0.0000     0.0000 </r>
        <r>     7.2359     0.0554     0.0212     0.0212     0.0212     0.0000     0.0000     0.0000     0.0000     0.0000 </r>
        <r>     7.3186     0.0500     0.0205     0.0205     0.0205     0.0000     0.0000     0.0000     0.0000     0.0000 </r>
        <r>     7.4014     0.0446     0.0200     0.0200     0.0200     0.0000     0.0000     0.0000     0.0000     0.0000 </r>
        <r>     7.4841     0.0429     0.0202     0.0202     0.0202     0.0000     0.0000     0.0000     0.0000     0.0000 </r>
        <r>     7.5668     0.0420     0.0205     0.0205     0.0205     0.0000     0.0000     0.0000     0.0000     0.0000 </r>
        <r>     7.6495     0.0341     0.0194     0.0194     0.0194     0.0000     0.0000     0.0000     0.0000     0.0000 </r>
        <r>     7.7322     0.0345     0.0199     0.0199     0.0199     0.0000     0.0000     0.0000     0.0000     0.0000 </r>
        <r>     7.8150     0.0348     0.0207     0.0207     0.0207     0.0000     0.0000     0.0000     0.0000     0.0000 </r>
        <r>     7.8977     0.0262     0.0201     0.0201     0.0201     0.0000     0.0000     0.0000     0.0000     0.0000 </r>
        <r>     7.9804     0.0342     0.0231     0.0231     0.0231     0.0000     0.0000     0.0000     0.0000     0.0000 </r>
        <r>     8.0631     0.0219     0.0215     0.0215     0.0215     0.0000     0.0000     0.0000     0.0000     0.0000 </r>
        <r>     8.1459     0.0300     0.0242     0.0242     0.0242     0.0000     0.0000     0.0000     0.0000     0.0000 </r>
        <r>     8.2286     0.0190     0.0231     0.0231     0.0231     0.0000     0.0000     0.0000     0.0000     0.0000 </r>
        <r>     8.3113     0.0268     0.0269     0.0269     0.0269     0.0000     0.0000     0.0000     0.0000     0.0000 </r>
        <r>     8.3940     0.0159     0.0271     0.0271     0.0271     0.0000     0.0000     0.0000     0.0000     0.0000 </r>
        <r>     8.4768     0.0250     0.0329     0.0329     0.0329     0.0000     0.0000     0.0000     0.0000     0.0000 </r>
        <r>     8.5595     0.0114     0.0354     0.0354     0.0354     0.0000     0.0000     0.0000     0.0000     0.0000 </r>
        <r>     8.6422     0.0235     0.0520     0.0520     0.0520     0.0000     0.0000     0.0000     0.0000     0.0000 </r>
        <r>     8.7249     0.0061     0.1399     0.1399     0.1399     0.0000     0.0000     0.0000     0.0000     0.0000 </r>
        <r>     8.8077     0.0191     0.1454     0.1454     0.1454     0.0000     0.0000     0.0000     0.0000     0.0000 </r>
        <r>     8.8904     0.0053     0.0654     0.0654     0.0654     0.0000     0.0000     0.0000     0.0000     0.0000 </r>
        <r>     8.9731     0.0141     0.0515     0.0515     0.0515     0.0000     0.0000     0.0000     0.0000     0.0000 </r>
        <r>     9.0558     0.0115     0.0396     0.0396     0.0396     0.0000     0.0000     0.0000     0.0000     0.0000 </r>
        <r>     9.1386     0.0060     0.0505     0.0505     0.0505     0.0000     0.0000     0.0000     0.0000     0.0000 </r>
        <r>     9.2213     0.0194     0.0307     0.0307     0.0307     0.0000     0.0000     0.0000     0.0000     0.0000 </r>
        <r>     9.3040     0.0025     0.0443     0.0443     0.0443     0.0000     0.0000     0.0000     0.0000     0.0000 </r>
        <r>     9.3867     0.0185     0.0289     0.0289     0.0289     0.0000     0.0000     0.0000     0.0000     0.0000 </r>
        <r>     9.4694     0.0085     0.0435     0.0435     0.0435     0.0000     0.0000     0.0000     0.0000     0.0000 </r>
        <r>     9.5522     0.0076     0.0216     0.0216     0.0216     0.0000     0.0000     0.0000     0.0000     0.0000 </r>
        <r>     9.6349     0.0208     0.0501     0.0501     0.0501     0.0000     0.0000     0.0000     0.0000     0.0000 </r>
        <r>     9.7176     0.0023     0.0126     0.0126     0.0126     0.0000     0.0000     0.0000     0.0000     0.0000 </r>
        <r>     9.8003     0.0271     0.0550     0.0550     0.0550     0.0000     0.0000     0.0000     0.0000     0.0000 </r>
        <r>     9.8831     0.2442     0.0120     0.0120     0.0120     0.0000     0.0000     0.0000     0.0000     0.0000 </r>
        <r>     9.9658     0.3595     0.0477     0.0477     0.0477     0.0000     0.0000     0.0000     0.0000     0.0000 </r>
        <r>    10.0485     0.2250     0.0278     0.0278     0.0278     0.0000     0.0000     0.0000     0.0000     0.0000 </r>
        <r>    10.1312     0.1415     0.0273     0.0273     0.0273     0.0000     0.0000     0.0000     0.0000     0.0000 </r>
        <r>    10.2140     0.1531     0.0500     0.0500     0.0500     0.0000     0.0000     0.0000     0.0000     0.0000 </r>
        <r>    10.2967     0.1543     0.0144     0.0144     0.0144     0.0000     0.0000     0.0000     0.0000     0.0000 </r>
        <r>    10.3794     0.0963     0.0565     0.0565     0.0565     0.0000     0.0000     0.0000     0.0000     0.0000 </r>
        <r>    10.4621     0.1644     0.0251     0.0251     0.0251     0.0000     0.0000     0.0000     0.0000     0.0000 </r>
        <r>    10.5449     0.1082     0.0335     0.0335     0.0335     0.0000     0.0000     0.0000     0.0000     0.0000 </r>
        <r>    10.6276     0.1471     0.0553     0.0553     0.0553     0.0000     0.0000     0.0000     0.0000     0.0000 </r>
        <r>    10.7103     0.1767     0.0226     0.0226     0.0226     0.0000     0.0000     0.0000     0.0000     0.0000 </r>
        <r>    10.7930     0.2441     0.0750     0.0750     0.0750     0.0000     0.0000     0.0000     0.0000     0.0000 </r>
        <r>    10.8758     0.1554     0.0359     0.0359     0.0359     0.0000     0.0000     0.0000     0.0000     0.0000 </r>
        <r>    10.9585     0.0047     0.0144     0.0144     0.0144     0.0000     0.0000     0.0000     0.0000     0.0000 </r>
        <r>    11.0412     0.0000     0.0492     0.0492     0.0492     0.0000     0.0000     0.0000     0.0000     0.0000 </r>
        <r>    11.1239     0.0000     0.0049     0.0049     0.0049     0.0000     0.0000     0.0000     0.0000     0.0000 </r>
        <r>    11.2066     0.0000     0.0313     0.0313     0.0313     0.0000     0.0000     0.0000     0.0000     0.0000 </r>
        <r>    11.2894     0.0000     0.0349     0.0349     0.0349     0.0000     0.0000     0.0000     0.0000     0.0000 </r>
        <r>    11.3721     0.0000     0.0037     0.0037     0.0037     0.0000     0.0000     0.0000     0.0000     0.0000 </r>
        <r>    11.4548     0.0000     0.0465     0.0465     0.0465     0.0000     0.0000     0.0000     0.0000     0.0000 </r>
        <r>    11.5375     0.0000     0.0180     0.0180     0.0180     0.0000     0.0000     0.0000     0.0000     0.0000 </r>
        <r>    11.6203     0.0000     0.0088     0.0088     0.0088     0.0000     0.0000     0.0000     0.0000     0.0000 </r>
        <r>    11.7030     0.0000     0.0512     0.0512     0.0512     0.0000     0.0000     0.0000     0.0000     0.0000 </r>
        <r>    11.7857     0.0000     0.0078     0.0078     0.0078     0.0000     0.0000     0.0000     0.0000     0.0000 </r>
        <r>    11.8684     0.0000     0.0185     0.0185     0.0185     0.0000     0.0000     0.0000     0.0000     0.0000 </r>
        <r>    11.9512     0.0000     0.0461     0.0461     0.0461     0.0000     0.0000     0.0000     0.0000     0.0000 </r>
        <r>    12.0339     0.0000     0.0032     0.0032     0.0032     0.0000     0.0000     0.0000     0.0000     0.0000 </r>
        <r>    12.1166     0.0000     0.0300     0.0300     0.0300     0.0000     0.0000     0.0000     0.0000     0.0000 </r>
        <r>    12.1993     0.0000     0.0359     0.0359     0.0359     0.0000     0.0000     0.0000     0.0000     0.0000 </r>
        <r>    12.2821     0.0000     0.0023     0.0023     0.0023     0.0000     0.0000     0.0000     0.0000     0.0000 </r>
        <r>    12.3648     0.0000     0.0401     0.0401     0.0401     0.0000     0.0000     0.0000     0.0000     0.0000 </r>
        <r>    12.4475     0.0000     0.0254     0.0254     0.0254     0.0000     0.0000     0.0000     0.0000     0.0000 </r>
        <r>    12.5302     0.0000     0.0034     0.0034     0.0034     0.0000     0.0000     0.0000     0.0000     0.0000 </r>
        <r>    12.6130     0.0000     0.0469     0.0469     0.0469     0.0000     0.0000     0.0000     0.0000     0.0000 </r>
        <r>    12.6957     0.0000     0.0168     0.0168     0.0168     0.0000     0.0000     0.0000     0.0000     0.0000 </r>
        <r>    12.7784     0.0000     0.0061     0.0061     0.0061     0.0000     0.0000     0.0000     0.0000     0.0000 </r>
        <r>    12.8611     0.0000     0.0501     0.0501     0.0501     0.0000     0.0000     0.0000     0.0000     0.0000 </r>
        <r>    12.9438     0.0000     0.0106     0.0106     0.0106     0.0000     0.0000     0.0000     0.0000     0.0000 </r>
        <r>    13.0266     0.0000     0.0095     0.0095     0.0095     0.0000     0.0000     0.0000     0.0000     0.0000 </r>
        <r>    13.1093     0.0000     0.0503     0.0503     0.0503     0.0000     0.0000     0.0000     0.0000     0.0000 </r>
        <r>    13.1920     0.0000     0.0068     0.0068     0.0068     0.0000     0.0000     0.0000     0.0000     0.0000 </r>
        <r>    13.2747     0.0000     0.0128     0.0128     0.0128     0.0000     0.0000     0.0000     0.0000     0.0000 </r>
        <r>    13.3575     0.0000     0.0488     0.0488     0.0488     0.0000     0.0000     0.0000     0.0000     0.0000 </r>
        <r>    13.4402     0.0000     0.0047     0.0047     0.0047     0.0000     0.0000     0.0000     0.0000     0.0000 </r>
        <r>    13.5229     0.0000     0.0163     0.0163     0.0163     0.0000     0.0000     0.0000     0.0000     0.0000 </r>
        <r>    13.6056     0.0000     0.0465     0.0465     0.0465     0.0000     0.0000     0.0000     0.0000     0.0000 </r>
        <r>    13.6884     0.0000     0.0033     0.0033     0.0033     0.0000     0.0000     0.0000     0.0000     0.0000 </r>
        <r>    13.7711     0.0000     0.0192     0.0192     0.0192     0.0000     0.0000     0.0000     0.0000     0.0000 </r>
        <r>    13.8538     0.0000     0.0442     0.0442     0.0442     0.0000     0.0000     0.0000     0.0000     0.0000 </r>
        <r>    13.9365     0.0000     0.0026     0.0026     0.0026     0.0000     0.0000     0.0000     0.0000     0.0000 </r>
        <r>    14.0193     0.0000     0.0214     0.0214     0.0214     0.0000     0.0000     0.0000     0.0000     0.0000 </r>
        <r>    14.1020     0.0000     0.0422     0.0422     0.0422     0.0000     0.0000     0.0000     0.0000     0.0000 </r>
        <r>    14.1847     0.0000     0.0021     0.0021     0.0021     0.0000     0.0000     0.0000     0.0000     0.0000 </r>
        <r>    14.2674     0.0000     0.0228     0.0228     0.0228     0.0000     0.0000     0.0000     0.0000     0.0000 </r>
        <r>    14.3502     0.0000     0.0409     0.0409     0.0409     0.0000     0.0000     0.0000     0.0000     0.0000 </r>
        <r>    14.4329     0.0000     0.0019     0.0019     0.0019     0.0000     0.0000     0.0000     0.0000     0.0000 </r>
        <r>    14.5156     0.0000     0.0226     0.0226     0.0226     0.0000     0.0000     0.0000     0.0000     0.0000 </r>
        <r>    14.5983     0.0000     0.0410     0.0410     0.0410     0.0000     0.0000     0.0000     0.0000     0.0000 </r>
        <r>    14.6810     0.0000     0.0019     0.0019     0.0019     0.0000     0.0000     0.0000     0.0000     0.0000 </r>
        <r>    14.7638     0.0000     0.0225     0.0225     0.0225     0.0000     0.0000     0.0000     0.0000     0.0000 </r>
        <r>    14.8465     0.0000     0.0411     0.0411     0.0411     0.0000     0.0000     0.0000     0.0000     0.0000 </r>
        <r>    14.9292     0.0000     0.0019     0.0019     0.0019     0.0000     0.0000     0.0000     0.0000     0.0000 </r>
        <r>    15.0119     0.0000     0.0218     0.0218     0.0218     0.0000     0.0000     0.0000     0.0000     0.0000 </r>
        <r>    15.0947     0.0000     0.0419     0.0419     0.0419     0.0000     0.0000     0.0000     0.0000     0.0000 </r>
        <r>    15.1774     0.0000     0.0020     0.0020     0.0020     0.0000     0.0000     0.0000     0.0000     0.0000 </r>
        <r>    15.2601     0.0000     0.0210     0.0210     0.0210     0.0000     0.0000     0.0000     0.0000     0.0000 </r>
        <r>    15.3428     0.0000     0.0430     0.0430     0.0430     0.0000     0.0000     0.0000     0.0000     0.0000 </r>
        <r>    15.4256     0.0000     0.0022     0.0022     0.0022     0.0000     0.0000     0.0000     0.0000     0.0000 </r>
        <r>    15.5083     0.0000     0.0202     0.0202     0.0202     0.0000     0.0000     0.0000     0.0000     0.0000 </r>
        <r>    15.5910     0.0000     0.0447     0.0447     0.0447     0.0000     0.0000     0.0000     0.0000     0.0000 </r>
        <r>    15.6737     0.0000     0.0025     0.0025     0.0025     0.0000     0.0000     0.0000     0.0000     0.0000 </r>
        <r>    15.7565     0.0000     0.0211     0.0211     0.0211     0.0000     0.0000     0.0000     0.0000     0.0000 </r>
        <r>    15.8392     0.0000     0.0455     0.0455     0.0455     0.0000     0.0000     0.0000     0.0000     0.0000 </r>
        <r>    15.9219     0.0000     0.0026     0.0026     0.0026     0.0000     0.0000     0.0000     0.0000     0.0000 </r>
        <r>    16.0046     0.0000     0.0270     0.0270     0.0270     0.0000     0.0000     0.0000     0.0000     0.0000 </r>
        <r>    16.0874     0.0000     0.0434     0.0434     0.0434     0.0000     0.0000     0.0000     0.0000     0.0000 </r>
        <r>    16.1701     0.0000     0.0028     0.0028     0.0028     0.0000     0.0000     0.0000     0.0000     0.0000 </r>
        <r>    16.2528     0.0000     0.0441     0.0441     0.0441     0.0000     0.0000     0.0000     0.0000     0.0000 </r>
        <r>    16.3355     0.0000     0.0326     0.0326     0.0326     0.0000     0.0000     0.0000     0.0000     0.0000 </r>
        <r>    16.4182     0.0000     0.0234     0.0234     0.0234     0.0000     0.0000     0.0000     0.0000     0.0000 </r>
        <r>    16.5010     0.0000     0.0818     0.0818     0.0818     0.0000     0.0000     0.0000     0.0000     0.0000 </r>
        <r>    16.5837     0.0000     0.0745     0.0745     0.0745     0.0000     0.0000     0.0000     0.0000     0.0000 </r>
        <r>    16.6664     0.0000     0.0062     0.0062     0.0062     0.0000     0.0000     0.0000     0.0000     0.0000 </r>
        <r>    16.7491     0.0000     0.0000     0.0000     0.0000     0.0000     0.0000     0.0000     0.0000     0.0000 </r>
        <r>    16.8319     0.0000     0.0000     0.0000     0.0000     0.0000     0.0000     0.0000     0.0000     0.0000 </r>
        <r>    16.9146     0.0000     0.0000     0.0000     0.0000     0.0000     0.0000     0.0000     0.0000     0.0000 </r>
        <r>    16.9973     0.0000     0.0000     0.0000     0.0000     0.0000     0.0000     0.0000     0.0000     0.0000 </r>
        <r>    17.0800     0.0000     0.0000     0.0000     0.0000     0.0000     0.0000     0.0000     0.0000     0.0000 </r>
        <r>    17.1628     0.0000     0.0000     0.0000     0.0000     0.0000     0.0000     0.0000     0.0000     0.0000 </r>
        <r>    17.2455     0.0000     0.0000     0.0000     0.0000     0.0000     0.0000     0.0000     0.0000     0.0000 </r>
        <r>    17.3282     0.0000     0.0000     0.0000     0.0000     0.0000     0.0000     0.0000     0.0000     0.0000 </r>
        <r>    17.4109     0.0000     0.0000     0.0000     0.0000     0.0000     0.0000     0.0000     0.0000     0.0000 </r>
        <r>    17.4937     0.0000     0.0000     0.0000     0.0000     0.0000     0.0000     0.0000     0.0000     0.0000 </r>
        <r>    17.5764     0.0000     0.0000     0.0000     0.0000     0.0000     0.0000     0.0000     0.0000     0.0000 </r>
        <r>    17.6591     0.0000     0.0000     0.0000     0.0000     0.0000     0.0000     0.0000     0.0000     0.0000 </r>
       </set>
      </set>
      <set comment="ion 2">
       <set comment="spin 1">
        <r>    -7.1580     0.0000     0.0000     0.0000     0.0000     0.0000     0.0000     0.0000     0.0000     0.0000 </r>
        <r>    -7.0753     0.0000     0.0000     0.0000     0.0000     0.0000     0.0000     0.0000     0.0000     0.0000 </r>
        <r>    -6.9926     0.0000     0.0000     0.0000     0.0000     0.0000     0.0000     0.0000     0.0000     0.0000 </r>
        <r>    -6.9099     0.0000     0.0000     0.0000     0.0000     0.0000     0.0000     0.0000     0.0000     0.0000 </r>
        <r>    -6.8271     0.0000     0.0000     0.0000     0.0000     0.0000     0.0000     0.0000     0.0000     0.0000 </r>
        <r>    -6.7444     0.0000     0.0000     0.0000     0.0000     0.0000     0.0000     0.0000     0.0000     0.0000 </r>
        <r>    -6.6617     0.0000     0.0000     0.0000     0.0000     0.0000     0.0000     0.0000     0.0000     0.0000 </r>
        <r>    -6.5790     0.0000     0.0000     0.0000     0.0000     0.0000     0.0000     0.0000     0.0000     0.0000 </r>
        <r>    -6.4962     0.0000     0.0000     0.0000     0.0000     0.0000     0.0000     0.0000     0.0000     0.0000 </r>
        <r>    -6.4135     0.0000     0.0000     0.0000     0.0000     0.0000     0.0000     0.0000     0.0000     0.0000 </r>
        <r>    -6.3308     0.0000     0.0000     0.0000     0.0000     0.0000     0.0000     0.0000     0.0000     0.0000 </r>
        <r>    -6.2481     0.0000     0.0000     0.0000     0.0000     0.0000     0.0000     0.0000     0.0000     0.0000 </r>
        <r>    -6.1653     0.0000     0.0000     0.0000     0.0000     0.0000     0.0000     0.0000     0.0000     0.0000 </r>
        <r>    -6.0826     0.0228     0.0000     0.0000     0.0000     0.0000     0.0000     0.0000     0.0000     0.0000 </r>
        <r>    -5.9999     0.4014     0.0001     0.0001     0.0001     0.0000     0.0000     0.0000     0.0000     0.0000 </r>
        <r>    -5.9172     0.4346     0.0004     0.0004     0.0004     0.0000     0.0000     0.0000     0.0000     0.0000 </r>
        <r>    -5.8345     0.2613     0.0007     0.0007     0.0007     0.0000     0.0000     0.0000     0.0000     0.0000 </r>
        <r>    -5.7517     0.2059     0.0008     0.0008     0.0008     0.0000     0.0000     0.0000     0.0000     0.0000 </r>
        <r>    -5.6690     0.1762     0.0010     0.0010     0.0010     0.0000     0.0000     0.0000     0.0000     0.0000 </r>
        <r>    -5.5863     0.1565     0.0011     0.0011     0.0011     0.0000     0.0000     0.0000     0.0000     0.0000 </r>
        <r>    -5.5036     0.1421     0.0012     0.0012     0.0012     0.0000     0.0000     0.0000     0.0000     0.0000 </r>
        <r>    -5.4208     0.1313     0.0013     0.0013     0.0013     0.0000     0.0000     0.0000     0.0000     0.0000 </r>
        <r>    -5.3381     0.1231     0.0014     0.0014     0.0014     0.0000     0.0000     0.0000     0.0000     0.0000 </r>
        <r>    -5.2554     0.1164     0.0015     0.0015     0.0015     0.0000     0.0000     0.0000     0.0000     0.0000 </r>
        <r>    -5.1727     0.1087     0.0016     0.0016     0.0016     0.0000     0.0000     0.0000     0.0000     0.0000 </r>
        <r>    -5.0899     0.0997     0.0016     0.0016     0.0016     0.0000     0.0000     0.0000     0.0000     0.0000 </r>
        <r>    -5.0072     0.0962     0.0017     0.0017     0.0017     0.0000     0.0000     0.0000     0.0000     0.0000 </r>
        <r>    -4.9245     0.1015     0.0019     0.0019     0.0019     0.0000     0.0000     0.0000     0.0000     0.0000 </r>
        <r>    -4.8418     0.0961     0.0020     0.0020     0.0020     0.0000     0.0000     0.0000     0.0000     0.0000 </r>
        <r>    -4.7590     0.0776     0.0017     0.0017     0.0017     0.0000     0.0000     0.0000     0.0000     0.0000 </r>
        <r>    -4.6763     0.0878     0.0020     0.0020     0.0020     0.0000     0.0000     0.0000     0.0000     0.0000 </r>
        <r>    -4.5936     0.0943     0.0024     0.0024     0.0024     0.0000     0.0000     0.0000     0.0000     0.0000 </r>
        <r>    -4.5109     0.0647     0.0017     0.0017     0.0017     0.0000     0.0000     0.0000     0.0000     0.0000 </r>
        <r>    -4.4281     0.0868     0.0024     0.0024     0.0024     0.0000     0.0000     0.0000     0.0000     0.0000 </r>
        <r>    -4.3454     0.0813     0.0025     0.0025     0.0025     0.0000     0.0000     0.0000     0.0000     0.0000 </r>
        <r>    -4.2627     0.0580     0.0018     0.0018     0.0018     0.0000     0.0000     0.0000     0.0000     0.0000 </r>
        <r>    -4.1800     0.0948     0.0031     0.0031     0.0031     0.0000     0.0000     0.0000     0.0000     0.0000 </r>
        <r>    -4.0973     0.0489     0.0017     0.0017     0.0017     0.0000     0.0000     0.0000     0.0000     0.0000 </r>
        <r>    -4.0145     0.0871     0.0031     0.0031     0.0031     0.0000     0.0000     0.0000     0.0000     0.0000 </r>
        <r>    -3.9318     0.0572     0.0022     0.0022     0.0022     0.0000     0.0000     0.0000     0.0000     0.0000 </r>
        <r>    -3.8491     0.0709     0.0027     0.0027     0.0027     0.0000     0.0000     0.0000     0.0000     0.0000 </r>
        <r>    -3.7664     0.0677     0.0028     0.0028     0.0028     0.0000     0.0000     0.0000     0.0000     0.0000 </r>
        <r>    -3.6836     0.0574     0.0024     0.0024     0.0024     0.0000     0.0000     0.0000     0.0000     0.0000 </r>
        <r>    -3.6009     0.0738     0.0033     0.0033     0.0033     0.0000     0.0000     0.0000     0.0000     0.0000 </r>
        <r>    -3.5182     0.0493     0.0022     0.0022     0.0022     0.0000     0.0000     0.0000     0.0000     0.0000 </r>
        <r>    -3.4355     0.0748     0.0036     0.0036     0.0036     0.0000     0.0000     0.0000     0.0000     0.0000 </r>
        <r>    -3.3527     0.0468     0.0023     0.0023     0.0023     0.0000     0.0000     0.0000     0.0000     0.0000 </r>
        <r>    -3.2700     0.0706     0.0036     0.0036     0.0036     0.0000     0.0000     0.0000     0.0000     0.0000 </r>
        <r>    -3.1873     0.0499     0.0026     0.0026     0.0026     0.0000     0.0000     0.0000     0.0000     0.0000 </r>
        <r>    -3.1046     0.0606     0.0033     0.0033     0.0033     0.0000     0.0000     0.0000     0.0000     0.0000 </r>
        <r>    -3.0218     0.0592     0.0032     0.0032     0.0032     0.0000     0.0000     0.0000     0.0000     0.0000 </r>
        <r>    -2.9391     0.0450     0.0026     0.0026     0.0026     0.0000     0.0000     0.0000     0.0000     0.0000 </r>
        <r>    -2.8564     0.0735     0.0043     0.0043     0.0043     0.0000     0.0000     0.0000     0.0000     0.0000 </r>
        <r>    -2.7737     0.0276     0.0017     0.0017     0.0017     0.0000     0.0000     0.0000     0.0000     0.0000 </r>
        <r>    -2.6909     0.0874     0.0054     0.0054     0.0054     0.0000     0.0000     0.0000     0.0000     0.0000 </r>
        <r>    -2.6082     0.0171     0.0011     0.0011     0.0011     0.0000     0.0000     0.0000     0.0000     0.0000 </r>
        <r>    -2.5255     0.0889     0.0059     0.0059     0.0059     0.0000     0.0000     0.0000     0.0000     0.0000 </r>
        <r>    -2.4428     0.0229     0.0015     0.0015     0.0015     0.0000     0.0000     0.0000     0.0000     0.0000 </r>
        <r>    -2.3601     0.0679     0.0047     0.0047     0.0047     0.0000     0.0000     0.0000     0.0000     0.0000 </r>
        <r>    -2.2773     0.0484     0.0034     0.0034     0.0034     0.0000     0.0000     0.0000     0.0000     0.0000 </r>
        <r>    -2.1946     0.0328     0.0024     0.0024     0.0024     0.0000     0.0000     0.0000     0.0000     0.0000 </r>
        <r>    -2.1119     0.0809     0.0060     0.0060     0.0060     0.0000     0.0000     0.0000     0.0000     0.0000 </r>
        <r>    -2.0292     0.0122     0.0009     0.0009     0.0009     0.0000     0.0000     0.0000     0.0000     0.0000 </r>
        <r>    -1.9464     0.0855     0.0067     0.0067     0.0067     0.0000     0.0000     0.0000     0.0000     0.0000 </r>
        <r>    -1.8637     0.0258     0.0020     0.0020     0.0020     0.0000     0.0000     0.0000     0.0000     0.0000 </r>
        <r>    -1.7810     0.0945     0.0078     0.0078     0.0078     0.0000     0.0000     0.0000     0.0000     0.0000 </r>
        <r>    -1.6983     0.1341     0.0111     0.0111     0.0111     0.0000     0.0000     0.0000     0.0000     0.0000 </r>
        <r>    -1.6155     0.0141     0.0012     0.0012     0.0012     0.0000     0.0000     0.0000     0.0000     0.0000 </r>
        <r>    -1.5328     0.0870     0.0076     0.0076     0.0076     0.0000     0.0000     0.0000     0.0000     0.0000 </r>
        <r>    -1.4501     0.0197     0.0017     0.0017     0.0017     0.0000     0.0000     0.0000     0.0000     0.0000 </r>
        <r>    -1.3674     0.0456     0.0042     0.0042     0.0042     0.0000     0.0000     0.0000     0.0000     0.0000 </r>
        <r>    -1.2846     0.0673     0.0062     0.0062     0.0062     0.0000     0.0000     0.0000     0.0000     0.0000 </r>
        <r>    -1.2019     0.0087     0.0008     0.0008     0.0008     0.0000     0.0000     0.0000     0.0000     0.0000 </r>
        <r>    -1.1192     0.0826     0.0080     0.0080     0.0080     0.0000     0.0000     0.0000     0.0000     0.0000 </r>
        <r>    -1.0365     0.0256     0.0025     0.0025     0.0025     0.0000     0.0000     0.0000     0.0000     0.0000 </r>
        <r>    -0.9537     0.0296     0.0030     0.0030     0.0030     0.0000     0.0000     0.0000     0.0000     0.0000 </r>
        <r>    -0.8710     0.0792     0.0081     0.0081     0.0081     0.0000     0.0000     0.0000     0.0000     0.0000 </r>
        <r>    -0.7883     0.0070     0.0007     0.0007     0.0007     0.0000     0.0000     0.0000     0.0000     0.0000 </r>
        <r>    -0.7056     0.0642     0.0069     0.0069     0.0069     0.0000     0.0000     0.0000     0.0000     0.0000 </r>
        <r>    -0.6229     0.0465     0.0050     0.0050     0.0050     0.0000     0.0000     0.0000     0.0000     0.0000 </r>
        <r>    -0.5401     0.0107     0.0012     0.0012     0.0012     0.0000     0.0000     0.0000     0.0000     0.0000 </r>
        <r>    -0.4574     0.0843     0.0095     0.0095     0.0095     0.0000     0.0000     0.0000     0.0000     0.0000 </r>
        <r>    -0.3747     0.0180     0.0020     0.0020     0.0020     0.0000     0.0000     0.0000     0.0000     0.0000 </r>
        <r>    -0.2920     0.0294     0.0035     0.0035     0.0035     0.0000     0.0000     0.0000     0.0000     0.0000 </r>
        <r>    -0.2092     0.0771     0.0091     0.0091     0.0091     0.0000     0.0000     0.0000     0.0000     0.0000 </r>
        <r>    -0.1265     0.0060     0.0007     0.0007     0.0007     0.0000     0.0000     0.0000     0.0000     0.0000 </r>
        <r>    -0.0438     0.0551     0.0069     0.0069     0.0069     0.0000     0.0000     0.0000     0.0000     0.0000 </r>
        <r>     0.0389     0.0532     0.0066     0.0066     0.0066     0.0000     0.0000     0.0000     0.0000     0.0000 </r>
        <r>     0.1217     0.0057     0.0007     0.0007     0.0007     0.0000     0.0000     0.0000     0.0000     0.0000 </r>
        <r>     0.2044     0.0754     0.0099     0.0099     0.0099     0.0000     0.0000     0.0000     0.0000     0.0000 </r>
        <r>     0.2871     0.0292     0.0038     0.0038     0.0038     0.0000     0.0000     0.0000     0.0000     0.0000 </r>
        <r>     0.3698     0.0132     0.0018     0.0018     0.0018     0.0000     0.0000     0.0000     0.0000     0.0000 </r>
        <r>     0.4526     0.0821     0.0113     0.0113     0.0113     0.0000     0.0000     0.0000     0.0000     0.0000 </r>
        <r>     0.5353     0.0133     0.0018     0.0018     0.0018     0.0000     0.0000     0.0000     0.0000     0.0000 </r>
        <r>     0.6180     0.0267     0.0039     0.0039     0.0039     0.0000     0.0000     0.0000     0.0000     0.0000 </r>
        <r>     0.7007     0.0751     0.0109     0.0109     0.0109     0.0000     0.0000     0.0000     0.0000     0.0000 </r>
        <r>     0.7835     0.0057     0.0008     0.0008     0.0008     0.0000     0.0000     0.0000     0.0000     0.0000 </r>
        <r>     0.8662     0.0436     0.0066     0.0066     0.0066     0.0000     0.0000     0.0000     0.0000     0.0000 </r>
        <r>     0.9489     0.0599     0.0091     0.0091     0.0091     0.0000     0.0000     0.0000     0.0000     0.0000 </r>
        <r>     1.0316     0.0035     0.0006     0.0006     0.0006     0.0000     0.0000     0.0000     0.0000     0.0000 </r>
        <r>     1.1143     0.0597     0.0096     0.0096     0.0096     0.0000     0.0000     0.0000     0.0000     0.0000 </r>
        <r>     1.1971     0.0424     0.0068     0.0068     0.0068     0.0000     0.0000     0.0000     0.0000     0.0000 </r>
        <r>     1.2798     0.0051     0.0008     0.0008     0.0008     0.0000     0.0000     0.0000     0.0000     0.0000 </r>
        <r>     1.3625     0.0713     0.0120     0.0120     0.0120     0.0000     0.0000     0.0000     0.0000     0.0000 </r>
        <r>     1.4452     0.0270     0.0045     0.0045     0.0045     0.0000     0.0000     0.0000     0.0000     0.0000 </r>
        <r>     1.5280     0.0097     0.0017     0.0017     0.0017     0.0000     0.0000     0.0000     0.0000     0.0000 </r>
        <r>     1.6107     0.0763     0.0135     0.0135     0.0135     0.0000     0.0000     0.0000     0.0000     0.0000 </r>
        <r>     1.6934     0.0155     0.0028     0.0028     0.0028     0.0000     0.0000     0.0000     0.0000     0.0000 </r>
        <r>     1.7761     0.0173     0.0032     0.0032     0.0032     0.0000     0.0000     0.0000     0.0000     0.0000 </r>
        <r>     1.8589     0.0742     0.0139     0.0139     0.0139     0.0000     0.0000     0.0000     0.0000     0.0000 </r>
        <r>     1.9416     0.0082     0.0015     0.0015     0.0015     0.0000     0.0000     0.0000     0.0000     0.0000 </r>
        <r>     2.0243     0.0275     0.0055     0.0055     0.0055     0.0000     0.0000     0.0000     0.0000     0.0000 </r>
        <r>     2.1070     0.0662     0.0131     0.0131     0.0131     0.0000     0.0000     0.0000     0.0000     0.0000 </r>
        <r>     2.1898     0.0043     0.0009     0.0009     0.0009     0.0000     0.0000     0.0000     0.0000     0.0000 </r>
        <r>     2.2725     0.0396     0.0083     0.0083     0.0083     0.0000     0.0000     0.0000     0.0000     0.0000 </r>
        <r>     2.3552     0.0540     0.0113     0.0113     0.0113     0.0000     0.0000     0.0000     0.0000     0.0000 </r>
        <r>     2.4379     0.0030     0.0006     0.0006     0.0006     0.0000     0.0000     0.0000     0.0000     0.0000 </r>
        <r>     2.5207     0.0516     0.0115     0.0115     0.0115     0.0000     0.0000     0.0000     0.0000     0.0000 </r>
        <r>     2.6034     0.0398     0.0089     0.0089     0.0089     0.0000     0.0000     0.0000     0.0000     0.0000 </r>
        <r>     2.6861     0.0040     0.0009     0.0009     0.0009     0.0000     0.0000     0.0000     0.0000     0.0000 </r>
        <r>     2.7688     0.0613     0.0146     0.0146     0.0146     0.0000     0.0000     0.0000     0.0000     0.0000 </r>
        <r>     2.8515     0.0261     0.0062     0.0062     0.0062     0.0000     0.0000     0.0000     0.0000     0.0000 </r>
        <r>     2.9343     0.0076     0.0019     0.0019     0.0019     0.0000     0.0000     0.0000     0.0000     0.0000 </r>
        <r>     3.0170     0.0661     0.0168     0.0168     0.0168     0.0000     0.0000     0.0000     0.0000     0.0000 </r>
        <r>     3.0997     0.0148     0.0039     0.0039     0.0039     0.0000     0.0000     0.0000     0.0000     0.0000 </r>
        <r>     3.1824     0.0148     0.0558     0.0558     0.0558     0.0000     0.0000     0.0000     0.0000     0.0000 </r>
        <r>     3.2652     0.0637     0.3485     0.3485     0.3485     0.0000     0.0000     0.0000     0.0000     0.0000 </r>
        <r>     3.3479     0.0071     0.2396     0.2396     0.2396     0.0000     0.0000     0.0000     0.0000     0.0000 </r>
        <r>     3.4306     0.0258     0.1667     0.1667     0.1667     0.0000     0.0000     0.0000     0.0000     0.0000 </r>
        <r>     3.5133     0.0538     0.1459     0.1459     0.1459     0.0000     0.0000     0.0000     0.0000     0.0000 </r>
        <r>     3.5961     0.0034     0.1143     0.1143     0.1143     0.0000     0.0000     0.0000     0.0000     0.0000 </r>
        <r>     3.6788     0.0399     0.1145     0.1145     0.1145     0.0000     0.0000     0.0000     0.0000     0.0000 </r>
        <r>     3.7615     0.0376     0.1053     0.1053     0.1053     0.0000     0.0000     0.0000     0.0000     0.0000 </r>
        <r>     3.8442     0.0038     0.0881     0.0881     0.0881     0.0000     0.0000     0.0000     0.0000     0.0000 </r>
        <r>     3.9270     0.0518     0.0996     0.0996     0.0996     0.0000     0.0000     0.0000     0.0000     0.0000 </r>
        <r>     4.0097     0.0202     0.0848     0.0848     0.0848     0.0000     0.0000     0.0000     0.0000     0.0000 </r>
        <r>     4.0924     0.0100     0.0787     0.0787     0.0787     0.0000     0.0000     0.0000     0.0000     0.0000 </r>
        <r>     4.1751     0.0539     0.0927     0.0927     0.0927     0.0000     0.0000     0.0000     0.0000     0.0000 </r>
        <r>     4.2579     0.0077     0.0712     0.0712     0.0712     0.0000     0.0000     0.0000     0.0000     0.0000 </r>
        <r>     4.3406     0.0241     0.0737     0.0737     0.0737     0.0000     0.0000     0.0000     0.0000     0.0000 </r>
        <r>     4.4233     0.0410     0.0797     0.0797     0.0797     0.0000     0.0000     0.0000     0.0000     0.0000 </r>
        <r>     4.5060     0.0036     0.0674     0.0674     0.0674     0.0000     0.0000     0.0000     0.0000     0.0000 </r>
        <r>     4.5887     0.0408     0.0840     0.0840     0.0840     0.0000     0.0000     0.0000     0.0000     0.0000 </r>
        <r>     4.6715     0.0191     0.0645     0.0645     0.0645     0.0000     0.0000     0.0000     0.0000     0.0000 </r>
        <r>     4.7542     0.0112     0.0619     0.0619     0.0619     0.0000     0.0000     0.0000     0.0000     0.0000 </r>
        <r>     4.8369     0.0418     0.0875     0.0875     0.0875     0.0000     0.0000     0.0000     0.0000     0.0000 </r>
        <r>     4.9196     0.0050     0.0592     0.0592     0.0592     0.0000     0.0000     0.0000     0.0000     0.0000 </r>
        <r>     5.0024     0.0305     0.0687     0.0687     0.0687     0.0000     0.0000     0.0000     0.0000     0.0000 </r>
        <r>     5.0851     0.0194     0.0752     0.0752     0.0752     0.0000     0.0000     0.0000     0.0000     0.0000 </r>
        <r>     5.1678     0.0116     0.0662     0.0662     0.0662     0.0000     0.0000     0.0000     0.0000     0.0000 </r>
        <r>     5.2505     0.0315     0.0710     0.0710     0.0710     0.0000     0.0000     0.0000     0.0000     0.0000 </r>
        <r>     5.3333     0.0055     0.0674     0.0674     0.0674     0.0000     0.0000     0.0000     0.0000     0.0000 </r>
        <r>     5.4160     0.0288     0.0857     0.0857     0.0857     0.0000     0.0000     0.0000     0.0000     0.0000 </r>
        <r>     5.4987     0.0076     0.0565     0.0565     0.0565     0.0000     0.0000     0.0000     0.0000     0.0000 </r>
        <r>     5.5814     0.0220     0.0888     0.0888     0.0888     0.0000     0.0000     0.0000     0.0000     0.0000 </r>
        <r>     5.6642     0.0093     0.0762     0.0762     0.0762     0.0000     0.0000     0.0000     0.0000     0.0000 </r>
        <r>     5.7469     0.0175     0.0858     0.0858     0.0858     0.0000     0.0000     0.0000     0.0000     0.0000 </r>
        <r>     5.8296     0.0084     0.0812     0.0812     0.0812     0.0000     0.0000     0.0000     0.0000     0.0000 </r>
        <r>     5.9123     0.0130     0.1065     0.1065     0.1065     0.0000     0.0000     0.0000     0.0000     0.0000 </r>
        <r>     5.9950     0.0081     0.1160     0.1160     0.1160     0.0000     0.0000     0.0000     0.0000     0.0000 </r>
        <r>     6.0778     0.0064     0.1608     0.1608     0.1608     0.0000     0.0000     0.0000     0.0000     0.0000 </r>
        <r>     6.1605     0.0029     0.2658     0.2658     0.2658     0.0000     0.0000     0.0000     0.0000     0.0000 </r>
        <r>     6.2432     0.0002     0.0641     0.0641     0.0641     0.0000     0.0000     0.0000     0.0000     0.0000 </r>
        <r>     6.3259     0.0000     0.0003     0.0003     0.0003     0.0000     0.0000     0.0000     0.0000     0.0000 </r>
        <r>     6.4087     0.0000     0.0000     0.0000     0.0000     0.0000     0.0000     0.0000     0.0000     0.0000 </r>
        <r>     6.4914     0.0000     0.0000     0.0000     0.0000     0.0000     0.0000     0.0000     0.0000     0.0000 </r>
        <r>     6.5741     0.0009     0.0002     0.0002     0.0002     0.0000     0.0000     0.0000     0.0000     0.0000 </r>
        <r>     6.6568     0.0796     0.0205     0.0205     0.0205     0.0000     0.0000     0.0000     0.0000     0.0000 </r>
        <r>     6.7396     0.2240     0.0586     0.0586     0.0586     0.0000     0.0000     0.0000     0.0000     0.0000 </r>
        <r>     6.8223     0.1588     0.0426     0.0426     0.0426     0.0000     0.0000     0.0000     0.0000     0.0000 </r>
        <r>     6.9050     0.1038     0.0303     0.0303     0.0303     0.0000     0.0000     0.0000     0.0000     0.0000 </r>
        <r>     6.9877     0.0802     0.0254     0.0254     0.0254     0.0000     0.0000     0.0000     0.0000     0.0000 </r>
        <r>     7.0705     0.0690     0.0233     0.0233     0.0233     0.0000     0.0000     0.0000     0.0000     0.0000 </r>
        <r>     7.1532     0.0613     0.0220     0.0220     0.0220     0.0000     0.0000     0.0000     0.0000     0.0000 </r>
        <r>     7.2359     0.0554     0.0212     0.0212     0.0212     0.0000     0.0000     0.0000     0.0000     0.0000 </r>
        <r>     7.3186     0.0500     0.0205     0.0205     0.0205     0.0000     0.0000     0.0000     0.0000     0.0000 </r>
        <r>     7.4014     0.0446     0.0200     0.0200     0.0200     0.0000     0.0000     0.0000     0.0000     0.0000 </r>
        <r>     7.4841     0.0429     0.0202     0.0202     0.0202     0.0000     0.0000     0.0000     0.0000     0.0000 </r>
        <r>     7.5668     0.0420     0.0205     0.0205     0.0205     0.0000     0.0000     0.0000     0.0000     0.0000 </r>
        <r>     7.6495     0.0341     0.0194     0.0194     0.0194     0.0000     0.0000     0.0000     0.0000     0.0000 </r>
        <r>     7.7322     0.0345     0.0199     0.0199     0.0199     0.0000     0.0000     0.0000     0.0000     0.0000 </r>
        <r>     7.8150     0.0348     0.0207     0.0207     0.0207     0.0000     0.0000     0.0000     0.0000     0.0000 </r>
        <r>     7.8977     0.0262     0.0201     0.0201     0.0201     0.0000     0.0000     0.0000     0.0000     0.0000 </r>
        <r>     7.9804     0.0342     0.0231     0.0231     0.0231     0.0000     0.0000     0.0000     0.0000     0.0000 </r>
        <r>     8.0631     0.0219     0.0215     0.0215     0.0215     0.0000     0.0000     0.0000     0.0000     0.0000 </r>
        <r>     8.1459     0.0300     0.0242     0.0242     0.0242     0.0000     0.0000     0.0000     0.0000     0.0000 </r>
        <r>     8.2286     0.0190     0.0231     0.0231     0.0231     0.0000     0.0000     0.0000     0.0000     0.0000 </r>
        <r>     8.3113     0.0268     0.0269     0.0269     0.0269     0.0000     0.0000     0.0000     0.0000     0.0000 </r>
        <r>     8.3940     0.0159     0.0271     0.0271     0.0271     0.0000     0.0000     0.0000     0.0000     0.0000 </r>
        <r>     8.4768     0.0250     0.0329     0.0329     0.0329     0.0000     0.0000     0.0000     0.0000     0.0000 </r>
        <r>     8.5595     0.0114     0.0354     0.0354     0.0354     0.0000     0.0000     0.0000     0.0000     0.0000 </r>
        <r>     8.6422     0.0235     0.0520     0.0520     0.0520     0.0000     0.0000     0.0000     0.0000     0.0000 </r>
        <r>     8.7249     0.0061     0.1399     0.1399     0.1399     0.0000     0.0000     0.0000     0.0000     0.0000 </r>
        <r>     8.8077     0.0191     0.1454     0.1454     0.1454     0.0000     0.0000     0.0000     0.0000     0.0000 </r>
        <r>     8.8904     0.0053     0.0654     0.0654     0.0654     0.0000     0.0000     0.0000     0.0000     0.0000 </r>
        <r>     8.9731     0.0141     0.0515     0.0515     0.0515     0.0000     0.0000     0.0000     0.0000     0.0000 </r>
        <r>     9.0558     0.0115     0.0396     0.0396     0.0396     0.0000     0.0000     0.0000     0.0000     0.0000 </r>
        <r>     9.1386     0.0060     0.0505     0.0505     0.0505     0.0000     0.0000     0.0000     0.0000     0.0000 </r>
        <r>     9.2213     0.0194     0.0307     0.0307     0.0307     0.0000     0.0000     0.0000     0.0000     0.0000 </r>
        <r>     9.3040     0.0025     0.0443     0.0443     0.0443     0.0000     0.0000     0.0000     0.0000     0.0000 </r>
        <r>     9.3867     0.0185     0.0289     0.0289     0.0289     0.0000     0.0000     0.0000     0.0000     0.0000 </r>
        <r>     9.4694     0.0085     0.0435     0.0435     0.0435     0.0000     0.0000     0.0000     0.0000     0.0000 </r>
        <r>     9.5522     0.0076     0.0216     0.0216     0.0216     0.0000     0.0000     0.0000     0.0000     0.0000 </r>
        <r>     9.6349     0.0208     0.0501     0.0501     0.0501     0.0000     0.0000     0.0000     0.0000     0.0000 </r>
        <r>     9.7176     0.0023     0.0126     0.0126     0.0126     0.0000     0.0000     0.0000     0.0000     0.0000 </r>
        <r>     9.8003     0.0271     0.0550     0.0550     0.0550     0.0000     0.0000     0.0000     0.0000     0.0000 </r>
        <r>     9.8831     0.2442     0.0120     0.0120     0.0120     0.0000     0.0000     0.0000     0.0000     0.0000 </r>
        <r>     9.9658     0.3595     0.0477     0.0477     0.0477     0.0000     0.0000     0.0000     0.0000     0.0000 </r>
        <r>    10.0485     0.2250     0.0278     0.0278     0.0278     0.0000     0.0000     0.0000     0.0000     0.0000 </r>
        <r>    10.1312     0.1415     0.0273     0.0273     0.0273     0.0000     0.0000     0.0000     0.0000     0.0000 </r>
        <r>    10.2140     0.1531     0.0500     0.0500     0.0500     0.0000     0.0000     0.0000     0.0000     0.0000 </r>
        <r>    10.2967     0.1543     0.0144     0.0144     0.0144     0.0000     0.0000     0.0000     0.0000     0.0000 </r>
        <r>    10.3794     0.0963     0.0565     0.0565     0.0565     0.0000     0.0000     0.0000     0.0000     0.0000 </r>
        <r>    10.4621     0.1644     0.0251     0.0251     0.0251     0.0000     0.0000     0.0000     0.0000     0.0000 </r>
        <r>    10.5449     0.1082     0.0335     0.0335     0.0335     0.0000     0.0000     0.0000     0.0000     0.0000 </r>
        <r>    10.6276     0.1471     0.0553     0.0553     0.0553     0.0000     0.0000     0.0000     0.0000     0.0000 </r>
        <r>    10.7103     0.1767     0.0226     0.0226     0.0226     0.0000     0.0000     0.0000     0.0000     0.0000 </r>
        <r>    10.7930     0.2441     0.0750     0.0750     0.0750     0.0000     0.0000     0.0000     0.0000     0.0000 </r>
        <r>    10.8758     0.1554     0.0359     0.0359     0.0359     0.0000     0.0000     0.0000     0.0000     0.0000 </r>
        <r>    10.9585     0.0047     0.0144     0.0144     0.0144     0.0000     0.0000     0.0000     0.0000     0.0000 </r>
        <r>    11.0412     0.0000     0.0492     0.0492     0.0492     0.0000     0.0000     0.0000     0.0000     0.0000 </r>
        <r>    11.1239     0.0000     0.0049     0.0049     0.0049     0.0000     0.0000     0.0000     0.0000     0.0000 </r>
        <r>    11.2066     0.0000     0.0313     0.0313     0.0313     0.0000     0.0000     0.0000     0.0000     0.0000 </r>
        <r>    11.2894     0.0000     0.0349     0.0349     0.0349     0.0000     0.0000     0.0000     0.0000     0.0000 </r>
        <r>    11.3721     0.0000     0.0037     0.0037     0.0037     0.0000     0.0000     0.0000     0.0000     0.0000 </r>
        <r>    11.4548     0.0000     0.0465     0.0465     0.0465     0.0000     0.0000     0.0000     0.0000     0.0000 </r>
        <r>    11.5375     0.0000     0.0180     0.0180     0.0180     0.0000     0.0000     0.0000     0.0000     0.0000 </r>
        <r>    11.6203     0.0000     0.0088     0.0088     0.0088     0.0000     0.0000     0.0000     0.0000     0.0000 </r>
        <r>    11.7030     0.0000     0.0512     0.0512     0.0512     0.0000     0.0000     0.0000     0.0000     0.0000 </r>
        <r>    11.7857     0.0000     0.0078     0.0078     0.0078     0.0000     0.0000     0.0000     0.0000     0.0000 </r>
        <r>    11.8684     0.0000     0.0185     0.0185     0.0185     0.0000     0.0000     0.0000     0.0000     0.0000 </r>
        <r>    11.9512     0.0000     0.0461     0.0461     0.0461     0.0000     0.0000     0.0000     0.0000     0.0000 </r>
        <r>    12.0339     0.0000     0.0032     0.0032     0.0032     0.0000     0.0000     0.0000     0.0000     0.0000 </r>
        <r>    12.1166     0.0000     0.0300     0.0300     0.0300     0.0000     0.0000     0.0000     0.0000     0.0000 </r>
        <r>    12.1993     0.0000     0.0359     0.0359     0.0359     0.0000     0.0000     0.0000     0.0000     0.0000 </r>
        <r>    12.2821     0.0000     0.0023     0.0023     0.0023     0.0000     0.0000     0.0000     0.0000     0.0000 </r>
        <r>    12.3648     0.0000     0.0401     0.0401     0.0401     0.0000     0.0000     0.0000     0.0000     0.0000 </r>
        <r>    12.4475     0.0000     0.0254     0.0254     0.0254     0.0000     0.0000     0.0000     0.0000     0.0000 </r>
        <r>    12.5302     0.0000     0.0034     0.0034     0.0034     0.0000     0.0000     0.0000     0.0000     0.0000 </r>
        <r>    12.6130     0.0000     0.0469     0.0469     0.0469     0.0000     0.0000     0.0000     0.0000     0.0000 </r>
        <r>    12.6957     0.0000     0.0168     0.0168     0.0168     0.0000     0.0000     0.0000     0.0000     0.0000 </r>
        <r>    12.7784     0.0000     0.0061     0.0061     0.0061     0.0000     0.0000     0.0000     0.0000     0.0000 </r>
        <r>    12.8611     0.0000     0.0501     0.0501     0.0501     0.0000     0.0000     0.0000     0.0000     0.0000 </r>
        <r>    12.9438     0.0000     0.0106     0.0106     0.0106     0.0000     0.0000     0.0000     0.0000     0.0000 </r>
        <r>    13.0266     0.0000     0.0095     0.0095     0.0095     0.0000     0.0000     0.0000     0.0000     0.0000 </r>
        <r>    13.1093     0.0000     0.0503     0.0503     0.0503     0.0000     0.0000     0.0000     0.0000     0.0000 </r>
        <r>    13.1920     0.0000     0.0068     0.0068     0.0068     0.0000     0.0000     0.0000     0.0000     0.0000 </r>
        <r>    13.2747     0.0000     0.0128     0.0128     0.0128     0.0000     0.0000     0.0000     0.0000     0.0000 </r>
        <r>    13.3575     0.0000     0.0488     0.0488     0.0488     0.0000     0.0000     0.0000     0.0000     0.0000 </r>
        <r>    13.4402     0.0000     0.0047     0.0047     0.0047     0.0000     0.0000     0.0000     0.0000     0.0000 </r>
        <r>    13.5229     0.0000     0.0163     0.0163     0.0163     0.0000     0.0000     0.0000     0.0000     0.0000 </r>
        <r>    13.6056     0.0000     0.0465     0.0465     0.0465     0.0000     0.0000     0.0000     0.0000     0.0000 </r>
        <r>    13.6884     0.0000     0.0033     0.0033     0.0033     0.0000     0.0000     0.0000     0.0000     0.0000 </r>
        <r>    13.7711     0.0000     0.0192     0.0192     0.0192     0.0000     0.0000     0.0000     0.0000     0.0000 </r>
        <r>    13.8538     0.0000     0.0442     0.0442     0.0442     0.0000     0.0000     0.0000     0.0000     0.0000 </r>
        <r>    13.9365     0.0000     0.0026     0.0026     0.0026     0.0000     0.0000     0.0000     0.0000     0.0000 </r>
        <r>    14.0193     0.0000     0.0214     0.0214     0.0214     0.0000     0.0000     0.0000     0.0000     0.0000 </r>
        <r>    14.1020     0.0000     0.0422     0.0422     0.0422     0.0000     0.0000     0.0000     0.0000     0.0000 </r>
        <r>    14.1847     0.0000     0.0021     0.0021     0.0021     0.0000     0.0000     0.0000     0.0000     0.0000 </r>
        <r>    14.2674     0.0000     0.0228     0.0228     0.0228     0.0000     0.0000     0.0000     0.0000     0.0000 </r>
        <r>    14.3502     0.0000     0.0409     0.0409     0.0409     0.0000     0.0000     0.0000     0.0000     0.0000 </r>
        <r>    14.4329     0.0000     0.0019     0.0019     0.0019     0.0000     0.0000     0.0000     0.0000     0.0000 </r>
        <r>    14.5156     0.0000     0.0226     0.0226     0.0226     0.0000     0.0000     0.0000     0.0000     0.0000 </r>
        <r>    14.5983     0.0000     0.0410     0.0410     0.0410     0.0000     0.0000     0.0000     0.0000     0.0000 </r>
        <r>    14.6810     0.0000     0.0019     0.0019     0.0019     0.0000     0.0000     0.0000     0.0000     0.0000 </r>
        <r>    14.7638     0.0000     0.0225     0.0225     0.0225     0.0000     0.0000     0.0000     0.0000     0.0000 </r>
        <r>    14.8465     0.0000     0.0411     0.0411     0.0411     0.0000     0.0000     0.0000     0.0000     0.0000 </r>
        <r>    14.9292     0.0000     0.0019     0.0019     0.0019     0.0000     0.0000     0.0000     0.0000     0.0000 </r>
        <r>    15.0119     0.0000     0.0218     0.0218     0.0218     0.0000     0.0000     0.0000     0.0000     0.0000 </r>
        <r>    15.0947     0.0000     0.0419     0.0419     0.0419     0.0000     0.0000     0.0000     0.0000     0.0000 </r>
        <r>    15.1774     0.0000     0.0020     0.0020     0.0020     0.0000     0.0000     0.0000     0.0000     0.0000 </r>
        <r>    15.2601     0.0000     0.0210     0.0210     0.0210     0.0000     0.0000     0.0000     0.0000     0.0000 </r>
        <r>    15.3428     0.0000     0.0430     0.0430     0.0430     0.0000     0.0000     0.0000     0.0000     0.0000 </r>
        <r>    15.4256     0.0000     0.0022     0.0022     0.0022     0.0000     0.0000     0.0000     0.0000     0.0000 </r>
        <r>    15.5083     0.0000     0.0202     0.0202     0.0202     0.0000     0.0000     0.0000     0.0000     0.0000 </r>
        <r>    15.5910     0.0000     0.0447     0.0447     0.0447     0.0000     0.0000     0.0000     0.0000     0.0000 </r>
        <r>    15.6737     0.0000     0.0025     0.0025     0.0025     0.0000     0.0000     0.0000     0.0000     0.0000 </r>
        <r>    15.7565     0.0000     0.0211     0.0211     0.0211     0.0000     0.0000     0.0000     0.0000     0.0000 </r>
        <r>    15.8392     0.0000     0.0455     0.0455     0.0455     0.0000     0.0000     0.0000     0.0000     0.0000 </r>
        <r>    15.9219     0.0000     0.0026     0.0026     0.0026     0.0000     0.0000     0.0000     0.0000     0.0000 </r>
        <r>    16.0046     0.0000     0.0270     0.0270     0.0270     0.0000     0.0000     0.0000     0.0000     0.0000 </r>
        <r>    16.0874     0.0000     0.0434     0.0434     0.0434     0.0000     0.0000     0.0000     0.0000     0.0000 </r>
        <r>    16.1701     0.0000     0.0028     0.0028     0.0028     0.0000     0.0000     0.0000     0.0000     0.0000 </r>
        <r>    16.2528     0.0000     0.0441     0.0441     0.0441     0.0000     0.0000     0.0000     0.0000     0.0000 </r>
        <r>    16.3355     0.0000     0.0326     0.0326     0.0326     0.0000     0.0000     0.0000     0.0000     0.0000 </r>
        <r>    16.4182     0.0000     0.0234     0.0234     0.0234     0.0000     0.0000     0.0000     0.0000     0.0000 </r>
        <r>    16.5010     0.0000     0.0818     0.0818     0.0818     0.0000     0.0000     0.0000     0.0000     0.0000 </r>
        <r>    16.5837     0.0000     0.0745     0.0745     0.0745     0.0000     0.0000     0.0000     0.0000     0.0000 </r>
        <r>    16.6664     0.0000     0.0062     0.0062     0.0062     0.0000     0.0000     0.0000     0.0000     0.0000 </r>
        <r>    16.7491     0.0000     0.0000     0.0000     0.0000     0.0000     0.0000     0.0000     0.0000     0.0000 </r>
        <r>    16.8319     0.0000     0.0000     0.0000     0.0000     0.0000     0.0000     0.0000     0.0000     0.0000 </r>
        <r>    16.9146     0.0000     0.0000     0.0000     0.0000     0.0000     0.0000     0.0000     0.0000     0.0000 </r>
        <r>    16.9973     0.0000     0.0000     0.0000     0.0000     0.0000     0.0000     0.0000     0.0000     0.0000 </r>
        <r>    17.0800     0.0000     0.0000     0.0000     0.0000     0.0000     0.0000     0.0000     0.0000     0.0000 </r>
        <r>    17.1628     0.0000     0.0000     0.0000     0.0000     0.0000     0.0000     0.0000     0.0000     0.0000 </r>
        <r>    17.2455     0.0000     0.0000     0.0000     0.0000     0.0000     0.0000     0.0000     0.0000     0.0000 </r>
        <r>    17.3282     0.0000     0.0000     0.0000     0.0000     0.0000     0.0000     0.0000     0.0000     0.0000 </r>
        <r>    17.4109     0.0000     0.0000     0.0000     0.0000     0.0000     0.0000     0.0000     0.0000     0.0000 </r>
        <r>    17.4937     0.0000     0.0000     0.0000     0.0000     0.0000     0.0000     0.0000     0.0000     0.0000 </r>
        <r>    17.5764     0.0000     0.0000     0.0000     0.0000     0.0000     0.0000     0.0000     0.0000     0.0000 </r>
        <r>    17.6591     0.0000     0.0000     0.0000     0.0000     0.0000     0.0000     0.0000     0.0000     0.0000 </r>
       </set>
      </set>
     </set>
    </array>
   </partial>
  </dos>
  <projected>
   <eigenvalues>
    <array>
     <dimension dim="1">band</dimension>
     <dimension dim="2">kpoint</dimension>
     <dimension dim="3">spin</dimension>
     <field>eigene</field>
     <field>occ</field>
     <set>
      <set comment="spin 1">
       <set comment="kpoint 1">
        <r>   -1.7728    1.0000 </r>
        <r>   -1.7728    1.0000 </r>
        <r>    3.2106    1.0000 </r>
        <r>    3.2106    1.0000 </r>
        <r>    6.7914    0.0000 </r>
        <r>    6.7914    0.0000 </r>
        <r>   16.5288    0.0000 </r>
        <r>   16.5311    0.0000 </r>
       </set>
       <set comment="kpoint 2">
        <r>   -1.9749    1.0000 </r>
        <r>   -1.5672    1.0000 </r>
        <r>    3.2132    1.0000 </r>
        <r>    3.2132    1.0000 </r>
        <r>    6.7500    0.0000 </r>
        <r>    6.8407    0.0000 </r>
        <r>   16.4403    0.0000 </r>
        <r>   16.4418    0.0000 </r>
       </set>
       <set comment="kpoint 3">
        <r>   -2.1734    1.0000 </r>
        <r>   -1.3583    1.0000 </r>
        <r>    3.2212    1.0000 </r>
        <r>    3.2212    1.0000 </r>
        <r>    6.7163    0.0000 </r>
        <r>    6.8980    0.0000 </r>
        <r>   16.2455    0.0000 </r>
        <r>   16.2460    0.0000 </r>
       </set>
       <set comment="kpoint 4">
        <r>   -2.3680    1.0000 </r>
        <r>   -1.1462    1.0000 </r>
        <r>    3.2345    1.0000 </r>
        <r>    3.2345    1.0000 </r>
        <r>    6.6905    0.0000 </r>
        <r>    6.9636    0.0000 </r>
        <r>   16.0156    0.0000 </r>
        <r>   16.0156    0.0000 </r>
       </set>
       <set comment="kpoint 5">
        <r>   -2.5585    1.0000 </r>
        <r>   -0.9310    1.0000 </r>
        <r>    3.2531    1.0000 </r>
        <r>    3.2531    1.0000 </r>
        <r>    6.6731    0.0000 </r>
        <r>    7.0376    0.0000 </r>
        <r>   15.7742    0.0000 </r>
        <r>   15.7742    0.0000 </r>
       </set>
       <set comment="kpoint 6">
        <r>   -2.7450    1.0000 </r>
        <r>   -0.7131    1.0000 </r>
        <r>    3.2770    1.0000 </r>
        <r>    3.2770    1.0000 </r>
        <r>    6.6623    0.0000 </r>
        <r>    7.1199    0.0000 </r>
        <r>   15.5267    0.0000 </r>
        <r>   15.5267    0.0000 </r>
       </set>
       <set comment="kpoint 7">
        <r>   -2.9272    1.0000 </r>
        <r>   -0.4926    1.0000 </r>
        <r>    3.3062    1.0000 </r>
        <r>    3.3062    1.0000 </r>
        <r>    6.6587    0.0000 </r>
        <r>    7.2107    0.0000 </r>
        <r>   15.2767    0.0000 </r>
        <r>   15.2767    0.0000 </r>
       </set>
       <set comment="kpoint 8">
        <r>   -3.1051    1.0000 </r>
        <r>   -0.2697    1.0000 </r>
        <r>    3.3406    1.0000 </r>
        <r>    3.3406    1.0000 </r>
        <r>    6.6624    0.0000 </r>
        <r>    7.3101    0.0000 </r>
        <r>   15.0270    0.0000 </r>
        <r>   15.0271    0.0000 </r>
       </set>
       <set comment="kpoint 9">
        <r>   -3.2785    1.0000 </r>
        <r>   -0.0446    1.0000 </r>
        <r>    3.3802    1.0000 </r>
        <r>    3.3802    1.0000 </r>
        <r>    6.6730    0.0000 </r>
        <r>    7.4181    0.0000 </r>
        <r>   14.7777    0.0000 </r>
        <r>   14.7778    0.0000 </r>
       </set>
       <set comment="kpoint 10">
        <r>   -3.4472    1.0000 </r>
        <r>    0.1825    1.0000 </r>
        <r>    3.4250    1.0000 </r>
        <r>    3.4250    1.0000 </r>
        <r>    6.6906    0.0000 </r>
        <r>    7.5349    0.0000 </r>
        <r>   14.5294    0.0000 </r>
        <r>   14.5294    0.0000 </r>
       </set>
       <set comment="kpoint 11">
        <r>   -3.6113    1.0000 </r>
        <r>    0.4114    1.0000 </r>
        <r>    3.4750    1.0000 </r>
        <r>    3.4750    1.0000 </r>
        <r>    6.7149    0.0000 </r>
        <r>    7.6602    0.0000 </r>
        <r>   14.2810    0.0000 </r>
        <r>   14.2810    0.0000 </r>
       </set>
       <set comment="kpoint 12">
        <r>   -3.7706    1.0000 </r>
        <r>    0.6418    1.0000 </r>
        <r>    3.5301    1.0000 </r>
        <r>    3.5301    1.0000 </r>
        <r>    6.7457    0.0000 </r>
        <r>    7.7944    0.0000 </r>
        <r>   14.0349    0.0000 </r>
        <r>   14.0350    0.0000 </r>
       </set>
       <set comment="kpoint 13">
        <r>   -3.9250    1.0000 </r>
        <r>    0.8735    1.0000 </r>
        <r>    3.5903    1.0000 </r>
        <r>    3.5903    1.0000 </r>
        <r>    6.7827    0.0000 </r>
        <r>    7.9370    0.0000 </r>
        <r>   13.7903    0.0000 </r>
        <r>   13.7904    0.0000 </r>
       </set>
       <set comment="kpoint 14">
        <r>   -4.0744    1.0000 </r>
        <r>    1.1064    1.0000 </r>
        <r>    3.6555    1.0000 </r>
        <r>    3.6555    1.0000 </r>
        <r>    6.8263    0.0000 </r>
        <r>    8.0886    0.0000 </r>
        <r>   13.5470    0.0000 </r>
        <r>   13.5470    0.0000 </r>
       </set>
       <set comment="kpoint 15">
        <r>   -4.2187    1.0000 </r>
        <r>    1.3401    1.0000 </r>
        <r>    3.7256    1.0000 </r>
        <r>    3.7257    1.0000 </r>
        <r>    6.8757    0.0000 </r>
        <r>    8.2486    0.0000 </r>
        <r>   13.3053    0.0000 </r>
        <r>   13.3053    0.0000 </r>
       </set>
       <set comment="kpoint 16">
        <r>   -4.3579    1.0000 </r>
        <r>    1.5745    1.0000 </r>
        <r>    3.8006    1.0000 </r>
        <r>    3.8006    1.0000 </r>
        <r>    6.9309    0.0000 </r>
        <r>    8.4169    0.0000 </r>
        <r>   13.0644    0.0000 </r>
        <r>   13.0644    0.0000 </r>
       </set>
       <set comment="kpoint 17">
        <r>   -4.4919    1.0000 </r>
        <r>    1.8094    1.0000 </r>
        <r>    3.8804    1.0000 </r>
        <r>    3.8804    1.0000 </r>
        <r>    6.9917    0.0000 </r>
        <r>    8.5932    0.0000 </r>
        <r>   12.8257    0.0000 </r>
        <r>   12.8257    0.0000 </r>
       </set>
       <set comment="kpoint 18">
        <r>   -4.6206    1.0000 </r>
        <r>    2.0446    1.0000 </r>
        <r>    3.9649    1.0000 </r>
        <r>    3.9649    1.0000 </r>
        <r>    7.0581    0.0000 </r>
        <r>    8.7773    0.0000 </r>
        <r>   12.5894    0.0000 </r>
        <r>   12.5894    0.0000 </r>
       </set>
       <set comment="kpoint 19">
        <r>   -4.7440    1.0000 </r>
        <r>    2.2797    1.0000 </r>
        <r>    4.0540    1.0000 </r>
        <r>    4.0540    1.0000 </r>
        <r>    7.1293    0.0000 </r>
        <r>    8.9684    0.0000 </r>
        <r>   12.3542    0.0000 </r>
        <r>   12.3542    0.0000 </r>
       </set>
       <set comment="kpoint 20">
        <r>   -4.8620    1.0000 </r>
        <r>    2.5146    1.0000 </r>
        <r>    4.1476    1.0000 </r>
        <r>    4.1476    1.0000 </r>
        <r>    7.2053    0.0000 </r>
        <r>    9.1659    0.0000 </r>
        <r>   12.1208    0.0000 </r>
        <r>   12.1208    0.0000 </r>
       </set>
       <set comment="kpoint 21">
        <r>   -4.9745    1.0000 </r>
        <r>    2.7491    1.0000 </r>
        <r>    4.2455    1.0000 </r>
        <r>    4.2455    1.0000 </r>
        <r>    7.2858    0.0000 </r>
        <r>    9.3688    0.0000 </r>
        <r>   11.8894    0.0000 </r>
        <r>   11.8894    0.0000 </r>
       </set>
       <set comment="kpoint 22">
        <r>   -5.0816    1.0000 </r>
        <r>    2.9829    1.0000 </r>
        <r>    4.3475    1.0000 </r>
        <r>    4.3475    1.0000 </r>
        <r>    7.3703    0.0000 </r>
        <r>    9.5756    0.0000 </r>
        <r>   11.6603    0.0000 </r>
        <r>   11.6603    0.0000 </r>
       </set>
       <set comment="kpoint 23">
        <r>   -5.1832    1.0000 </r>
        <r>    3.2157    1.0000 </r>
        <r>    4.4533    1.0000 </r>
        <r>    4.4533    1.0000 </r>
        <r>    7.4583    0.0000 </r>
        <r>    9.7846    0.0000 </r>
        <r>   11.4330    0.0000 </r>
        <r>   11.4330    0.0000 </r>
       </set>
       <set comment="kpoint 24">
        <r>   -5.2791    1.0000 </r>
        <r>    3.4476    1.0000 </r>
        <r>    4.5629    1.0000 </r>
        <r>    4.5629    1.0000 </r>
        <r>    7.5497    0.0000 </r>
        <r>    9.9947    0.0000 </r>
        <r>   11.2091    0.0000 </r>
        <r>   11.2091    0.0000 </r>
       </set>
       <set comment="kpoint 25">
        <r>   -5.3694    1.0000 </r>
        <r>    3.6774    1.0000 </r>
        <r>    4.6759    1.0000 </r>
        <r>    4.6759    1.0000 </r>
        <r>    7.6436    0.0000 </r>
        <r>   10.1984    0.0000 </r>
        <r>   10.9876    0.0000 </r>
        <r>   10.9876    0.0000 </r>
       </set>
       <set comment="kpoint 26">
        <r>   -5.4540    1.0000 </r>
        <r>    3.9053    1.0000 </r>
        <r>    4.7920    1.0000 </r>
        <r>    4.7920    1.0000 </r>
        <r>    7.7397    0.0000 </r>
        <r>   10.3909    0.0000 </r>
        <r>   10.7702    0.0000 </r>
        <r>   10.7702    0.0000 </r>
       </set>
       <set comment="kpoint 27">
        <r>   -5.5329    1.0000 </r>
        <r>    4.1307    1.0000 </r>
        <r>    4.9107    1.0000 </r>
        <r>    4.9107    1.0000 </r>
        <r>    7.8372    0.0000 </r>
        <r>   10.5566    0.0000 </r>
        <r>   10.5566    0.0000 </r>
        <r>   10.5629    0.0000 </r>
       </set>
       <set comment="kpoint 28">
        <r>   -5.6061    1.0000 </r>
        <r>    4.3529    1.0000 </r>
        <r>    5.0316    1.0000 </r>
        <r>    5.0316    1.0000 </r>
        <r>    7.9352    0.0000 </r>
        <r>   10.3476    0.0000 </r>
        <r>   10.3476    0.0000 </r>
        <r>   10.7009    0.0000 </r>
       </set>
       <set comment="kpoint 29">
        <r>   -5.6736    1.0000 </r>
        <r>    4.5712    1.0000 </r>
        <r>    5.1539    1.0000 </r>
        <r>    5.1539    1.0000 </r>
        <r>    8.0330    0.0000 </r>
        <r>   10.1439    0.0000 </r>
        <r>   10.1439    0.0000 </r>
        <r>   10.7880    0.0000 </r>
       </set>
       <set comment="kpoint 30">
        <r>   -5.7353    1.0000 </r>
        <r>    4.7846    1.0000 </r>
        <r>    5.2770    1.0000 </r>
        <r>    5.2770    1.0000 </r>
        <r>    8.1294    0.0000 </r>
        <r>    9.9461    0.0000 </r>
        <r>    9.9461    0.0000 </r>
        <r>   10.8105    0.0000 </r>
       </set>
       <set comment="kpoint 31">
        <r>   -5.7911    1.0000 </r>
        <r>    4.9918    1.0000 </r>
        <r>    5.3996    1.0000 </r>
        <r>    5.3996    1.0000 </r>
        <r>    8.2232    0.0000 </r>
        <r>    9.7554    0.0000 </r>
        <r>    9.7554    0.0000 </r>
        <r>   10.7678    0.0000 </r>
       </set>
       <set comment="kpoint 32">
        <r>   -5.8412    1.0000 </r>
        <r>    5.1912    1.0000 </r>
        <r>    5.5208    1.0000 </r>
        <r>    5.5208    1.0000 </r>
        <r>    8.3133    0.0000 </r>
        <r>    9.5733    0.0000 </r>
        <r>    9.5733    0.0000 </r>
        <r>   10.6741    0.0000 </r>
       </set>
       <set comment="kpoint 33">
        <r>   -5.8853    1.0000 </r>
        <r>    5.3809    1.0000 </r>
        <r>    5.6388    1.0000 </r>
        <r>    5.6388    1.0000 </r>
        <r>    8.3983    0.0000 </r>
        <r>    9.4014    0.0000 </r>
        <r>    9.4014    0.0000 </r>
        <r>   10.5489    0.0000 </r>
       </set>
       <set comment="kpoint 34">
        <r>   -5.9237    1.0000 </r>
        <r>    5.5580    1.0000 </r>
        <r>    5.7514    1.0000 </r>
        <r>    5.7514    1.0000 </r>
        <r>    8.4764    0.0000 </r>
        <r>    9.2411    0.0000 </r>
        <r>    9.2411    0.0000 </r>
        <r>   10.4096    0.0000 </r>
       </set>
       <set comment="kpoint 35">
        <r>   -5.9562    1.0000 </r>
        <r>    5.7194    1.0000 </r>
        <r>    5.8564    1.0000 </r>
        <r>    5.8564    1.0000 </r>
        <r>    8.5464    0.0000 </r>
        <r>    9.0964    0.0000 </r>
        <r>    9.0964    0.0000 </r>
        <r>   10.2700    0.0000 </r>
       </set>
       <set comment="kpoint 36">
        <r>   -5.9827    1.0000 </r>
        <r>    5.8612    1.0000 </r>
        <r>    5.9504    1.0000 </r>
        <r>    5.9504    1.0000 </r>
        <r>    8.6064    0.0000 </r>
        <r>    8.9698    0.0000 </r>
        <r>    8.9698    0.0000 </r>
        <r>   10.1402    0.0000 </r>
       </set>
       <set comment="kpoint 37">
        <r>   -6.0034    1.0000 </r>
        <r>    5.9789    1.0000 </r>
        <r>    6.0297    1.0000 </r>
        <r>    6.0297    1.0000 </r>
        <r>    8.6551    0.0000 </r>
        <r>    8.8650    0.0000 </r>
        <r>    8.8650    0.0000 </r>
        <r>   10.0289    0.0000 </r>
       </set>
       <set comment="kpoint 38">
        <r>   -6.0182    1.0000 </r>
        <r>    6.0676    1.0000 </r>
        <r>    6.0904    1.0000 </r>
        <r>    6.0904    1.0000 </r>
        <r>    8.6909    0.0000 </r>
        <r>    8.7862    0.0000 </r>
        <r>    8.7862    0.0000 </r>
        <r>    9.9433    0.0000 </r>
       </set>
       <set comment="kpoint 39">
        <r>   -6.0270    1.0000 </r>
        <r>    6.1229    1.0000 </r>
        <r>    6.1287    1.0000 </r>
        <r>    6.1287    1.0000 </r>
        <r>    8.7129    0.0000 </r>
        <r>    8.7370    0.0000 </r>
        <r>    8.7370    0.0000 </r>
        <r>    9.8893    0.0000 </r>
       </set>
       <set comment="kpoint 40">
        <r>   -6.0300    1.0000 </r>
        <r>    6.1418    1.0000 </r>
        <r>    6.1418    1.0000 </r>
        <r>    6.1418    1.0000 </r>
        <r>    8.7203    0.0000 </r>
        <r>    8.7203    0.0000 </r>
        <r>    8.7203    0.0000 </r>
        <r>    9.8708    0.0000 </r>
       </set>
       <set comment="kpoint 41">
        <r>   -6.0300    1.0000 </r>
        <r>    6.1418    1.0000 </r>
        <r>    6.1418    1.0000 </r>
        <r>    6.1418    1.0000 </r>
        <r>    8.7203    0.0000 </r>
        <r>    8.7203    0.0000 </r>
        <r>    8.7203    0.0000 </r>
        <r>    9.8708    0.0000 </r>
       </set>
       <set comment="kpoint 42">
        <r>   -6.0270    1.0000 </r>
        <r>    6.1229    1.0000 </r>
        <r>    6.1287    1.0000 </r>
        <r>    6.1287    1.0000 </r>
        <r>    8.7129    0.0000 </r>
        <r>    8.7370    0.0000 </r>
        <r>    8.7370    0.0000 </r>
        <r>    9.8893    0.0000 </r>
       </set>
       <set comment="kpoint 43">
        <r>   -6.0182    1.0000 </r>
        <r>    6.0676    1.0000 </r>
        <r>    6.0904    1.0000 </r>
        <r>    6.0904    1.0000 </r>
        <r>    8.6909    0.0000 </r>
        <r>    8.7862    0.0000 </r>
        <r>    8.7862    0.0000 </r>
        <r>    9.9433    0.0000 </r>
       </set>
       <set comment="kpoint 44">
        <r>   -6.0034    1.0000 </r>
        <r>    5.9789    1.0000 </r>
        <r>    6.0297    1.0000 </r>
        <r>    6.0297    1.0000 </r>
        <r>    8.6551    0.0000 </r>
        <r>    8.8650    0.0000 </r>
        <r>    8.8650    0.0000 </r>
        <r>   10.0289    0.0000 </r>
       </set>
       <set comment="kpoint 45">
        <r>   -5.9827    1.0000 </r>
        <r>    5.8612    1.0000 </r>
        <r>    5.9504    1.0000 </r>
        <r>    5.9504    1.0000 </r>
        <r>    8.6064    0.0000 </r>
        <r>    8.9698    0.0000 </r>
        <r>    8.9698    0.0000 </r>
        <r>   10.1402    0.0000 </r>
       </set>
       <set comment="kpoint 46">
        <r>   -5.9562    1.0000 </r>
        <r>    5.7194    1.0000 </r>
        <r>    5.8564    1.0000 </r>
        <r>    5.8564    1.0000 </r>
        <r>    8.5464    0.0000 </r>
        <r>    9.0964    0.0000 </r>
        <r>    9.0964    0.0000 </r>
        <r>   10.2700    0.0000 </r>
       </set>
       <set comment="kpoint 47">
        <r>   -5.9237    1.0000 </r>
        <r>    5.5580    1.0000 </r>
        <r>    5.7514    1.0000 </r>
        <r>    5.7514    1.0000 </r>
        <r>    8.4764    0.0000 </r>
        <r>    9.2411    0.0000 </r>
        <r>    9.2411    0.0000 </r>
        <r>   10.4096    0.0000 </r>
       </set>
       <set comment="kpoint 48">
        <r>   -5.8853    1.0000 </r>
        <r>    5.3809    1.0000 </r>
        <r>    5.6388    1.0000 </r>
        <r>    5.6388    1.0000 </r>
        <r>    8.3983    0.0000 </r>
        <r>    9.4014    0.0000 </r>
        <r>    9.4014    0.0000 </r>
        <r>   10.5489    0.0000 </r>
       </set>
       <set comment="kpoint 49">
        <r>   -5.8412    1.0000 </r>
        <r>    5.1912    1.0000 </r>
        <r>    5.5208    1.0000 </r>
        <r>    5.5208    1.0000 </r>
        <r>    8.3133    0.0000 </r>
        <r>    9.5733    0.0000 </r>
        <r>    9.5733    0.0000 </r>
        <r>   10.6741    0.0000 </r>
       </set>
       <set comment="kpoint 50">
        <r>   -5.7911    1.0000 </r>
        <r>    4.9918    1.0000 </r>
        <r>    5.3996    1.0000 </r>
        <r>    5.3996    1.0000 </r>
        <r>    8.2232    0.0000 </r>
        <r>    9.7554    0.0000 </r>
        <r>    9.7554    0.0000 </r>
        <r>   10.7678    0.0000 </r>
       </set>
       <set comment="kpoint 51">
        <r>   -5.7353    1.0000 </r>
        <r>    4.7846    1.0000 </r>
        <r>    5.2770    1.0000 </r>
        <r>    5.2770    1.0000 </r>
        <r>    8.1294    0.0000 </r>
        <r>    9.9461    0.0000 </r>
        <r>    9.9461    0.0000 </r>
        <r>   10.8105    0.0000 </r>
       </set>
       <set comment="kpoint 52">
        <r>   -5.6736    1.0000 </r>
        <r>    4.5712    1.0000 </r>
        <r>    5.1539    1.0000 </r>
        <r>    5.1539    1.0000 </r>
        <r>    8.0330    0.0000 </r>
        <r>   10.1439    0.0000 </r>
        <r>   10.1439    0.0000 </r>
        <r>   10.7880    0.0000 </r>
       </set>
       <set comment="kpoint 53">
        <r>   -5.6061    1.0000 </r>
        <r>    4.3529    1.0000 </r>
        <r>    5.0316    1.0000 </r>
        <r>    5.0316    1.0000 </r>
        <r>    7.9352    0.0000 </r>
        <r>   10.3476    0.0000 </r>
        <r>   10.3476    0.0000 </r>
        <r>   10.7009    0.0000 </r>
       </set>
       <set comment="kpoint 54">
        <r>   -5.5329    1.0000 </r>
        <r>    4.1307    1.0000 </r>
        <r>    4.9107    1.0000 </r>
        <r>    4.9107    1.0000 </r>
        <r>    7.8372    0.0000 </r>
        <r>   10.5566    0.0000 </r>
        <r>   10.5566    0.0000 </r>
        <r>   10.5629    0.0000 </r>
       </set>
       <set comment="kpoint 55">
        <r>   -5.4540    1.0000 </r>
        <r>    3.9053    1.0000 </r>
        <r>    4.7920    1.0000 </r>
        <r>    4.7920    1.0000 </r>
        <r>    7.7397    0.0000 </r>
        <r>   10.3909    0.0000 </r>
        <r>   10.7702    0.0000 </r>
        <r>   10.7702    0.0000 </r>
       </set>
       <set comment="kpoint 56">
        <r>   -5.3694    1.0000 </r>
        <r>    3.6774    1.0000 </r>
        <r>    4.6759    1.0000 </r>
        <r>    4.6759    1.0000 </r>
        <r>    7.6436    0.0000 </r>
        <r>   10.1984    0.0000 </r>
        <r>   10.9876    0.0000 </r>
        <r>   10.9876    0.0000 </r>
       </set>
       <set comment="kpoint 57">
        <r>   -5.2791    1.0000 </r>
        <r>    3.4476    1.0000 </r>
        <r>    4.5629    1.0000 </r>
        <r>    4.5629    1.0000 </r>
        <r>    7.5497    0.0000 </r>
        <r>    9.9947    0.0000 </r>
        <r>   11.2091    0.0000 </r>
        <r>   11.2091    0.0000 </r>
       </set>
       <set comment="kpoint 58">
        <r>   -5.1832    1.0000 </r>
        <r>    3.2157    1.0000 </r>
        <r>    4.4533    1.0000 </r>
        <r>    4.4533    1.0000 </r>
        <r>    7.4583    0.0000 </r>
        <r>    9.7846    0.0000 </r>
        <r>   11.4330    0.0000 </r>
        <r>   11.4330    0.0000 </r>
       </set>
       <set comment="kpoint 59">
        <r>   -5.0816    1.0000 </r>
        <r>    2.9829    1.0000 </r>
        <r>    4.3475    1.0000 </r>
        <r>    4.3475    1.0000 </r>
        <r>    7.3703    0.0000 </r>
        <r>    9.5756    0.0000 </r>
        <r>   11.6603    0.0000 </r>
        <r>   11.6603    0.0000 </r>
       </set>
       <set comment="kpoint 60">
        <r>   -4.9745    1.0000 </r>
        <r>    2.7491    1.0000 </r>
        <r>    4.2455    1.0000 </r>
        <r>    4.2455    1.0000 </r>
        <r>    7.2858    0.0000 </r>
        <r>    9.3688    0.0000 </r>
        <r>   11.8894    0.0000 </r>
        <r>   11.8895    0.0000 </r>
       </set>
       <set comment="kpoint 61">
        <r>   -4.8620    1.0000 </r>
        <r>    2.5146    1.0000 </r>
        <r>    4.1476    1.0000 </r>
        <r>    4.1476    1.0000 </r>
        <r>    7.2053    0.0000 </r>
        <r>    9.1659    0.0000 </r>
        <r>   12.1208    0.0000 </r>
        <r>   12.1208    0.0000 </r>
       </set>
       <set comment="kpoint 62">
        <r>   -4.7440    1.0000 </r>
        <r>    2.2797    1.0000 </r>
        <r>    4.0540    1.0000 </r>
        <r>    4.0540    1.0000 </r>
        <r>    7.1293    0.0000 </r>
        <r>    8.9684    0.0000 </r>
        <r>   12.3542    0.0000 </r>
        <r>   12.3542    0.0000 </r>
       </set>
       <set comment="kpoint 63">
        <r>   -4.6206    1.0000 </r>
        <r>    2.0446    1.0000 </r>
        <r>    3.9649    1.0000 </r>
        <r>    3.9649    1.0000 </r>
        <r>    7.0581    0.0000 </r>
        <r>    8.7773    0.0000 </r>
        <r>   12.5894    0.0000 </r>
        <r>   12.5894    0.0000 </r>
       </set>
       <set comment="kpoint 64">
        <r>   -4.4919    1.0000 </r>
        <r>    1.8094    1.0000 </r>
        <r>    3.8804    1.0000 </r>
        <r>    3.8804    1.0000 </r>
        <r>    6.9917    0.0000 </r>
        <r>    8.5932    0.0000 </r>
        <r>   12.8257    0.0000 </r>
        <r>   12.8258    0.0000 </r>
       </set>
       <set comment="kpoint 65">
        <r>   -4.3579    1.0000 </r>
        <r>    1.5745    1.0000 </r>
        <r>    3.8006    1.0000 </r>
        <r>    3.8006    1.0000 </r>
        <r>    6.9309    0.0000 </r>
        <r>    8.4169    0.0000 </r>
        <r>   13.0644    0.0000 </r>
        <r>   13.0644    0.0000 </r>
       </set>
       <set comment="kpoint 66">
        <r>   -4.2187    1.0000 </r>
        <r>    1.3401    1.0000 </r>
        <r>    3.7256    1.0000 </r>
        <r>    3.7257    1.0000 </r>
        <r>    6.8757    0.0000 </r>
        <r>    8.2486    0.0000 </r>
        <r>   13.3053    0.0000 </r>
        <r>   13.3053    0.0000 </r>
       </set>
       <set comment="kpoint 67">
        <r>   -4.0744    1.0000 </r>
        <r>    1.1064    1.0000 </r>
        <r>    3.6555    1.0000 </r>
        <r>    3.6555    1.0000 </r>
        <r>    6.8263    0.0000 </r>
        <r>    8.0886    0.0000 </r>
        <r>   13.5470    0.0000 </r>
        <r>   13.5470    0.0000 </r>
       </set>
       <set comment="kpoint 68">
        <r>   -3.9250    1.0000 </r>
        <r>    0.8735    1.0000 </r>
        <r>    3.5903    1.0000 </r>
        <r>    3.5903    1.0000 </r>
        <r>    6.7827    0.0000 </r>
        <r>    7.9370    0.0000 </r>
        <r>   13.7903    0.0000 </r>
        <r>   13.7903    0.0000 </r>
       </set>
       <set comment="kpoint 69">
        <r>   -3.7706    1.0000 </r>
        <r>    0.6418    1.0000 </r>
        <r>    3.5301    1.0000 </r>
        <r>    3.5301    1.0000 </r>
        <r>    6.7457    0.0000 </r>
        <r>    7.7944    0.0000 </r>
        <r>   14.0349    0.0000 </r>
        <r>   14.0349    0.0000 </r>
       </set>
       <set comment="kpoint 70">
        <r>   -3.6113    1.0000 </r>
        <r>    0.4114    1.0000 </r>
        <r>    3.4750    1.0000 </r>
        <r>    3.4750    1.0000 </r>
        <r>    6.7149    0.0000 </r>
        <r>    7.6602    0.0000 </r>
        <r>   14.2810    0.0000 </r>
        <r>   14.2810    0.0000 </r>
       </set>
       <set comment="kpoint 71">
        <r>   -3.4472    1.0000 </r>
        <r>    0.1825    1.0000 </r>
        <r>    3.4250    1.0000 </r>
        <r>    3.4250    1.0000 </r>
        <r>    6.6906    0.0000 </r>
        <r>    7.5349    0.0000 </r>
        <r>   14.5293    0.0000 </r>
        <r>   14.5294    0.0000 </r>
       </set>
       <set comment="kpoint 72">
        <r>   -3.2785    1.0000 </r>
        <r>   -0.0446    1.0000 </r>
        <r>    3.3802    1.0000 </r>
        <r>    3.3802    1.0000 </r>
        <r>    6.6730    0.0000 </r>
        <r>    7.4181    0.0000 </r>
        <r>   14.7777    0.0000 </r>
        <r>   14.7778    0.0000 </r>
       </set>
       <set comment="kpoint 73">
        <r>   -3.1051    1.0000 </r>
        <r>   -0.2697    1.0000 </r>
        <r>    3.3406    1.0000 </r>
        <r>    3.3406    1.0000 </r>
        <r>    6.6624    0.0000 </r>
        <r>    7.3101    0.0000 </r>
        <r>   15.0270    0.0000 </r>
        <r>   15.0270    0.0000 </r>
       </set>
       <set comment="kpoint 74">
        <r>   -2.9272    1.0000 </r>
        <r>   -0.4926    1.0000 </r>
        <r>    3.3062    1.0000 </r>
        <r>    3.3062    1.0000 </r>
        <r>    6.6587    0.0000 </r>
        <r>    7.2107    0.0000 </r>
        <r>   15.2767    0.0000 </r>
        <r>   15.2767    0.0000 </r>
       </set>
       <set comment="kpoint 75">
        <r>   -2.7450    1.0000 </r>
        <r>   -0.7131    1.0000 </r>
        <r>    3.2770    1.0000 </r>
        <r>    3.2770    1.0000 </r>
        <r>    6.6623    0.0000 </r>
        <r>    7.1199    0.0000 </r>
        <r>   15.5267    0.0000 </r>
        <r>   15.5267    0.0000 </r>
       </set>
       <set comment="kpoint 76">
        <r>   -2.5585    1.0000 </r>
        <r>   -0.9310    1.0000 </r>
        <r>    3.2531    1.0000 </r>
        <r>    3.2531    1.0000 </r>
        <r>    6.6731    0.0000 </r>
        <r>    7.0376    0.0000 </r>
        <r>   15.7742    0.0000 </r>
        <r>   15.7742    0.0000 </r>
       </set>
       <set comment="kpoint 77">
        <r>   -2.3680    1.0000 </r>
        <r>   -1.1462    1.0000 </r>
        <r>    3.2345    1.0000 </r>
        <r>    3.2345    1.0000 </r>
        <r>    6.6905    0.0000 </r>
        <r>    6.9636    0.0000 </r>
        <r>   16.0156    0.0000 </r>
        <r>   16.0156    0.0000 </r>
       </set>
       <set comment="kpoint 78">
        <r>   -2.1734    1.0000 </r>
        <r>   -1.3583    1.0000 </r>
        <r>    3.2212    1.0000 </r>
        <r>    3.2212    1.0000 </r>
        <r>    6.7163    0.0000 </r>
        <r>    6.8980    0.0000 </r>
        <r>   16.2455    0.0000 </r>
        <r>   16.2458    0.0000 </r>
       </set>
       <set comment="kpoint 79">
        <r>   -1.9749    1.0000 </r>
        <r>   -1.5672    1.0000 </r>
        <r>    3.2132    1.0000 </r>
        <r>    3.2132    1.0000 </r>
        <r>    6.7500    0.0000 </r>
        <r>    6.8407    0.0000 </r>
        <r>   16.4407    0.0000 </r>
        <r>   16.4415    0.0000 </r>
       </set>
       <set comment="kpoint 80">
        <r>   -1.7728    1.0000 </r>
        <r>   -1.7728    1.0000 </r>
        <r>    3.2106    1.0000 </r>
        <r>    3.2106    1.0000 </r>
        <r>    6.7914    0.0000 </r>
        <r>    6.7914    0.0000 </r>
        <r>   16.5285    0.0000 </r>
        <r>   16.5309    0.0000 </r>
       </set>
      </set>
     </set>
    </array>
   </eigenvalues>
   <array>
    <dimension dim="1">ion</dimension>
    <dimension dim="2">band</dimension>
    <dimension dim="3">kpoint</dimension>
    <dimension dim="4">spin</dimension>
    <field>    s</field>
    <field>   py</field>
    <field>   pz</field>
    <field>   px</field>
    <field>  dxy</field>
    <field>  dyz</field>
    <field>  dz2</field>
    <field>  dxz</field>
    <field>x2-y2</field>
    <set>
     <set comment="spin1">
      <set comment="kpoint 1">
       <set comment="band 1">
        <r>  0.1974  0.0000  0.0000  0.0469  0.0000  0.0000  0.0000  0.0000  0.0000 </r>
        <r>  0.1894  0.0000  0.0000  0.0489  0.0000  0.0000  0.0000  0.0000  0.0000 </r>
       </set>
       <set comment="band 2">
        <r>  0.1894  0.0000  0.0000  0.0489  0.0000  0.0000  0.0000  0.0000  0.0000 </r>
        <r>  0.1974  0.0000  0.0000  0.0469  0.0000  0.0000  0.0000  0.0000  0.0000 </r>
       </set>
       <set comment="band 3">
        <r>  0.0000  0.1009  0.1009  0.0000  0.0000  0.0000  0.0000  0.0000  0.0000 </r>
        <r>  0.0000  0.1009  0.1009  0.0000  0.0000  0.0000  0.0000  0.0000  0.0000 </r>
       </set>
       <set comment="band 4">
        <r>  0.0000  0.1009  0.1009  0.0000  0.0000  0.0000  0.0000  0.0000  0.0000 </r>
        <r>  0.0000  0.1009  0.1009  0.0000  0.0000  0.0000  0.0000  0.0000  0.0000 </r>
       </set>
       <set comment="band 5">
        <r>  0.0530  0.0000  0.0000  0.0331  0.0000  0.0000  0.0000  0.0000  0.0000 </r>
        <r>  0.0523  0.0000  0.0000  0.0336  0.0000  0.0000  0.0000  0.0000  0.0000 </r>
       </set>
       <set comment="band 6">
        <r>  0.0523  0.0000  0.0000  0.0336  0.0000  0.0000  0.0000  0.0000  0.0000 </r>
        <r>  0.0530  0.0000  0.0000  0.0331  0.0000  0.0000  0.0000  0.0000  0.0000 </r>
       </set>
       <set comment="band 7">
        <r>  0.0000  0.1659  0.0743  0.0000  0.0000  0.0000  0.0000  0.0000  0.0000 </r>
        <r>  0.0000  0.0761  0.1645  0.0000  0.0000  0.0000  0.0000  0.0000  0.0000 </r>
       </set>
       <set comment="band 8">
        <r>  0.0000  0.0764  0.1631  0.0000  0.0000  0.0000  0.0000  0.0000  0.0000 </r>
        <r>  0.0000  0.1660  0.0738  0.0000  0.0000  0.0000  0.0000  0.0000  0.0000 </r>
       </set>
      </set>
      <set comment="kpoint 2">
       <set comment="band 1">
        <r>  0.1945  0.0000  0.0000  0.0456  0.0000  0.0000  0.0000  0.0000  0.0000 </r>
        <r>  0.1945  0.0000  0.0000  0.0456  0.0000  0.0000  0.0000  0.0000  0.0000 </r>
       </set>
       <set comment="band 2">
        <r>  0.1923  0.0000  0.0000  0.0503  0.0000  0.0000  0.0000  0.0000  0.0000 </r>
        <r>  0.1923  0.0000  0.0000  0.0503  0.0000  0.0000  0.0000  0.0000  0.0000 </r>
       </set>
       <set comment="band 3">
        <r>  0.0000  0.1009  0.1009  0.0000  0.0000  0.0000  0.0000  0.0000  0.0000 </r>
        <r>  0.0000  0.1009  0.1009  0.0000  0.0000  0.0000  0.0000  0.0000  0.0000 </r>
       </set>
       <set comment="band 4">
        <r>  0.0000  0.1009  0.1009  0.0000  0.0000  0.0000  0.0000  0.0000  0.0000 </r>
        <r>  0.0000  0.1009  0.1009  0.0000  0.0000  0.0000  0.0000  0.0000  0.0000 </r>
       </set>
       <set comment="band 5">
        <r>  0.0532  0.0000  0.0000  0.0345  0.0000  0.0000  0.0000  0.0000  0.0000 </r>
        <r>  0.0532  0.0000  0.0000  0.0345  0.0000  0.0000  0.0000  0.0000  0.0000 </r>
       </set>
       <set comment="band 6">
        <r>  0.0520  0.0000  0.0000  0.0323  0.0000  0.0000  0.0000  0.0000  0.0000 </r>
        <r>  0.0520  0.0000  0.0000  0.0323  0.0000  0.0000  0.0000  0.0000  0.0000 </r>
       </set>
       <set comment="band 7">
        <r>  0.0000  0.1894  0.0300  0.0000  0.0000  0.0000  0.0000  0.0000  0.0000 </r>
        <r>  0.0000  0.0164  0.2026  0.0000  0.0000  0.0000  0.0000  0.0000  0.0000 </r>
       </set>
       <set comment="band 8">
        <r>  0.0000  0.0292  0.1930  0.0000  0.0000  0.0000  0.0000  0.0000  0.0000 </r>
        <r>  0.0000  0.2072  0.0170  0.0000  0.0000  0.0000  0.0000  0.0000  0.0000 </r>
       </set>
      </set>
      <set comment="kpoint 3">
       <set comment="band 1">
        <r>  0.1955  0.0000  0.0000  0.0433  0.0000  0.0000  0.0000  0.0000  0.0000 </r>
        <r>  0.1955  0.0000  0.0000  0.0433  0.0000  0.0000  0.0000  0.0000  0.0000 </r>
       </set>
       <set comment="band 2">
        <r>  0.1911  0.0000  0.0000  0.0527  0.0000  0.0000  0.0000  0.0000  0.0000 </r>
        <r>  0.1911  0.0000  0.0000  0.0527  0.0000  0.0000  0.0000  0.0000  0.0000 </r>
       </set>
       <set comment="band 3">
        <r>  0.0000  0.1009  0.1009  0.0000  0.0000  0.0000  0.0000  0.0000  0.0000 </r>
        <r>  0.0000  0.1009  0.1009  0.0000  0.0000  0.0000  0.0000  0.0000  0.0000 </r>
       </set>
       <set comment="band 4">
        <r>  0.0000  0.1009  0.1009  0.0000  0.0000  0.0000  0.0000  0.0000  0.0000 </r>
        <r>  0.0000  0.1009  0.1009  0.0000  0.0000  0.0000  0.0000  0.0000  0.0000 </r>
       </set>
       <set comment="band 5">
        <r>  0.0536  0.0000  0.0000  0.0357  0.0000  0.0000  0.0000  0.0000  0.0000 </r>
        <r>  0.0536  0.0000  0.0000  0.0357  0.0000  0.0000  0.0000  0.0000  0.0000 </r>
       </set>
       <set comment="band 6">
        <r>  0.0514  0.0000  0.0000  0.0314  0.0000  0.0000  0.0000  0.0000  0.0000 </r>
        <r>  0.0514  0.0000  0.0000  0.0314  0.0000  0.0000  0.0000  0.0000  0.0000 </r>
       </set>
       <set comment="band 7">
        <r>  0.0000  0.1383  0.0555  0.0000  0.0000  0.0000  0.0000  0.0000  0.0000 </r>
        <r>  0.0000  0.0995  0.0942  0.0000  0.0000  0.0000  0.0000  0.0000  0.0000 </r>
       </set>
       <set comment="band 8">
        <r>  0.0000  0.0565  0.1389  0.0000  0.0000  0.0000  0.0000  0.0000  0.0000 </r>
        <r>  0.0000  0.0957  0.1002  0.0000  0.0000  0.0000  0.0000  0.0000  0.0000 </r>
       </set>
      </set>
      <set comment="kpoint 4">
       <set comment="band 1">
        <r>  0.1965  0.0000  0.0000  0.0411  0.0000  0.0000  0.0000  0.0000  0.0000 </r>
        <r>  0.1965  0.0000  0.0000  0.0411  0.0000  0.0000  0.0000  0.0000  0.0000 </r>
       </set>
       <set comment="band 2">
        <r>  0.1899  0.0000  0.0000  0.0552  0.0000  0.0000  0.0000  0.0000  0.0000 </r>
        <r>  0.1899  0.0000  0.0000  0.0552  0.0000  0.0000  0.0000  0.0000  0.0000 </r>
       </set>
       <set comment="band 3">
        <r>  0.0000  0.1009  0.1009  0.0000  0.0000  0.0000  0.0000  0.0000  0.0000 </r>
        <r>  0.0000  0.1009  0.1009  0.0000  0.0000  0.0000  0.0000  0.0000  0.0000 </r>
       </set>
       <set comment="band 4">
        <r>  0.0000  0.1009  0.1009  0.0000  0.0000  0.0000  0.0000  0.0000  0.0000 </r>
        <r>  0.0000  0.1009  0.1009  0.0000  0.0000  0.0000  0.0000  0.0000  0.0000 </r>
       </set>
       <set comment="band 5">
        <r>  0.0540  0.0000  0.0000  0.0370  0.0000  0.0000  0.0000  0.0000  0.0000 </r>
        <r>  0.0540  0.0000  0.0000  0.0370  0.0000  0.0000  0.0000  0.0000  0.0000 </r>
       </set>
       <set comment="band 6">
        <r>  0.0506  0.0000  0.0000  0.0306  0.0000  0.0000  0.0000  0.0000  0.0000 </r>
        <r>  0.0506  0.0000  0.0000  0.0306  0.0000  0.0000  0.0000  0.0000  0.0000 </r>
       </set>
       <set comment="band 7">
        <r>  0.0000  0.0720  0.1073  0.0000  0.0000  0.0000  0.0000  0.0000  0.0000 </r>
        <r>  0.0000  0.1152  0.0641  0.0000  0.0000  0.0000  0.0000  0.0000  0.0000 </r>
       </set>
       <set comment="band 8">
        <r>  0.0000  0.1073  0.0720  0.0000  0.0000  0.0000  0.0000  0.0000  0.0000 </r>
        <r>  0.0000  0.0642  0.1153  0.0000  0.0000  0.0000  0.0000  0.0000  0.0000 </r>
       </set>
      </set>
      <set comment="kpoint 5">
       <set comment="band 1">
        <r>  0.1975  0.0000  0.0000  0.0390  0.0000  0.0000  0.0000  0.0000  0.0000 </r>
        <r>  0.1975  0.0000  0.0000  0.0390  0.0000  0.0000  0.0000  0.0000  0.0000 </r>
       </set>
       <set comment="band 2">
        <r>  0.1886  0.0000  0.0000  0.0577  0.0000  0.0000  0.0000  0.0000  0.0000 </r>
        <r>  0.1886  0.0000  0.0000  0.0577  0.0000  0.0000  0.0000  0.0000  0.0000 </r>
       </set>
       <set comment="band 3">
        <r>  0.0000  0.1010  0.1010  0.0000  0.0000  0.0000  0.0000  0.0000  0.0000 </r>
        <r>  0.0000  0.1010  0.1010  0.0000  0.0000  0.0000  0.0000  0.0000  0.0000 </r>
       </set>
       <set comment="band 4">
        <r>  0.0000  0.1010  0.1010  0.0000  0.0000  0.0000  0.0000  0.0000  0.0000 </r>
        <r>  0.0000  0.1010  0.1010  0.0000  0.0000  0.0000  0.0000  0.0000  0.0000 </r>
       </set>
       <set comment="band 5">
        <r>  0.0543  0.0000  0.0000  0.0385  0.0000  0.0000  0.0000  0.0000  0.0000 </r>
        <r>  0.0543  0.0000  0.0000  0.0385  0.0000  0.0000  0.0000  0.0000  0.0000 </r>
       </set>
       <set comment="band 6">
        <r>  0.0499  0.0000  0.0000  0.0298  0.0000  0.0000  0.0000  0.0000  0.0000 </r>
        <r>  0.0499  0.0000  0.0000  0.0298  0.0000  0.0000  0.0000  0.0000  0.0000 </r>
       </set>
       <set comment="band 7">
        <r>  0.0000  0.0781  0.0933  0.0000  0.0000  0.0000  0.0000  0.0000  0.0000 </r>
        <r>  0.0000  0.0811  0.0903  0.0000  0.0000  0.0000  0.0000  0.0000  0.0000 </r>
       </set>
       <set comment="band 8">
        <r>  0.0000  0.0934  0.0781  0.0000  0.0000  0.0000  0.0000  0.0000  0.0000 </r>
        <r>  0.0000  0.0902  0.0812  0.0000  0.0000  0.0000  0.0000  0.0000  0.0000 </r>
       </set>
      </set>
      <set comment="kpoint 6">
       <set comment="band 1">
        <r>  0.1984  0.0000  0.0000  0.0369  0.0000  0.0000  0.0000  0.0000  0.0000 </r>
        <r>  0.1984  0.0000  0.0000  0.0369  0.0000  0.0000  0.0000  0.0000  0.0000 </r>
       </set>
       <set comment="band 2">
        <r>  0.1872  0.0000  0.0000  0.0603  0.0000  0.0000  0.0000  0.0000  0.0000 </r>
        <r>  0.1872  0.0000  0.0000  0.0603  0.0000  0.0000  0.0000  0.0000  0.0000 </r>
       </set>
       <set comment="band 3">
        <r>  0.0000  0.1010  0.1010  0.0000  0.0000  0.0000  0.0000  0.0000  0.0000 </r>
        <r>  0.0000  0.1010  0.1010  0.0000  0.0000  0.0000  0.0000  0.0000  0.0000 </r>
       </set>
       <set comment="band 4">
        <r>  0.0000  0.1010  0.1010  0.0000  0.0000  0.0000  0.0000  0.0000  0.0000 </r>
        <r>  0.0000  0.1010  0.1010  0.0000  0.0000  0.0000  0.0000  0.0000  0.0000 </r>
       </set>
       <set comment="band 5">
        <r>  0.0545  0.0000  0.0000  0.0401  0.0000  0.0000  0.0000  0.0000  0.0000 </r>
        <r>  0.0545  0.0000  0.0000  0.0401  0.0000  0.0000  0.0000  0.0000  0.0000 </r>
       </set>
       <set comment="band 6">
        <r>  0.0491  0.0000  0.0000  0.0292  0.0000  0.0000  0.0000  0.0000  0.0000 </r>
        <r>  0.0491  0.0000  0.0000  0.0292  0.0000  0.0000  0.0000  0.0000  0.0000 </r>
       </set>
       <set comment="band 7">
        <r>  0.0000  0.0013  0.1658  0.0000  0.0000  0.0000  0.0000  0.0000  0.0000 </r>
        <r>  0.0000  0.1542  0.0129  0.0000  0.0000  0.0000  0.0000  0.0000  0.0000 </r>
       </set>
       <set comment="band 8">
        <r>  0.0000  0.1659  0.0013  0.0000  0.0000  0.0000  0.0000  0.0000  0.0000 </r>
        <r>  0.0000  0.0129  0.1543  0.0000  0.0000  0.0000  0.0000  0.0000  0.0000 </r>
       </set>
      </set>
      <set comment="kpoint 7">
       <set comment="band 1">
        <r>  0.1994  0.0000  0.0000  0.0348  0.0000  0.0000  0.0000  0.0000  0.0000 </r>
        <r>  0.1994  0.0000  0.0000  0.0348  0.0000  0.0000  0.0000  0.0000  0.0000 </r>
       </set>
       <set comment="band 2">
        <r>  0.1858  0.0000  0.0000  0.0629  0.0000  0.0000  0.0000  0.0000  0.0000 </r>
        <r>  0.1858  0.0000  0.0000  0.0629  0.0000  0.0000  0.0000  0.0000  0.0000 </r>
       </set>
       <set comment="band 3">
        <r>  0.0000  0.1009  0.1009  0.0000  0.0000  0.0000  0.0000  0.0000  0.0000 </r>
        <r>  0.0000  0.1009  0.1009  0.0000  0.0000  0.0000  0.0000  0.0000  0.0000 </r>
       </set>
       <set comment="band 4">
        <r>  0.0000  0.1009  0.1009  0.0000  0.0000  0.0000  0.0000  0.0000  0.0000 </r>
        <r>  0.0000  0.1009  0.1009  0.0000  0.0000  0.0000  0.0000  0.0000  0.0000 </r>
       </set>
       <set comment="band 5">
        <r>  0.0545  0.0000  0.0000  0.0417  0.0000  0.0000  0.0000  0.0000  0.0000 </r>
        <r>  0.0545  0.0000  0.0000  0.0417  0.0000  0.0000  0.0000  0.0000  0.0000 </r>
       </set>
       <set comment="band 6">
        <r>  0.0482  0.0000  0.0000  0.0287  0.0000  0.0000  0.0000  0.0000  0.0000 </r>
        <r>  0.0482  0.0000  0.0000  0.0287  0.0000  0.0000  0.0000  0.0000  0.0000 </r>
       </set>
       <set comment="band 7">
        <r>  0.0000  0.1628  0.0016  0.0000  0.0000  0.0000  0.0000  0.0000  0.0000 </r>
        <r>  0.0000  0.0159  0.1484  0.0000  0.0000  0.0000  0.0000  0.0000  0.0000 </r>
       </set>
       <set comment="band 8">
        <r>  0.0000  0.0016  0.1627  0.0000  0.0000  0.0000  0.0000  0.0000  0.0000 </r>
        <r>  0.0000  0.1484  0.0160  0.0000  0.0000  0.0000  0.0000  0.0000  0.0000 </r>
       </set>
      </set>
      <set comment="kpoint 8">
       <set comment="band 1">
        <r>  0.2003  0.0000  0.0000  0.0329  0.0000  0.0000  0.0000  0.0000  0.0000 </r>
        <r>  0.2003  0.0000  0.0000  0.0329  0.0000  0.0000  0.0000  0.0000  0.0000 </r>
       </set>
       <set comment="band 2">
        <r>  0.1843  0.0000  0.0000  0.0656  0.0000  0.0000  0.0000  0.0000  0.0000 </r>
        <r>  0.1843  0.0000  0.0000  0.0656  0.0000  0.0000  0.0000  0.0000  0.0000 </r>
       </set>
       <set comment="band 3">
        <r>  0.0000  0.1009  0.1009  0.0000  0.0000  0.0000  0.0000  0.0000  0.0000 </r>
        <r>  0.0000  0.1009  0.1009  0.0000  0.0000  0.0000  0.0000  0.0000  0.0000 </r>
       </set>
       <set comment="band 4">
        <r>  0.0000  0.1009  0.1009  0.0000  0.0000  0.0000  0.0000  0.0000  0.0000 </r>
        <r>  0.0000  0.1009  0.1009  0.0000  0.0000  0.0000  0.0000  0.0000  0.0000 </r>
       </set>
       <set comment="band 5">
        <r>  0.0545  0.0000  0.0000  0.0435  0.0000  0.0000  0.0000  0.0000  0.0000 </r>
        <r>  0.0545  0.0000  0.0000  0.0435  0.0000  0.0000  0.0000  0.0000  0.0000 </r>
       </set>
       <set comment="band 6">
        <r>  0.0473  0.0000  0.0000  0.0282  0.0000  0.0000  0.0000  0.0000  0.0000 </r>
        <r>  0.0473  0.0000  0.0000  0.0282  0.0000  0.0000  0.0000  0.0000  0.0000 </r>
       </set>
       <set comment="band 7">
        <r>  0.0000  0.1515  0.0116  0.0000  0.0000  0.0000  0.0000  0.0000  0.0000 </r>
        <r>  0.0000  0.0498  0.1134  0.0000  0.0000  0.0000  0.0000  0.0000  0.0000 </r>
       </set>
       <set comment="band 8">
        <r>  0.0000  0.0116  0.1513  0.0000  0.0000  0.0000  0.0000  0.0000  0.0000 </r>
        <r>  0.0000  0.1132  0.0498  0.0000  0.0000  0.0000  0.0000  0.0000  0.0000 </r>
       </set>
      </set>
      <set comment="kpoint 9">
       <set comment="band 1">
        <r>  0.2012  0.0000  0.0000  0.0309  0.0000  0.0000  0.0000  0.0000  0.0000 </r>
        <r>  0.2012  0.0000  0.0000  0.0309  0.0000  0.0000  0.0000  0.0000  0.0000 </r>
       </set>
       <set comment="band 2">
        <r>  0.1827  0.0000  0.0000  0.0683  0.0000  0.0000  0.0000  0.0000  0.0000 </r>
        <r>  0.1827  0.0000  0.0000  0.0683  0.0000  0.0000  0.0000  0.0000  0.0000 </r>
       </set>
       <set comment="band 3">
        <r>  0.0000  0.1009  0.1009  0.0000  0.0000  0.0000  0.0000  0.0000  0.0000 </r>
        <r>  0.0000  0.1009  0.1009  0.0000  0.0000  0.0000  0.0000  0.0000  0.0000 </r>
       </set>
       <set comment="band 4">
        <r>  0.0000  0.1009  0.1009  0.0000  0.0000  0.0000  0.0000  0.0000  0.0000 </r>
        <r>  0.0000  0.1009  0.1009  0.0000  0.0000  0.0000  0.0000  0.0000  0.0000 </r>
       </set>
       <set comment="band 5">
        <r>  0.0544  0.0000  0.0000  0.0454  0.0000  0.0000  0.0000  0.0000  0.0000 </r>
        <r>  0.0544  0.0000  0.0000  0.0454  0.0000  0.0000  0.0000  0.0000  0.0000 </r>
       </set>
       <set comment="band 6">
        <r>  0.0465  0.0000  0.0000  0.0279  0.0000  0.0000  0.0000  0.0000  0.0000 </r>
        <r>  0.0465  0.0000  0.0000  0.0279  0.0000  0.0000  0.0000  0.0000  0.0000 </r>
       </set>
       <set comment="band 7">
        <r>  0.0000  0.0825  0.0801  0.0000  0.0000  0.0000  0.0000  0.0000  0.0000 </r>
        <r>  0.0000  0.0493  0.1133  0.0000  0.0000  0.0000  0.0000  0.0000  0.0000 </r>
       </set>
       <set comment="band 8">
        <r>  0.0000  0.0801  0.0825  0.0000  0.0000  0.0000  0.0000  0.0000  0.0000 </r>
        <r>  0.0000  0.1133  0.0492  0.0000  0.0000  0.0000  0.0000  0.0000  0.0000 </r>
       </set>
      </set>
      <set comment="kpoint 10">
       <set comment="band 1">
        <r>  0.2020  0.0000  0.0000  0.0290  0.0000  0.0000  0.0000  0.0000  0.0000 </r>
        <r>  0.2020  0.0000  0.0000  0.0290  0.0000  0.0000  0.0000  0.0000  0.0000 </r>
       </set>
       <set comment="band 2">
        <r>  0.1810  0.0000  0.0000  0.0711  0.0000  0.0000  0.0000  0.0000  0.0000 </r>
        <r>  0.1810  0.0000  0.0000  0.0711  0.0000  0.0000  0.0000  0.0000  0.0000 </r>
       </set>
       <set comment="band 3">
        <r>  0.0000  0.1009  0.1009  0.0000  0.0000  0.0000  0.0000  0.0000  0.0000 </r>
        <r>  0.0000  0.1009  0.1009  0.0000  0.0000  0.0000  0.0000  0.0000  0.0000 </r>
       </set>
       <set comment="band 4">
        <r>  0.0000  0.1009  0.1009  0.0000  0.0000  0.0000  0.0000  0.0000  0.0000 </r>
        <r>  0.0000  0.1009  0.1009  0.0000  0.0000  0.0000  0.0000  0.0000  0.0000 </r>
       </set>
       <set comment="band 5">
        <r>  0.0541  0.0000  0.0000  0.0475  0.0000  0.0000  0.0000  0.0000  0.0000 </r>
        <r>  0.0541  0.0000  0.0000  0.0475  0.0000  0.0000  0.0000  0.0000  0.0000 </r>
       </set>
       <set comment="band 6">
        <r>  0.0456  0.0000  0.0000  0.0277  0.0000  0.0000  0.0000  0.0000  0.0000 </r>
        <r>  0.0456  0.0000  0.0000  0.0277  0.0000  0.0000  0.0000  0.0000  0.0000 </r>
       </set>
       <set comment="band 7">
        <r>  0.0000  0.1459  0.0166  0.0000  0.0000  0.0000  0.0000  0.0000  0.0000 </r>
        <r>  0.0000  0.0139  0.1486  0.0000  0.0000  0.0000  0.0000  0.0000  0.0000 </r>
       </set>
       <set comment="band 8">
        <r>  0.0000  0.0166  0.1459  0.0000  0.0000  0.0000  0.0000  0.0000  0.0000 </r>
        <r>  0.0000  0.1486  0.0139  0.0000  0.0000  0.0000  0.0000  0.0000  0.0000 </r>
       </set>
      </set>
      <set comment="kpoint 11">
       <set comment="band 1">
        <r>  0.2029  0.0000  0.0000  0.0272  0.0000  0.0000  0.0000  0.0000  0.0000 </r>
        <r>  0.2029  0.0000  0.0000  0.0272  0.0000  0.0000  0.0000  0.0000  0.0000 </r>
       </set>
       <set comment="band 2">
        <r>  0.1791  0.0000  0.0000  0.0739  0.0000  0.0000  0.0000  0.0000  0.0000 </r>
        <r>  0.1791  0.0000  0.0000  0.0739  0.0000  0.0000  0.0000  0.0000  0.0000 </r>
       </set>
       <set comment="band 3">
        <r>  0.0000  0.1009  0.1009  0.0000  0.0000  0.0000  0.0000  0.0000  0.0000 </r>
        <r>  0.0000  0.1009  0.1009  0.0000  0.0000  0.0000  0.0000  0.0000  0.0000 </r>
       </set>
       <set comment="band 4">
        <r>  0.0000  0.1009  0.1009  0.0000  0.0000  0.0000  0.0000  0.0000  0.0000 </r>
        <r>  0.0000  0.1009  0.1009  0.0000  0.0000  0.0000  0.0000  0.0000  0.0000 </r>
       </set>
       <set comment="band 5">
        <r>  0.0537  0.0000  0.0000  0.0496  0.0000  0.0000  0.0000  0.0000  0.0000 </r>
        <r>  0.0537  0.0000  0.0000  0.0496  0.0000  0.0000  0.0000  0.0000  0.0000 </r>
       </set>
       <set comment="band 6">
        <r>  0.0448  0.0000  0.0000  0.0277  0.0000  0.0000  0.0000  0.0000  0.0000 </r>
        <r>  0.0448  0.0000  0.0000  0.0277  0.0000  0.0000  0.0000  0.0000  0.0000 </r>
       </set>
       <set comment="band 7">
        <r>  0.0000  0.1285  0.0341  0.0000  0.0000  0.0000  0.0000  0.0000  0.0000 </r>
        <r>  0.0000  0.0559  0.1066  0.0000  0.0000  0.0000  0.0000  0.0000  0.0000 </r>
       </set>
       <set comment="band 8">
        <r>  0.0000  0.0341  0.1284  0.0000  0.0000  0.0000  0.0000  0.0000  0.0000 </r>
        <r>  0.0000  0.1066  0.0559  0.0000  0.0000  0.0000  0.0000  0.0000  0.0000 </r>
       </set>
      </set>
      <set comment="kpoint 12">
       <set comment="band 1">
        <r>  0.2037  0.0000  0.0000  0.0254  0.0000  0.0000  0.0000  0.0000  0.0000 </r>
        <r>  0.2037  0.0000  0.0000  0.0254  0.0000  0.0000  0.0000  0.0000  0.0000 </r>
       </set>
       <set comment="band 2">
        <r>  0.1772  0.0000  0.0000  0.0769  0.0000  0.0000  0.0000  0.0000  0.0000 </r>
        <r>  0.1772  0.0000  0.0000  0.0769  0.0000  0.0000  0.0000  0.0000  0.0000 </r>
       </set>
       <set comment="band 3">
        <r>  0.0000  0.1009  0.1009  0.0000  0.0000  0.0000  0.0000  0.0000  0.0000 </r>
        <r>  0.0000  0.1009  0.1009  0.0000  0.0000  0.0000  0.0000  0.0000  0.0000 </r>
       </set>
       <set comment="band 4">
        <r>  0.0000  0.1009  0.1009  0.0000  0.0000  0.0000  0.0000  0.0000  0.0000 </r>
        <r>  0.0000  0.1009  0.1009  0.0000  0.0000  0.0000  0.0000  0.0000  0.0000 </r>
       </set>
       <set comment="band 5">
        <r>  0.0532  0.0000  0.0000  0.0519  0.0000  0.0000  0.0000  0.0000  0.0000 </r>
        <r>  0.0532  0.0000  0.0000  0.0519  0.0000  0.0000  0.0000  0.0000  0.0000 </r>
       </set>
       <set comment="band 6">
        <r>  0.0440  0.0000  0.0000  0.0277  0.0000  0.0000  0.0000  0.0000  0.0000 </r>
        <r>  0.0440  0.0000  0.0000  0.0277  0.0000  0.0000  0.0000  0.0000  0.0000 </r>
       </set>
       <set comment="band 7">
        <r>  0.0000  0.0899  0.0731  0.0000  0.0000  0.0000  0.0000  0.0000  0.0000 </r>
        <r>  0.0000  0.0524  0.1106  0.0000  0.0000  0.0000  0.0000  0.0000  0.0000 </r>
       </set>
       <set comment="band 8">
        <r>  0.0000  0.0731  0.0899  0.0000  0.0000  0.0000  0.0000  0.0000  0.0000 </r>
        <r>  0.0000  0.1106  0.0524  0.0000  0.0000  0.0000  0.0000  0.0000  0.0000 </r>
       </set>
      </set>
      <set comment="kpoint 13">
       <set comment="band 1">
        <r>  0.2044  0.0000  0.0000  0.0237  0.0000  0.0000  0.0000  0.0000  0.0000 </r>
        <r>  0.2044  0.0000  0.0000  0.0237  0.0000  0.0000  0.0000  0.0000  0.0000 </r>
       </set>
       <set comment="band 2">
        <r>  0.1750  0.0000  0.0000  0.0799  0.0000  0.0000  0.0000  0.0000  0.0000 </r>
        <r>  0.1750  0.0000  0.0000  0.0799  0.0000  0.0000  0.0000  0.0000  0.0000 </r>
       </set>
       <set comment="band 3">
        <r>  0.0000  0.1009  0.1009  0.0000  0.0000  0.0000  0.0000  0.0000  0.0000 </r>
        <r>  0.0000  0.1009  0.1009  0.0000  0.0000  0.0000  0.0000  0.0000  0.0000 </r>
       </set>
       <set comment="band 4">
        <r>  0.0000  0.1009  0.1009  0.0000  0.0000  0.0000  0.0000  0.0000  0.0000 </r>
        <r>  0.0000  0.1009  0.1009  0.0000  0.0000  0.0000  0.0000  0.0000  0.0000 </r>
       </set>
       <set comment="band 5">
        <r>  0.0527  0.0000  0.0000  0.0542  0.0000  0.0000  0.0000  0.0000  0.0000 </r>
        <r>  0.0527  0.0000  0.0000  0.0542  0.0000  0.0000  0.0000  0.0000  0.0000 </r>
       </set>
       <set comment="band 6">
        <r>  0.0434  0.0000  0.0000  0.0279  0.0000  0.0000  0.0000  0.0000  0.0000 </r>
        <r>  0.0434  0.0000  0.0000  0.0279  0.0000  0.0000  0.0000  0.0000  0.0000 </r>
       </set>
       <set comment="band 7">
        <r>  0.0000  0.1531  0.0104  0.0000  0.0000  0.0000  0.0000  0.0000  0.0000 </r>
        <r>  0.0000  0.0402  0.1232  0.0000  0.0000  0.0000  0.0000  0.0000  0.0000 </r>
       </set>
       <set comment="band 8">
        <r>  0.0000  0.0104  0.1530  0.0000  0.0000  0.0000  0.0000  0.0000  0.0000 </r>
        <r>  0.0000  0.1232  0.0403  0.0000  0.0000  0.0000  0.0000  0.0000  0.0000 </r>
       </set>
      </set>
      <set comment="kpoint 14">
       <set comment="band 1">
        <r>  0.2052  0.0000  0.0000  0.0220  0.0000  0.0000  0.0000  0.0000  0.0000 </r>
        <r>  0.2052  0.0000  0.0000  0.0220  0.0000  0.0000  0.0000  0.0000  0.0000 </r>
       </set>
       <set comment="band 2">
        <r>  0.1728  0.0000  0.0000  0.0829  0.0000  0.0000  0.0000  0.0000  0.0000 </r>
        <r>  0.1728  0.0000  0.0000  0.0829  0.0000  0.0000  0.0000  0.0000  0.0000 </r>
       </set>
       <set comment="band 3">
        <r>  0.0000  0.1010  0.1009  0.0000  0.0000  0.0000  0.0000  0.0000  0.0000 </r>
        <r>  0.0000  0.1010  0.1009  0.0000  0.0000  0.0000  0.0000  0.0000  0.0000 </r>
       </set>
       <set comment="band 4">
        <r>  0.0000  0.1009  0.1010  0.0000  0.0000  0.0000  0.0000  0.0000  0.0000 </r>
        <r>  0.0000  0.1009  0.1010  0.0000  0.0000  0.0000  0.0000  0.0000  0.0000 </r>
       </set>
       <set comment="band 5">
        <r>  0.0519  0.0000  0.0000  0.0567  0.0000  0.0000  0.0000  0.0000  0.0000 </r>
        <r>  0.0519  0.0000  0.0000  0.0567  0.0000  0.0000  0.0000  0.0000  0.0000 </r>
       </set>
       <set comment="band 6">
        <r>  0.0428  0.0000  0.0000  0.0282  0.0000  0.0000  0.0000  0.0000  0.0000 </r>
        <r>  0.0428  0.0000  0.0000  0.0282  0.0000  0.0000  0.0000  0.0000  0.0000 </r>
       </set>
       <set comment="band 7">
        <r>  0.0000  0.0521  0.1120  0.0000  0.0000  0.0000  0.0000  0.0000  0.0000 </r>
        <r>  0.0000  0.0932  0.0708  0.0000  0.0000  0.0000  0.0000  0.0000  0.0000 </r>
       </set>
       <set comment="band 8">
        <r>  0.0000  0.1120  0.0521  0.0000  0.0000  0.0000  0.0000  0.0000  0.0000 </r>
        <r>  0.0000  0.0708  0.0932  0.0000  0.0000  0.0000  0.0000  0.0000  0.0000 </r>
       </set>
      </set>
      <set comment="kpoint 15">
       <set comment="band 1">
        <r>  0.2060  0.0000  0.0000  0.0204  0.0000  0.0000  0.0000  0.0000  0.0000 </r>
        <r>  0.2060  0.0000  0.0000  0.0204  0.0000  0.0000  0.0000  0.0000  0.0000 </r>
       </set>
       <set comment="band 2">
        <r>  0.1703  0.0000  0.0000  0.0861  0.0000  0.0000  0.0000  0.0000  0.0000 </r>
        <r>  0.1703  0.0000  0.0000  0.0861  0.0000  0.0000  0.0000  0.0000  0.0000 </r>
       </set>
       <set comment="band 3">
        <r>  0.0000  0.1010  0.1010  0.0000  0.0000  0.0000  0.0000  0.0000  0.0000 </r>
        <r>  0.0000  0.1010  0.1010  0.0000  0.0000  0.0000  0.0000  0.0000  0.0000 </r>
       </set>
       <set comment="band 4">
        <r>  0.0000  0.1010  0.1010  0.0000  0.0000  0.0000  0.0000  0.0000  0.0000 </r>
        <r>  0.0000  0.1010  0.1010  0.0000  0.0000  0.0000  0.0000  0.0000  0.0000 </r>
       </set>
       <set comment="band 5">
        <r>  0.0510  0.0000  0.0000  0.0594  0.0000  0.0000  0.0000  0.0000  0.0000 </r>
        <r>  0.0510  0.0000  0.0000  0.0594  0.0000  0.0000  0.0000  0.0000  0.0000 </r>
       </set>
       <set comment="band 6">
        <r>  0.0424  0.0000  0.0000  0.0286  0.0000  0.0000  0.0000  0.0000  0.0000 </r>
        <r>  0.0424  0.0000  0.0000  0.0286  0.0000  0.0000  0.0000  0.0000  0.0000 </r>
       </set>
       <set comment="band 7">
        <r>  0.0000  0.0654  0.0992  0.0000  0.0000  0.0000  0.0000  0.0000  0.0000 </r>
        <r>  0.0000  0.0795  0.0851  0.0000  0.0000  0.0000  0.0000  0.0000  0.0000 </r>
       </set>
       <set comment="band 8">
        <r>  0.0000  0.0993  0.0654  0.0000  0.0000  0.0000  0.0000  0.0000  0.0000 </r>
        <r>  0.0000  0.0851  0.0795  0.0000  0.0000  0.0000  0.0000  0.0000  0.0000 </r>
       </set>
      </set>
      <set comment="kpoint 16">
       <set comment="band 1">
        <r>  0.2066  0.0000  0.0000  0.0188  0.0000  0.0000  0.0000  0.0000  0.0000 </r>
        <r>  0.2066  0.0000  0.0000  0.0188  0.0000  0.0000  0.0000  0.0000  0.0000 </r>
       </set>
       <set comment="band 2">
        <r>  0.1676  0.0000  0.0000  0.0893  0.0000  0.0000  0.0000  0.0000  0.0000 </r>
        <r>  0.1676  0.0000  0.0000  0.0893  0.0000  0.0000  0.0000  0.0000  0.0000 </r>
       </set>
       <set comment="band 3">
        <r>  0.0000  0.1010  0.1010  0.0000  0.0000  0.0000  0.0000  0.0000  0.0000 </r>
        <r>  0.0000  0.1010  0.1010  0.0000  0.0000  0.0000  0.0000  0.0000  0.0000 </r>
       </set>
       <set comment="band 4">
        <r>  0.0000  0.1010  0.1010  0.0000  0.0000  0.0000  0.0000  0.0000  0.0000 </r>
        <r>  0.0000  0.1010  0.1010  0.0000  0.0000  0.0000  0.0000  0.0000  0.0000 </r>
       </set>
       <set comment="band 5">
        <r>  0.0501  0.0000  0.0000  0.0621  0.0000  0.0000  0.0000  0.0000  0.0000 </r>
        <r>  0.0501  0.0000  0.0000  0.0621  0.0000  0.0000  0.0000  0.0000  0.0000 </r>
       </set>
       <set comment="band 6">
        <r>  0.0421  0.0000  0.0000  0.0292  0.0000  0.0000  0.0000  0.0000  0.0000 </r>
        <r>  0.0421  0.0000  0.0000  0.0292  0.0000  0.0000  0.0000  0.0000  0.0000 </r>
       </set>
       <set comment="band 7">
        <r>  0.0000  0.0523  0.1127  0.0000  0.0000  0.0000  0.0000  0.0000  0.0000 </r>
        <r>  0.0000  0.1086  0.0565  0.0000  0.0000  0.0000  0.0000  0.0000  0.0000 </r>
       </set>
       <set comment="band 8">
        <r>  0.0000  0.1127  0.0524  0.0000  0.0000  0.0000  0.0000  0.0000  0.0000 </r>
        <r>  0.0000  0.0565  0.1086  0.0000  0.0000  0.0000  0.0000  0.0000  0.0000 </r>
       </set>
      </set>
      <set comment="kpoint 17">
       <set comment="band 1">
        <r>  0.2073  0.0000  0.0000  0.0173  0.0000  0.0000  0.0000  0.0000  0.0000 </r>
        <r>  0.2073  0.0000  0.0000  0.0173  0.0000  0.0000  0.0000  0.0000  0.0000 </r>
       </set>
       <set comment="band 2">
        <r>  0.1647  0.0000  0.0000  0.0926  0.0000  0.0000  0.0000  0.0000  0.0000 </r>
        <r>  0.1647  0.0000  0.0000  0.0926  0.0000  0.0000  0.0000  0.0000  0.0000 </r>
       </set>
       <set comment="band 3">
        <r>  0.0000  0.1011  0.1010  0.0000  0.0000  0.0000  0.0000  0.0000  0.0000 </r>
        <r>  0.0000  0.1011  0.1010  0.0000  0.0000  0.0000  0.0000  0.0000  0.0000 </r>
       </set>
       <set comment="band 4">
        <r>  0.0000  0.1010  0.1010  0.0000  0.0000  0.0000  0.0000  0.0000  0.0000 </r>
        <r>  0.0000  0.1010  0.1010  0.0000  0.0000  0.0000  0.0000  0.0000  0.0000 </r>
       </set>
       <set comment="band 5">
        <r>  0.0490  0.0000  0.0000  0.0651  0.0000  0.0000  0.0000  0.0000  0.0000 </r>
        <r>  0.0490  0.0000  0.0000  0.0651  0.0000  0.0000  0.0000  0.0000  0.0000 </r>
       </set>
       <set comment="band 6">
        <r>  0.0421  0.0000  0.0000  0.0299  0.0000  0.0000  0.0000  0.0000  0.0000 </r>
        <r>  0.0421  0.0000  0.0000  0.0299  0.0000  0.0000  0.0000  0.0000  0.0000 </r>
       </set>
       <set comment="band 7">
        <r>  0.0000  0.0380  0.1277  0.0000  0.0000  0.0000  0.0000  0.0000  0.0000 </r>
        <r>  0.0000  0.1156  0.0500  0.0000  0.0000  0.0000  0.0000  0.0000  0.0000 </r>
       </set>
       <set comment="band 8">
        <r>  0.0000  0.1277  0.0380  0.0000  0.0000  0.0000  0.0000  0.0000  0.0000 </r>
        <r>  0.0000  0.0501  0.1156  0.0000  0.0000  0.0000  0.0000  0.0000  0.0000 </r>
       </set>
      </set>
      <set comment="kpoint 18">
       <set comment="band 1">
        <r>  0.2080  0.0000  0.0000  0.0159  0.0000  0.0000  0.0000  0.0000  0.0000 </r>
        <r>  0.2080  0.0000  0.0000  0.0159  0.0000  0.0000  0.0000  0.0000  0.0000 </r>
       </set>
       <set comment="band 2">
        <r>  0.1616  0.0000  0.0000  0.0961  0.0000  0.0000  0.0000  0.0000  0.0000 </r>
        <r>  0.1616  0.0000  0.0000  0.0961  0.0000  0.0000  0.0000  0.0000  0.0000 </r>
       </set>
       <set comment="band 3">
        <r>  0.0000  0.1011  0.1011  0.0000  0.0000  0.0000  0.0000  0.0000  0.0000 </r>
        <r>  0.0000  0.1011  0.1011  0.0000  0.0000  0.0000  0.0000  0.0000  0.0000 </r>
       </set>
       <set comment="band 4">
        <r>  0.0000  0.1011  0.1011  0.0000  0.0000  0.0000  0.0000  0.0000  0.0000 </r>
        <r>  0.0000  0.1011  0.1011  0.0000  0.0000  0.0000  0.0000  0.0000  0.0000 </r>
       </set>
       <set comment="band 5">
        <r>  0.0477  0.0000  0.0000  0.0682  0.0000  0.0000  0.0000  0.0000  0.0000 </r>
        <r>  0.0477  0.0000  0.0000  0.0682  0.0000  0.0000  0.0000  0.0000  0.0000 </r>
       </set>
       <set comment="band 6">
        <r>  0.0424  0.0000  0.0000  0.0308  0.0000  0.0000  0.0000  0.0000  0.0000 </r>
        <r>  0.0424  0.0000  0.0000  0.0308  0.0000  0.0000  0.0000  0.0000  0.0000 </r>
       </set>
       <set comment="band 7">
        <r>  0.0000  0.0879  0.0782  0.0000  0.0000  0.0000  0.0000  0.0000  0.0000 </r>
        <r>  0.0000  0.0828  0.0833  0.0000  0.0000  0.0000  0.0000  0.0000  0.0000 </r>
       </set>
       <set comment="band 8">
        <r>  0.0000  0.0782  0.0879  0.0000  0.0000  0.0000  0.0000  0.0000  0.0000 </r>
        <r>  0.0000  0.0833  0.0828  0.0000  0.0000  0.0000  0.0000  0.0000  0.0000 </r>
       </set>
      </set>
      <set comment="kpoint 19">
       <set comment="band 1">
        <r>  0.2087  0.0000  0.0000  0.0145  0.0000  0.0000  0.0000  0.0000  0.0000 </r>
        <r>  0.2087  0.0000  0.0000  0.0145  0.0000  0.0000  0.0000  0.0000  0.0000 </r>
       </set>
       <set comment="band 2">
        <r>  0.1582  0.0000  0.0000  0.0997  0.0000  0.0000  0.0000  0.0000  0.0000 </r>
        <r>  0.1582  0.0000  0.0000  0.0997  0.0000  0.0000  0.0000  0.0000  0.0000 </r>
       </set>
       <set comment="band 3">
        <r>  0.0000  0.1012  0.1012  0.0000  0.0000  0.0000  0.0000  0.0000  0.0000 </r>
        <r>  0.0000  0.1012  0.1012  0.0000  0.0000  0.0000  0.0000  0.0000  0.0000 </r>
       </set>
       <set comment="band 4">
        <r>  0.0000  0.1012  0.1012  0.0000  0.0000  0.0000  0.0000  0.0000  0.0000 </r>
        <r>  0.0000  0.1012  0.1012  0.0000  0.0000  0.0000  0.0000  0.0000  0.0000 </r>
       </set>
       <set comment="band 5">
        <r>  0.0463  0.0000  0.0000  0.0714  0.0000  0.0000  0.0000  0.0000  0.0000 </r>
        <r>  0.0463  0.0000  0.0000  0.0714  0.0000  0.0000  0.0000  0.0000  0.0000 </r>
       </set>
       <set comment="band 6">
        <r>  0.0431  0.0000  0.0000  0.0319  0.0000  0.0000  0.0000  0.0000  0.0000 </r>
        <r>  0.0431  0.0000  0.0000  0.0319  0.0000  0.0000  0.0000  0.0000  0.0000 </r>
       </set>
       <set comment="band 7">
        <r>  0.0000  0.0642  0.1024  0.0000  0.0000  0.0000  0.0000  0.0000  0.0000 </r>
        <r>  0.0000  0.1021  0.0645  0.0000  0.0000  0.0000  0.0000  0.0000  0.0000 </r>
       </set>
       <set comment="band 8">
        <r>  0.0000  0.1024  0.0641  0.0000  0.0000  0.0000  0.0000  0.0000  0.0000 </r>
        <r>  0.0000  0.0645  0.1021  0.0000  0.0000  0.0000  0.0000  0.0000  0.0000 </r>
       </set>
      </set>
      <set comment="kpoint 20">
       <set comment="band 1">
        <r>  0.2093  0.0000  0.0000  0.0132  0.0000  0.0000  0.0000  0.0000  0.0000 </r>
        <r>  0.2093  0.0000  0.0000  0.0132  0.0000  0.0000  0.0000  0.0000  0.0000 </r>
       </set>
       <set comment="band 2">
        <r>  0.1545  0.0000  0.0000  0.1033  0.0000  0.0000  0.0000  0.0000  0.0000 </r>
        <r>  0.1545  0.0000  0.0000  0.1033  0.0000  0.0000  0.0000  0.0000  0.0000 </r>
       </set>
       <set comment="band 3">
        <r>  0.0000  0.1012  0.1012  0.0000  0.0000  0.0000  0.0000  0.0000  0.0000 </r>
        <r>  0.0000  0.1012  0.1012  0.0000  0.0000  0.0000  0.0000  0.0000  0.0000 </r>
       </set>
       <set comment="band 4">
        <r>  0.0000  0.1012  0.1012  0.0000  0.0000  0.0000  0.0000  0.0000  0.0000 </r>
        <r>  0.0000  0.1012  0.1012  0.0000  0.0000  0.0000  0.0000  0.0000  0.0000 </r>
       </set>
       <set comment="band 5">
        <r>  0.0448  0.0000  0.0000  0.0748  0.0000  0.0000  0.0000  0.0000  0.0000 </r>
        <r>  0.0448  0.0000  0.0000  0.0748  0.0000  0.0000  0.0000  0.0000  0.0000 </r>
       </set>
       <set comment="band 6">
        <r>  0.0444  0.0000  0.0000  0.0332  0.0000  0.0000  0.0000  0.0000  0.0000 </r>
        <r>  0.0444  0.0000  0.0000  0.0332  0.0000  0.0000  0.0000  0.0000  0.0000 </r>
       </set>
       <set comment="band 7">
        <r>  0.0000  0.0840  0.0829  0.0000  0.0000  0.0000  0.0000  0.0000  0.0000 </r>
        <r>  0.0000  0.0787  0.0882  0.0000  0.0000  0.0000  0.0000  0.0000  0.0000 </r>
       </set>
       <set comment="band 8">
        <r>  0.0000  0.0829  0.0840  0.0000  0.0000  0.0000  0.0000  0.0000  0.0000 </r>
        <r>  0.0000  0.0882  0.0787  0.0000  0.0000  0.0000  0.0000  0.0000  0.0000 </r>
       </set>
      </set>
      <set comment="kpoint 21">
       <set comment="band 1">
        <r>  0.2099  0.0000  0.0000  0.0119  0.0000  0.0000  0.0000  0.0000  0.0000 </r>
        <r>  0.2099  0.0000  0.0000  0.0119  0.0000  0.0000  0.0000  0.0000  0.0000 </r>
       </set>
       <set comment="band 2">
        <r>  0.1505  0.0000  0.0000  0.1072  0.0000  0.0000  0.0000  0.0000  0.0000 </r>
        <r>  0.1505  0.0000  0.0000  0.1072  0.0000  0.0000  0.0000  0.0000  0.0000 </r>
       </set>
       <set comment="band 3">
        <r>  0.0000  0.1013  0.1013  0.0000  0.0000  0.0000  0.0000  0.0000  0.0000 </r>
        <r>  0.0000  0.1013  0.1013  0.0000  0.0000  0.0000  0.0000  0.0000  0.0000 </r>
       </set>
       <set comment="band 4">
        <r>  0.0000  0.1013  0.1013  0.0000  0.0000  0.0000  0.0000  0.0000  0.0000 </r>
        <r>  0.0000  0.1013  0.1013  0.0000  0.0000  0.0000  0.0000  0.0000  0.0000 </r>
       </set>
       <set comment="band 5">
        <r>  0.0431  0.0000  0.0000  0.0784  0.0000  0.0000  0.0000  0.0000  0.0000 </r>
        <r>  0.0431  0.0000  0.0000  0.0784  0.0000  0.0000  0.0000  0.0000  0.0000 </r>
       </set>
       <set comment="band 6">
        <r>  0.0463  0.0000  0.0000  0.0348  0.0000  0.0000  0.0000  0.0000  0.0000 </r>
        <r>  0.0463  0.0000  0.0000  0.0348  0.0000  0.0000  0.0000  0.0000  0.0000 </r>
       </set>
       <set comment="band 7">
        <r>  0.0000  0.1588  0.0085  0.0000  0.0000  0.0000  0.0000  0.0000  0.0000 </r>
        <r>  0.0000  0.0075  0.1598  0.0000  0.0000  0.0000  0.0000  0.0000  0.0000 </r>
       </set>
       <set comment="band 8">
        <r>  0.0000  0.0085  0.1588  0.0000  0.0000  0.0000  0.0000  0.0000  0.0000 </r>
        <r>  0.0000  0.1598  0.0075  0.0000  0.0000  0.0000  0.0000  0.0000  0.0000 </r>
       </set>
      </set>
      <set comment="kpoint 22">
       <set comment="band 1">
        <r>  0.2105  0.0000  0.0000  0.0107  0.0000  0.0000  0.0000  0.0000  0.0000 </r>
        <r>  0.2105  0.0000  0.0000  0.0107  0.0000  0.0000  0.0000  0.0000  0.0000 </r>
       </set>
       <set comment="band 2">
        <r>  0.1461  0.0000  0.0000  0.1112  0.0000  0.0000  0.0000  0.0000  0.0000 </r>
        <r>  0.1461  0.0000  0.0000  0.1112  0.0000  0.0000  0.0000  0.0000  0.0000 </r>
       </set>
       <set comment="band 3">
        <r>  0.0000  0.1014  0.1014  0.0000  0.0000  0.0000  0.0000  0.0000  0.0000 </r>
        <r>  0.0000  0.1014  0.1014  0.0000  0.0000  0.0000  0.0000  0.0000  0.0000 </r>
       </set>
       <set comment="band 4">
        <r>  0.0000  0.1014  0.1014  0.0000  0.0000  0.0000  0.0000  0.0000  0.0000 </r>
        <r>  0.0000  0.1014  0.1014  0.0000  0.0000  0.0000  0.0000  0.0000  0.0000 </r>
       </set>
       <set comment="band 5">
        <r>  0.0413  0.0000  0.0000  0.0821  0.0000  0.0000  0.0000  0.0000  0.0000 </r>
        <r>  0.0413  0.0000  0.0000  0.0821  0.0000  0.0000  0.0000  0.0000  0.0000 </r>
       </set>
       <set comment="band 6">
        <r>  0.0492  0.0000  0.0000  0.0368  0.0000  0.0000  0.0000  0.0000  0.0000 </r>
        <r>  0.0492  0.0000  0.0000  0.0368  0.0000  0.0000  0.0000  0.0000  0.0000 </r>
       </set>
       <set comment="band 7">
        <r>  0.0000  0.1205  0.0471  0.0000  0.0000  0.0000  0.0000  0.0000  0.0000 </r>
        <r>  0.0000  0.0487  0.1189  0.0000  0.0000  0.0000  0.0000  0.0000  0.0000 </r>
       </set>
       <set comment="band 8">
        <r>  0.0000  0.0471  0.1205  0.0000  0.0000  0.0000  0.0000  0.0000  0.0000 </r>
        <r>  0.0000  0.1189  0.0487  0.0000  0.0000  0.0000  0.0000  0.0000  0.0000 </r>
       </set>
      </set>
      <set comment="kpoint 23">
       <set comment="band 1">
        <r>  0.2110  0.0000  0.0000  0.0096  0.0000  0.0000  0.0000  0.0000  0.0000 </r>
        <r>  0.2110  0.0000  0.0000  0.0096  0.0000  0.0000  0.0000  0.0000  0.0000 </r>
       </set>
       <set comment="band 2">
        <r>  0.1413  0.0000  0.0000  0.1153  0.0000  0.0000  0.0000  0.0000  0.0000 </r>
        <r>  0.1413  0.0000  0.0000  0.1153  0.0000  0.0000  0.0000  0.0000  0.0000 </r>
       </set>
       <set comment="band 3">
        <r>  0.0000  0.1016  0.1016  0.0000  0.0000  0.0000  0.0000  0.0000  0.0000 </r>
        <r>  0.0000  0.1016  0.1016  0.0000  0.0000  0.0000  0.0000  0.0000  0.0000 </r>
       </set>
       <set comment="band 4">
        <r>  0.0000  0.1016  0.1016  0.0000  0.0000  0.0000  0.0000  0.0000  0.0000 </r>
        <r>  0.0000  0.1016  0.1016  0.0000  0.0000  0.0000  0.0000  0.0000  0.0000 </r>
       </set>
       <set comment="band 5">
        <r>  0.0394  0.0000  0.0000  0.0858  0.0000  0.0000  0.0000  0.0000  0.0000 </r>
        <r>  0.0394  0.0000  0.0000  0.0858  0.0000  0.0000  0.0000  0.0000  0.0000 </r>
       </set>
       <set comment="band 6">
        <r>  0.0534  0.0000  0.0000  0.0392  0.0000  0.0000  0.0000  0.0000  0.0000 </r>
        <r>  0.0534  0.0000  0.0000  0.0392  0.0000  0.0000  0.0000  0.0000  0.0000 </r>
       </set>
       <set comment="band 7">
        <r>  0.0000  0.0825  0.0850  0.0000  0.0000  0.0000  0.0000  0.0000  0.0000 </r>
        <r>  0.0000  0.0851  0.0824  0.0000  0.0000  0.0000  0.0000  0.0000  0.0000 </r>
       </set>
       <set comment="band 8">
        <r>  0.0000  0.0850  0.0825  0.0000  0.0000  0.0000  0.0000  0.0000  0.0000 </r>
        <r>  0.0000  0.0824  0.0851  0.0000  0.0000  0.0000  0.0000  0.0000  0.0000 </r>
       </set>
      </set>
      <set comment="kpoint 24">
       <set comment="band 1">
        <r>  0.2115  0.0000  0.0000  0.0085  0.0000  0.0000  0.0000  0.0000  0.0000 </r>
        <r>  0.2115  0.0000  0.0000  0.0085  0.0000  0.0000  0.0000  0.0000  0.0000 </r>
       </set>
       <set comment="band 2">
        <r>  0.1363  0.0000  0.0000  0.1199  0.0000  0.0000  0.0000  0.0000  0.0000 </r>
        <r>  0.1363  0.0000  0.0000  0.1199  0.0000  0.0000  0.0000  0.0000  0.0000 </r>
       </set>
       <set comment="band 3">
        <r>  0.0000  0.1017  0.1017  0.0000  0.0000  0.0000  0.0000  0.0000  0.0000 </r>
        <r>  0.0000  0.1017  0.1017  0.0000  0.0000  0.0000  0.0000  0.0000  0.0000 </r>
       </set>
       <set comment="band 4">
        <r>  0.0000  0.1017  0.1017  0.0000  0.0000  0.0000  0.0000  0.0000  0.0000 </r>
        <r>  0.0000  0.1017  0.1017  0.0000  0.0000  0.0000  0.0000  0.0000  0.0000 </r>
       </set>
       <set comment="band 5">
        <r>  0.0373  0.0000  0.0000  0.0898  0.0000  0.0000  0.0000  0.0000  0.0000 </r>
        <r>  0.0373  0.0000  0.0000  0.0898  0.0000  0.0000  0.0000  0.0000  0.0000 </r>
       </set>
       <set comment="band 6">
        <r>  0.0595  0.0000  0.0000  0.0425  0.0000  0.0000  0.0000  0.0000  0.0000 </r>
        <r>  0.0595  0.0000  0.0000  0.0425  0.0000  0.0000  0.0000  0.0000  0.0000 </r>
       </set>
       <set comment="band 7">
        <r>  0.0000  0.0922  0.0754  0.0000  0.0000  0.0000  0.0000  0.0000  0.0000 </r>
        <r>  0.0000  0.0736  0.0939  0.0000  0.0000  0.0000  0.0000  0.0000  0.0000 </r>
       </set>
       <set comment="band 8">
        <r>  0.0000  0.0754  0.0922  0.0000  0.0000  0.0000  0.0000  0.0000  0.0000 </r>
        <r>  0.0000  0.0939  0.0736  0.0000  0.0000  0.0000  0.0000  0.0000  0.0000 </r>
       </set>
      </set>
      <set comment="kpoint 25">
       <set comment="band 1">
        <r>  0.2120  0.0000  0.0000  0.0075  0.0000  0.0000  0.0000  0.0000  0.0000 </r>
        <r>  0.2120  0.0000  0.0000  0.0075  0.0000  0.0000  0.0000  0.0000  0.0000 </r>
       </set>
       <set comment="band 2">
        <r>  0.1306  0.0000  0.0000  0.1246  0.0000  0.0000  0.0000  0.0000  0.0000 </r>
        <r>  0.1306  0.0000  0.0000  0.1246  0.0000  0.0000  0.0000  0.0000  0.0000 </r>
       </set>
       <set comment="band 3">
        <r>  0.0000  0.1019  0.1019  0.0000  0.0000  0.0000  0.0000  0.0000  0.0000 </r>
        <r>  0.0000  0.1019  0.1019  0.0000  0.0000  0.0000  0.0000  0.0000  0.0000 </r>
       </set>
       <set comment="band 4">
        <r>  0.0000  0.1019  0.1019  0.0000  0.0000  0.0000  0.0000  0.0000  0.0000 </r>
        <r>  0.0000  0.1019  0.1019  0.0000  0.0000  0.0000  0.0000  0.0000  0.0000 </r>
       </set>
       <set comment="band 5">
        <r>  0.0350  0.0000  0.0000  0.0940  0.0000  0.0000  0.0000  0.0000  0.0000 </r>
        <r>  0.0350  0.0000  0.0000  0.0940  0.0000  0.0000  0.0000  0.0000  0.0000 </r>
       </set>
       <set comment="band 6">
        <r>  0.0683  0.0000  0.0000  0.0462  0.0000  0.0000  0.0000  0.0000  0.0000 </r>
        <r>  0.0683  0.0000  0.0000  0.0462  0.0000  0.0000  0.0000  0.0000  0.0000 </r>
       </set>
       <set comment="band 7">
        <r>  0.0000  0.1313  0.0358  0.0000  0.0000  0.0000  0.0000  0.0000  0.0000 </r>
        <r>  0.0000  0.0334  0.1336  0.0000  0.0000  0.0000  0.0000  0.0000  0.0000 </r>
       </set>
       <set comment="band 8">
        <r>  0.0000  0.0358  0.1313  0.0000  0.0000  0.0000  0.0000  0.0000  0.0000 </r>
        <r>  0.0000  0.1336  0.0334  0.0000  0.0000  0.0000  0.0000  0.0000  0.0000 </r>
       </set>
      </set>
      <set comment="kpoint 26">
       <set comment="band 1">
        <r>  0.2124  0.0000  0.0000  0.0065  0.0000  0.0000  0.0000  0.0000  0.0000 </r>
        <r>  0.2124  0.0000  0.0000  0.0065  0.0000  0.0000  0.0000  0.0000  0.0000 </r>
       </set>
       <set comment="band 2">
        <r>  0.1245  0.0000  0.0000  0.1295  0.0000  0.0000  0.0000  0.0000  0.0000 </r>
        <r>  0.1245  0.0000  0.0000  0.1295  0.0000  0.0000  0.0000  0.0000  0.0000 </r>
       </set>
       <set comment="band 3">
        <r>  0.0000  0.1022  0.1021  0.0000  0.0000  0.0000  0.0000  0.0000  0.0000 </r>
        <r>  0.0000  0.1022  0.1021  0.0000  0.0000  0.0000  0.0000  0.0000  0.0000 </r>
       </set>
       <set comment="band 4">
        <r>  0.0000  0.1021  0.1022  0.0000  0.0000  0.0000  0.0000  0.0000  0.0000 </r>
        <r>  0.0000  0.1021  0.1022  0.0000  0.0000  0.0000  0.0000  0.0000  0.0000 </r>
       </set>
       <set comment="band 5">
        <r>  0.0326  0.0000  0.0000  0.0984  0.0000  0.0000  0.0000  0.0000  0.0000 </r>
        <r>  0.0326  0.0000  0.0000  0.0984  0.0000  0.0000  0.0000  0.0000  0.0000 </r>
       </set>
       <set comment="band 6">
        <r>  0.0812  0.0000  0.0000  0.0508  0.0000  0.0000  0.0000  0.0000  0.0000 </r>
        <r>  0.0812  0.0000  0.0000  0.0508  0.0000  0.0000  0.0000  0.0000  0.0000 </r>
       </set>
       <set comment="band 7">
        <r>  0.0000  0.0220  0.1449  0.0000  0.0000  0.0000  0.0000  0.0000  0.0000 </r>
        <r>  0.0000  0.1381  0.0288  0.0000  0.0000  0.0000  0.0000  0.0000  0.0000 </r>
       </set>
       <set comment="band 8">
        <r>  0.0000  0.1449  0.0220  0.0000  0.0000  0.0000  0.0000  0.0000  0.0000 </r>
        <r>  0.0000  0.0288  0.1381  0.0000  0.0000  0.0000  0.0000  0.0000  0.0000 </r>
       </set>
      </set>
      <set comment="kpoint 27">
       <set comment="band 1">
        <r>  0.2129  0.0000  0.0000  0.0056  0.0000  0.0000  0.0000  0.0000  0.0000 </r>
        <r>  0.2129  0.0000  0.0000  0.0056  0.0000  0.0000  0.0000  0.0000  0.0000 </r>
       </set>
       <set comment="band 2">
        <r>  0.1179  0.0000  0.0000  0.1348  0.0000  0.0000  0.0000  0.0000  0.0000 </r>
        <r>  0.1179  0.0000  0.0000  0.1348  0.0000  0.0000  0.0000  0.0000  0.0000 </r>
       </set>
       <set comment="band 3">
        <r>  0.0000  0.1024  0.1024  0.0000  0.0000  0.0000  0.0000  0.0000  0.0000 </r>
        <r>  0.0000  0.1024  0.1024  0.0000  0.0000  0.0000  0.0000  0.0000  0.0000 </r>
       </set>
       <set comment="band 4">
        <r>  0.0000  0.1024  0.1024  0.0000  0.0000  0.0000  0.0000  0.0000  0.0000 </r>
        <r>  0.0000  0.1024  0.1024  0.0000  0.0000  0.0000  0.0000  0.0000  0.0000 </r>
       </set>
       <set comment="band 5">
        <r>  0.0300  0.0000  0.0000  0.1029  0.0000  0.0000  0.0000  0.0000  0.0000 </r>
        <r>  0.0300  0.0000  0.0000  0.1029  0.0000  0.0000  0.0000  0.0000  0.0000 </r>
       </set>
       <set comment="band 6">
        <r>  0.0000  0.0235  0.1431  0.0000  0.0000  0.0000  0.0000  0.0000  0.0000 </r>
        <r>  0.0000  0.1428  0.0238  0.0000  0.0000  0.0000  0.0000  0.0000  0.0000 </r>
       </set>
       <set comment="band 7">
        <r>  0.0000  0.1431  0.0235  0.0000  0.0000  0.0000  0.0000  0.0000  0.0000 </r>
        <r>  0.0000  0.0238  0.1428  0.0000  0.0000  0.0000  0.0000  0.0000  0.0000 </r>
       </set>
       <set comment="band 8">
        <r>  0.1001  0.0000  0.0000  0.0564  0.0000  0.0000  0.0000  0.0000  0.0000 </r>
        <r>  0.1001  0.0000  0.0000  0.0564  0.0000  0.0000  0.0000  0.0000  0.0000 </r>
       </set>
      </set>
      <set comment="kpoint 28">
       <set comment="band 1">
        <r>  0.2133  0.0000  0.0000  0.0048  0.0000  0.0000  0.0000  0.0000  0.0000 </r>
        <r>  0.2133  0.0000  0.0000  0.0048  0.0000  0.0000  0.0000  0.0000  0.0000 </r>
       </set>
       <set comment="band 2">
        <r>  0.1106  0.0000  0.0000  0.1404  0.0000  0.0000  0.0000  0.0000  0.0000 </r>
        <r>  0.1106  0.0000  0.0000  0.1404  0.0000  0.0000  0.0000  0.0000  0.0000 </r>
       </set>
       <set comment="band 3">
        <r>  0.0000  0.1027  0.1027  0.0000  0.0000  0.0000  0.0000  0.0000  0.0000 </r>
        <r>  0.0000  0.1027  0.1027  0.0000  0.0000  0.0000  0.0000  0.0000  0.0000 </r>
       </set>
       <set comment="band 4">
        <r>  0.0000  0.1027  0.1027  0.0000  0.0000  0.0000  0.0000  0.0000  0.0000 </r>
        <r>  0.0000  0.1027  0.1027  0.0000  0.0000  0.0000  0.0000  0.0000  0.0000 </r>
       </set>
       <set comment="band 5">
        <r>  0.0274  0.0000  0.0000  0.1076  0.0000  0.0000  0.0000  0.0000  0.0000 </r>
        <r>  0.0274  0.0000  0.0000  0.1076  0.0000  0.0000  0.0000  0.0000  0.0000 </r>
       </set>
       <set comment="band 6">
        <r>  0.0000  0.1229  0.0433  0.0000  0.0000  0.0000  0.0000  0.0000  0.0000 </r>
        <r>  0.0000  0.0427  0.1235  0.0000  0.0000  0.0000  0.0000  0.0000  0.0000 </r>
       </set>
       <set comment="band 7">
        <r>  0.0000  0.0433  0.1229  0.0000  0.0000  0.0000  0.0000  0.0000  0.0000 </r>
        <r>  0.0000  0.1235  0.0427  0.0000  0.0000  0.0000  0.0000  0.0000  0.0000 </r>
       </set>
       <set comment="band 8">
        <r>  0.1267  0.0000  0.0000  0.0625  0.0000  0.0000  0.0000  0.0000  0.0000 </r>
        <r>  0.1267  0.0000  0.0000  0.0625  0.0000  0.0000  0.0000  0.0000  0.0000 </r>
       </set>
      </set>
      <set comment="kpoint 29">
       <set comment="band 1">
        <r>  0.2137  0.0000  0.0000  0.0040  0.0000  0.0000  0.0000  0.0000  0.0000 </r>
        <r>  0.2137  0.0000  0.0000  0.0040  0.0000  0.0000  0.0000  0.0000  0.0000 </r>
       </set>
       <set comment="band 2">
        <r>  0.1027  0.0000  0.0000  0.1464  0.0000  0.0000  0.0000  0.0000  0.0000 </r>
        <r>  0.1027  0.0000  0.0000  0.1464  0.0000  0.0000  0.0000  0.0000  0.0000 </r>
       </set>
       <set comment="band 3">
        <r>  0.0000  0.1031  0.1031  0.0000  0.0000  0.0000  0.0000  0.0000  0.0000 </r>
        <r>  0.0000  0.1031  0.1031  0.0000  0.0000  0.0000  0.0000  0.0000  0.0000 </r>
       </set>
       <set comment="band 4">
        <r>  0.0000  0.1031  0.1031  0.0000  0.0000  0.0000  0.0000  0.0000  0.0000 </r>
        <r>  0.0000  0.1031  0.1031  0.0000  0.0000  0.0000  0.0000  0.0000  0.0000 </r>
       </set>
       <set comment="band 5">
        <r>  0.0246  0.0000  0.0000  0.1124  0.0000  0.0000  0.0000  0.0000  0.0000 </r>
        <r>  0.0246  0.0000  0.0000  0.1124  0.0000  0.0000  0.0000  0.0000  0.0000 </r>
       </set>
       <set comment="band 6">
        <r>  0.0000  0.0198  0.1457  0.0000  0.0000  0.0000  0.0000  0.0000  0.0000 </r>
        <r>  0.0000  0.1517  0.0139  0.0000  0.0000  0.0000  0.0000  0.0000  0.0000 </r>
       </set>
       <set comment="band 7">
        <r>  0.0000  0.1457  0.0198  0.0000  0.0000  0.0000  0.0000  0.0000  0.0000 </r>
        <r>  0.0000  0.0139  0.1517  0.0000  0.0000  0.0000  0.0000  0.0000  0.0000 </r>
       </set>
       <set comment="band 8">
        <r>  0.1614  0.0000  0.0000  0.0679  0.0000  0.0000  0.0000  0.0000  0.0000 </r>
        <r>  0.1614  0.0000  0.0000  0.0679  0.0000  0.0000  0.0000  0.0000  0.0000 </r>
       </set>
      </set>
      <set comment="kpoint 30">
       <set comment="band 1">
        <r>  0.2140  0.0000  0.0000  0.0033  0.0000  0.0000  0.0000  0.0000  0.0000 </r>
        <r>  0.2140  0.0000  0.0000  0.0033  0.0000  0.0000  0.0000  0.0000  0.0000 </r>
       </set>
       <set comment="band 2">
        <r>  0.0940  0.0000  0.0000  0.1528  0.0000  0.0000  0.0000  0.0000  0.0000 </r>
        <r>  0.0940  0.0000  0.0000  0.1528  0.0000  0.0000  0.0000  0.0000  0.0000 </r>
       </set>
       <set comment="band 3">
        <r>  0.0000  0.1036  0.1035  0.0000  0.0000  0.0000  0.0000  0.0000  0.0000 </r>
        <r>  0.0000  0.1036  0.1035  0.0000  0.0000  0.0000  0.0000  0.0000  0.0000 </r>
       </set>
       <set comment="band 4">
        <r>  0.0000  0.1035  0.1036  0.0000  0.0000  0.0000  0.0000  0.0000  0.0000 </r>
        <r>  0.0000  0.1035  0.1035  0.0000  0.0000  0.0000  0.0000  0.0000  0.0000 </r>
       </set>
       <set comment="band 5">
        <r>  0.0217  0.0000  0.0000  0.1173  0.0000  0.0000  0.0000  0.0000  0.0000 </r>
        <r>  0.0217  0.0000  0.0000  0.1173  0.0000  0.0000  0.0000  0.0000  0.0000 </r>
       </set>
       <set comment="band 6">
        <r>  0.0000  0.0783  0.0865  0.0000  0.0000  0.0000  0.0000  0.0000  0.0000 </r>
        <r>  0.0000  0.0850  0.0798  0.0000  0.0000  0.0000  0.0000  0.0000  0.0000 </r>
       </set>
       <set comment="band 7">
        <r>  0.0000  0.0865  0.0783  0.0000  0.0000  0.0000  0.0000  0.0000  0.0000 </r>
        <r>  0.0000  0.0798  0.0850  0.0000  0.0000  0.0000  0.0000  0.0000  0.0000 </r>
       </set>
       <set comment="band 8">
        <r>  0.1990  0.0000  0.0000  0.0699  0.0000  0.0000  0.0000  0.0000  0.0000 </r>
        <r>  0.1990  0.0000  0.0000  0.0700  0.0000  0.0000  0.0000  0.0000  0.0000 </r>
       </set>
      </set>
      <set comment="kpoint 31">
       <set comment="band 1">
        <r>  0.2143  0.0000  0.0000  0.0027  0.0000  0.0000  0.0000  0.0000  0.0000 </r>
        <r>  0.2143  0.0000  0.0000  0.0027  0.0000  0.0000  0.0000  0.0000  0.0000 </r>
       </set>
       <set comment="band 2">
        <r>  0.0846  0.0000  0.0000  0.1598  0.0000  0.0000  0.0000  0.0000  0.0000 </r>
        <r>  0.0846  0.0000  0.0000  0.1598  0.0000  0.0000  0.0000  0.0000  0.0000 </r>
       </set>
       <set comment="band 3">
        <r>  0.0000  0.1041  0.1041  0.0000  0.0000  0.0000  0.0000  0.0000  0.0000 </r>
        <r>  0.0000  0.1042  0.1041  0.0000  0.0000  0.0000  0.0000  0.0000  0.0000 </r>
       </set>
       <set comment="band 4">
        <r>  0.0000  0.1041  0.1041  0.0000  0.0000  0.0000  0.0000  0.0000  0.0000 </r>
        <r>  0.0000  0.1041  0.1042  0.0000  0.0000  0.0000  0.0000  0.0000  0.0000 </r>
       </set>
       <set comment="band 5">
        <r>  0.0187  0.0000  0.0000  0.1224  0.0000  0.0000  0.0000  0.0000  0.0000 </r>
        <r>  0.0187  0.0000  0.0000  0.1224  0.0000  0.0000  0.0000  0.0000  0.0000 </r>
       </set>
       <set comment="band 6">
        <r>  0.0000  0.0039  0.1600  0.0000  0.0000  0.0000  0.0000  0.0000  0.0000 </r>
        <r>  0.0000  0.1508  0.0131  0.0000  0.0000  0.0000  0.0000  0.0000  0.0000 </r>
       </set>
       <set comment="band 7">
        <r>  0.0000  0.1600  0.0039  0.0000  0.0000  0.0000  0.0000  0.0000  0.0000 </r>
        <r>  0.0000  0.0131  0.1508  0.0000  0.0000  0.0000  0.0000  0.0000  0.0000 </r>
       </set>
       <set comment="band 8">
        <r>  0.2335  0.0000  0.0000  0.0675  0.0000  0.0000  0.0000  0.0000  0.0000 </r>
        <r>  0.2335  0.0000  0.0000  0.0675  0.0000  0.0000  0.0000  0.0000  0.0000 </r>
       </set>
      </set>
      <set comment="kpoint 32">
       <set comment="band 1">
        <r>  0.2146  0.0000  0.0000  0.0021  0.0000  0.0000  0.0000  0.0000  0.0000 </r>
        <r>  0.2146  0.0000  0.0000  0.0021  0.0000  0.0000  0.0000  0.0000  0.0000 </r>
       </set>
       <set comment="band 2">
        <r>  0.0744  0.0000  0.0000  0.1672  0.0000  0.0000  0.0000  0.0000  0.0000 </r>
        <r>  0.0744  0.0000  0.0000  0.1672  0.0000  0.0000  0.0000  0.0000  0.0000 </r>
       </set>
       <set comment="band 3">
        <r>  0.0000  0.1047  0.1046  0.0000  0.0000  0.0000  0.0000  0.0000  0.0000 </r>
        <r>  0.0000  0.1047  0.1047  0.0000  0.0000  0.0000  0.0000  0.0000  0.0000 </r>
       </set>
       <set comment="band 4">
        <r>  0.0000  0.1046  0.1047  0.0000  0.0000  0.0000  0.0000  0.0000  0.0000 </r>
        <r>  0.0000  0.1047  0.1047  0.0000  0.0000  0.0000  0.0000  0.0000  0.0000 </r>
       </set>
       <set comment="band 5">
        <r>  0.0157  0.0000  0.0000  0.1273  0.0000  0.0000  0.0000  0.0000  0.0000 </r>
        <r>  0.0157  0.0000  0.0000  0.1273  0.0000  0.0000  0.0000  0.0000  0.0000 </r>
       </set>
       <set comment="band 6">
        <r>  0.0000  0.0855  0.0773  0.0000  0.0000  0.0000  0.0000  0.0000  0.0000 </r>
        <r>  0.0000  0.0842  0.0786  0.0000  0.0000  0.0000  0.0000  0.0000  0.0000 </r>
       </set>
       <set comment="band 7">
        <r>  0.0000  0.0773  0.0855  0.0000  0.0000  0.0000  0.0000  0.0000  0.0000 </r>
        <r>  0.0000  0.0786  0.0842  0.0000  0.0000  0.0000  0.0000  0.0000  0.0000 </r>
       </set>
       <set comment="band 8">
        <r>  0.2608  0.0000  0.0000  0.0610  0.0000  0.0000  0.0000  0.0000  0.0000 </r>
        <r>  0.2608  0.0000  0.0000  0.0610  0.0000  0.0000  0.0000  0.0000  0.0000 </r>
       </set>
      </set>
      <set comment="kpoint 33">
       <set comment="band 1">
        <r>  0.2149  0.0000  0.0000  0.0016  0.0000  0.0000  0.0000  0.0000  0.0000 </r>
        <r>  0.2149  0.0000  0.0000  0.0016  0.0000  0.0000  0.0000  0.0000  0.0000 </r>
       </set>
       <set comment="band 2">
        <r>  0.0635  0.0000  0.0000  0.1751  0.0000  0.0000  0.0000  0.0000  0.0000 </r>
        <r>  0.0635  0.0000  0.0000  0.1751  0.0000  0.0000  0.0000  0.0000  0.0000 </r>
       </set>
       <set comment="band 3">
        <r>  0.0000  0.1054  0.1053  0.0000  0.0000  0.0000  0.0000  0.0000  0.0000 </r>
        <r>  0.0000  0.1054  0.1054  0.0000  0.0000  0.0000  0.0000  0.0000  0.0000 </r>
       </set>
       <set comment="band 4">
        <r>  0.0000  0.1053  0.1054  0.0000  0.0000  0.0000  0.0000  0.0000  0.0000 </r>
        <r>  0.0000  0.1054  0.1054  0.0000  0.0000  0.0000  0.0000  0.0000  0.0000 </r>
       </set>
       <set comment="band 5">
        <r>  0.0127  0.0000  0.0000  0.1321  0.0000  0.0000  0.0000  0.0000  0.0000 </r>
        <r>  0.0127  0.0000  0.0000  0.1321  0.0000  0.0000  0.0000  0.0000  0.0000 </r>
       </set>
       <set comment="band 6">
        <r>  0.0000  0.0638  0.0977  0.0000  0.0000  0.0000  0.0000  0.0000  0.0000 </r>
        <r>  0.0000  0.0808  0.0808  0.0000  0.0000  0.0000  0.0000  0.0000  0.0000 </r>
       </set>
       <set comment="band 7">
        <r>  0.0000  0.0977  0.0638  0.0000  0.0000  0.0000  0.0000  0.0000  0.0000 </r>
        <r>  0.0000  0.0808  0.0808  0.0000  0.0000  0.0000  0.0000  0.0000  0.0000 </r>
       </set>
       <set comment="band 8">
        <r>  0.2822  0.0000  0.0000  0.0522  0.0000  0.0000  0.0000  0.0000  0.0000 </r>
        <r>  0.2822  0.0000  0.0000  0.0522  0.0000  0.0000  0.0000  0.0000  0.0000 </r>
       </set>
      </set>
      <set comment="kpoint 34">
       <set comment="band 1">
        <r>  0.2151  0.0000  0.0000  0.0012  0.0000  0.0000  0.0000  0.0000  0.0000 </r>
        <r>  0.2151  0.0000  0.0000  0.0012  0.0000  0.0000  0.0000  0.0000  0.0000 </r>
       </set>
       <set comment="band 2">
        <r>  0.0519  0.0000  0.0000  0.1832  0.0000  0.0000  0.0000  0.0000  0.0000 </r>
        <r>  0.0519  0.0000  0.0000  0.1832  0.0000  0.0000  0.0000  0.0000  0.0000 </r>
       </set>
       <set comment="band 3">
        <r>  0.0000  0.1061  0.1061  0.0000  0.0000  0.0000  0.0000  0.0000  0.0000 </r>
        <r>  0.0000  0.1061  0.1061  0.0000  0.0000  0.0000  0.0000  0.0000  0.0000 </r>
       </set>
       <set comment="band 4">
        <r>  0.0000  0.1061  0.1061  0.0000  0.0000  0.0000  0.0000  0.0000  0.0000 </r>
        <r>  0.0000  0.1061  0.1061  0.0000  0.0000  0.0000  0.0000  0.0000  0.0000 </r>
       </set>
       <set comment="band 5">
        <r>  0.0099  0.0000  0.0000  0.1366  0.0000  0.0000  0.0000  0.0000  0.0000 </r>
        <r>  0.0099  0.0000  0.0000  0.1366  0.0000  0.0000  0.0000  0.0000  0.0000 </r>
       </set>
       <set comment="band 6">
        <r>  0.0000  0.0661  0.0939  0.0000  0.0000  0.0000  0.0000  0.0000  0.0000 </r>
        <r>  0.0000  0.1008  0.0592  0.0000  0.0000  0.0000  0.0000  0.0000  0.0000 </r>
       </set>
       <set comment="band 7">
        <r>  0.0000  0.0939  0.0661  0.0000  0.0000  0.0000  0.0000  0.0000  0.0000 </r>
        <r>  0.0000  0.0592  0.1008  0.0000  0.0000  0.0000  0.0000  0.0000  0.0000 </r>
       </set>
       <set comment="band 8">
        <r>  0.2997  0.0000  0.0000  0.0422  0.0000  0.0000  0.0000  0.0000  0.0000 </r>
        <r>  0.2997  0.0000  0.0000  0.0422  0.0000  0.0000  0.0000  0.0000  0.0000 </r>
       </set>
      </set>
      <set comment="kpoint 35">
       <set comment="band 1">
        <r>  0.2152  0.0000  0.0000  0.0008  0.0000  0.0000  0.0000  0.0000  0.0000 </r>
        <r>  0.2152  0.0000  0.0000  0.0008  0.0000  0.0000  0.0000  0.0000  0.0000 </r>
       </set>
       <set comment="band 2">
        <r>  0.0400  0.0000  0.0000  0.1917  0.0000  0.0000  0.0000  0.0000  0.0000 </r>
        <r>  0.0400  0.0000  0.0000  0.1917  0.0000  0.0000  0.0000  0.0000  0.0000 </r>
       </set>
       <set comment="band 3">
        <r>  0.0000  0.1076  0.1063  0.0000  0.0000  0.0000  0.0000  0.0000  0.0000 </r>
        <r>  0.0000  0.1072  0.1067  0.0000  0.0000  0.0000  0.0000  0.0000  0.0000 </r>
       </set>
       <set comment="band 4">
        <r>  0.0000  0.1063  0.1076  0.0000  0.0000  0.0000  0.0000  0.0000  0.0000 </r>
        <r>  0.0000  0.1067  0.1072  0.0000  0.0000  0.0000  0.0000  0.0000  0.0000 </r>
       </set>
       <set comment="band 5">
        <r>  0.0072  0.0000  0.0000  0.1409  0.0000  0.0000  0.0000  0.0000  0.0000 </r>
        <r>  0.0072  0.0000  0.0000  0.1409  0.0000  0.0000  0.0000  0.0000  0.0000 </r>
       </set>
       <set comment="band 6">
        <r>  0.0000  0.0426  0.1157  0.0000  0.0000  0.0000  0.0000  0.0000  0.0000 </r>
        <r>  0.0000  0.0742  0.0841  0.0000  0.0000  0.0000  0.0000  0.0000  0.0000 </r>
       </set>
       <set comment="band 7">
        <r>  0.0000  0.1157  0.0426  0.0000  0.0000  0.0000  0.0000  0.0000  0.0000 </r>
        <r>  0.0000  0.0841  0.0742  0.0000  0.0000  0.0000  0.0000  0.0000  0.0000 </r>
       </set>
       <set comment="band 8">
        <r>  0.3150  0.0000  0.0000  0.0321  0.0000  0.0000  0.0000  0.0000  0.0000 </r>
        <r>  0.3150  0.0000  0.0000  0.0321  0.0000  0.0000  0.0000  0.0000  0.0000 </r>
       </set>
      </set>
      <set comment="kpoint 36">
       <set comment="band 1">
        <r>  0.2154  0.0000  0.0000  0.0005  0.0000  0.0000  0.0000  0.0000  0.0000 </r>
        <r>  0.2154  0.0000  0.0000  0.0005  0.0000  0.0000  0.0000  0.0000  0.0000 </r>
       </set>
       <set comment="band 2">
        <r>  0.0282  0.0000  0.0000  0.2001  0.0000  0.0000  0.0000  0.0000  0.0000 </r>
        <r>  0.0282  0.0000  0.0000  0.2001  0.0000  0.0000  0.0000  0.0000  0.0000 </r>
       </set>
       <set comment="band 3">
        <r>  0.0000  0.1077  0.1078  0.0000  0.0000  0.0000  0.0000  0.0000  0.0000 </r>
        <r>  0.0000  0.1078  0.1078  0.0000  0.0000  0.0000  0.0000  0.0000  0.0000 </r>
       </set>
       <set comment="band 4">
        <r>  0.0000  0.1078  0.1077  0.0000  0.0000  0.0000  0.0000  0.0000  0.0000 </r>
        <r>  0.0000  0.1078  0.1078  0.0000  0.0000  0.0000  0.0000  0.0000  0.0000 </r>
       </set>
       <set comment="band 5">
        <r>  0.0048  0.0000  0.0000  0.1448  0.0000  0.0000  0.0000  0.0000  0.0000 </r>
        <r>  0.0048  0.0000  0.0000  0.1448  0.0000  0.0000  0.0000  0.0000  0.0000 </r>
       </set>
       <set comment="band 6">
        <r>  0.0000  0.0788  0.0779  0.0000  0.0000  0.0000  0.0000  0.0000  0.0000 </r>
        <r>  0.0000  0.0798  0.0769  0.0000  0.0000  0.0000  0.0000  0.0000  0.0000 </r>
       </set>
       <set comment="band 7">
        <r>  0.0000  0.0779  0.0788  0.0000  0.0000  0.0000  0.0000  0.0000  0.0000 </r>
        <r>  0.0000  0.0769  0.0798  0.0000  0.0000  0.0000  0.0000  0.0000  0.0000 </r>
       </set>
       <set comment="band 8">
        <r>  0.3286  0.0000  0.0000  0.0223  0.0000  0.0000  0.0000  0.0000  0.0000 </r>
        <r>  0.3286  0.0000  0.0000  0.0223  0.0000  0.0000  0.0000  0.0000  0.0000 </r>
       </set>
      </set>
      <set comment="kpoint 37">
       <set comment="band 1">
        <r>  0.2155  0.0000  0.0000  0.0003  0.0000  0.0000  0.0000  0.0000  0.0000 </r>
        <r>  0.2155  0.0000  0.0000  0.0003  0.0000  0.0000  0.0000  0.0000  0.0000 </r>
       </set>
       <set comment="band 2">
        <r>  0.0173  0.0000  0.0000  0.2078  0.0000  0.0000  0.0000  0.0000  0.0000 </r>
        <r>  0.0173  0.0000  0.0000  0.2078  0.0000  0.0000  0.0000  0.0000  0.0000 </r>
       </set>
       <set comment="band 3">
        <r>  0.0000  0.1085  0.1087  0.0000  0.0000  0.0000  0.0000  0.0000  0.0000 </r>
        <r>  0.0000  0.1086  0.1086  0.0000  0.0000  0.0000  0.0000  0.0000  0.0000 </r>
       </set>
       <set comment="band 4">
        <r>  0.0000  0.1087  0.1085  0.0000  0.0000  0.0000  0.0000  0.0000  0.0000 </r>
        <r>  0.0000  0.1086  0.1086  0.0000  0.0000  0.0000  0.0000  0.0000  0.0000 </r>
       </set>
       <set comment="band 5">
        <r>  0.0028  0.0000  0.0000  0.1480  0.0000  0.0000  0.0000  0.0000  0.0000 </r>
        <r>  0.0028  0.0000  0.0000  0.1480  0.0000  0.0000  0.0000  0.0000  0.0000 </r>
       </set>
       <set comment="band 6">
        <r>  0.0000  0.0761  0.0790  0.0000  0.0000  0.0000  0.0000  0.0000  0.0000 </r>
        <r>  0.0000  0.0783  0.0768  0.0000  0.0000  0.0000  0.0000  0.0000  0.0000 </r>
       </set>
       <set comment="band 7">
        <r>  0.0000  0.0790  0.0761  0.0000  0.0000  0.0000  0.0000  0.0000  0.0000 </r>
        <r>  0.0000  0.0768  0.0783  0.0000  0.0000  0.0000  0.0000  0.0000  0.0000 </r>
       </set>
       <set comment="band 8">
        <r>  0.3406  0.0000  0.0000  0.0135  0.0000  0.0000  0.0000  0.0000  0.0000 </r>
        <r>  0.3406  0.0000  0.0000  0.0135  0.0000  0.0000  0.0000  0.0000  0.0000 </r>
       </set>
      </set>
      <set comment="kpoint 38">
       <set comment="band 1">
        <r>  0.2156  0.0000  0.0000  0.0001  0.0000  0.0000  0.0000  0.0000  0.0000 </r>
        <r>  0.2156  0.0000  0.0000  0.0001  0.0000  0.0000  0.0000  0.0000  0.0000 </r>
       </set>
       <set comment="band 2">
        <r>  0.0082  0.0000  0.0000  0.2141  0.0000  0.0000  0.0000  0.0000  0.0000 </r>
        <r>  0.0082  0.0000  0.0000  0.2141  0.0000  0.0000  0.0000  0.0000  0.0000 </r>
       </set>
       <set comment="band 3">
        <r>  0.0000  0.1092  0.1093  0.0000  0.0000  0.0000  0.0000  0.0000  0.0000 </r>
        <r>  0.0000  0.1093  0.1092  0.0000  0.0000  0.0000  0.0000  0.0000  0.0000 </r>
       </set>
       <set comment="band 4">
        <r>  0.0000  0.1093  0.1092  0.0000  0.0000  0.0000  0.0000  0.0000  0.0000 </r>
        <r>  0.0000  0.1092  0.1093  0.0000  0.0000  0.0000  0.0000  0.0000  0.0000 </r>
       </set>
       <set comment="band 5">
        <r>  0.0013  0.0000  0.0000  0.1504  0.0000  0.0000  0.0000  0.0000  0.0000 </r>
        <r>  0.0013  0.0000  0.0000  0.1504  0.0000  0.0000  0.0000  0.0000  0.0000 </r>
       </set>
       <set comment="band 6">
        <r>  0.0000  0.0792  0.0746  0.0000  0.0000  0.0000  0.0000  0.0000  0.0000 </r>
        <r>  0.0000  0.0775  0.0762  0.0000  0.0000  0.0000  0.0000  0.0000  0.0000 </r>
       </set>
       <set comment="band 7">
        <r>  0.0000  0.0746  0.0792  0.0000  0.0000  0.0000  0.0000  0.0000  0.0000 </r>
        <r>  0.0000  0.0762  0.0775  0.0000  0.0000  0.0000  0.0000  0.0000  0.0000 </r>
       </set>
       <set comment="band 8">
        <r>  0.3502  0.0000  0.0000  0.0064  0.0000  0.0000  0.0000  0.0000  0.0000 </r>
        <r>  0.3502  0.0000  0.0000  0.0064  0.0000  0.0000  0.0000  0.0000  0.0000 </r>
       </set>
      </set>
      <set comment="kpoint 39">
       <set comment="band 1">
        <r>  0.2156  0.0000  0.0000  0.0000  0.0000  0.0000  0.0000  0.0000  0.0000 </r>
        <r>  0.2156  0.0000  0.0000  0.0000  0.0000  0.0000  0.0000  0.0000  0.0000 </r>
       </set>
       <set comment="band 2">
        <r>  0.0021  0.0000  0.0000  0.2183  0.0000  0.0000  0.0000  0.0000  0.0000 </r>
        <r>  0.0021  0.0000  0.0000  0.2183  0.0000  0.0000  0.0000  0.0000  0.0000 </r>
       </set>
       <set comment="band 3">
        <r>  0.0000  0.1101  0.1094  0.0000  0.0000  0.0000  0.0000  0.0000  0.0000 </r>
        <r>  0.0000  0.1101  0.1094  0.0000  0.0000  0.0000  0.0000  0.0000  0.0000 </r>
       </set>
       <set comment="band 4">
        <r>  0.0000  0.1094  0.1101  0.0000  0.0000  0.0000  0.0000  0.0000  0.0000 </r>
        <r>  0.0000  0.1094  0.1101  0.0000  0.0000  0.0000  0.0000  0.0000  0.0000 </r>
       </set>
       <set comment="band 5">
        <r>  0.0003  0.0000  0.0000  0.1519  0.0000  0.0000  0.0000  0.0000  0.0000 </r>
        <r>  0.0003  0.0000  0.0000  0.1519  0.0000  0.0000  0.0000  0.0000  0.0000 </r>
       </set>
       <set comment="band 6">
        <r>  0.0000  0.0791  0.0737  0.0000  0.0000  0.0000  0.0000  0.0000  0.0000 </r>
        <r>  0.0000  0.0809  0.0719  0.0000  0.0000  0.0000  0.0000  0.0000  0.0000 </r>
       </set>
       <set comment="band 7">
        <r>  0.0000  0.0737  0.0791  0.0000  0.0000  0.0000  0.0000  0.0000  0.0000 </r>
        <r>  0.0000  0.0719  0.0809  0.0000  0.0000  0.0000  0.0000  0.0000  0.0000 </r>
       </set>
       <set comment="band 8">
        <r>  0.3565  0.0000  0.0000  0.0017  0.0000  0.0000  0.0000  0.0000  0.0000 </r>
        <r>  0.3565  0.0000  0.0000  0.0017  0.0000  0.0000  0.0000  0.0000  0.0000 </r>
       </set>
      </set>
      <set comment="kpoint 40">
       <set comment="band 1">
        <r>  0.2157  0.0000  0.0000  0.0000  0.0000  0.0000  0.0000  0.0000  0.0000 </r>
        <r>  0.2157  0.0000  0.0000  0.0000  0.0000  0.0000  0.0000  0.0000  0.0000 </r>
       </set>
       <set comment="band 2">
        <r>  0.0000  0.0733  0.0733  0.0733  0.0000  0.0000  0.0000  0.0000  0.0000 </r>
        <r>  0.0000  0.0733  0.0733  0.0733  0.0000  0.0000  0.0000  0.0000  0.0000 </r>
       </set>
       <set comment="band 3">
        <r>  0.0000  0.1235  0.0602  0.0362  0.0000  0.0000  0.0000  0.0000  0.0000 </r>
        <r>  0.0000  0.1235  0.0602  0.0362  0.0000  0.0000  0.0000  0.0000  0.0000 </r>
       </set>
       <set comment="band 4">
        <r>  0.0000  0.0230  0.0864  0.1104  0.0000  0.0000  0.0000  0.0000  0.0000 </r>
        <r>  0.0000  0.0230  0.0864  0.1104  0.0000  0.0000  0.0000  0.0000  0.0000 </r>
       </set>
       <set comment="band 5">
        <r>  0.0000  0.0500  0.0492  0.0532  0.0000  0.0000  0.0000  0.0000  0.0000 </r>
        <r>  0.0000  0.0500  0.0492  0.0532  0.0000  0.0000  0.0000  0.0000  0.0000 </r>
       </set>
       <set comment="band 6">
        <r>  0.0000  0.0643  0.0841  0.0041  0.0000  0.0000  0.0000  0.0000  0.0000 </r>
        <r>  0.0000  0.0643  0.0841  0.0041  0.0000  0.0000  0.0000  0.0000  0.0000 </r>
       </set>
       <set comment="band 7">
        <r>  0.0000  0.0381  0.0191  0.0952  0.0000  0.0000  0.0000  0.0000  0.0000 </r>
        <r>  0.0000  0.0381  0.0191  0.0952  0.0000  0.0000  0.0000  0.0000  0.0000 </r>
       </set>
       <set comment="band 8">
        <r>  0.3587  0.0000  0.0000  0.0000  0.0000  0.0000  0.0000  0.0000  0.0000 </r>
        <r>  0.3587  0.0000  0.0000  0.0000  0.0000  0.0000  0.0000  0.0000  0.0000 </r>
       </set>
      </set>
      <set comment="kpoint 41">
       <set comment="band 1">
        <r>  0.2157  0.0000  0.0000  0.0000  0.0000  0.0000  0.0000  0.0000  0.0000 </r>
        <r>  0.2157  0.0000  0.0000  0.0000  0.0000  0.0000  0.0000  0.0000  0.0000 </r>
       </set>
       <set comment="band 2">
        <r>  0.0000  0.0733  0.0733  0.0733  0.0000  0.0000  0.0000  0.0000  0.0000 </r>
        <r>  0.0000  0.0733  0.0733  0.0733  0.0000  0.0000  0.0000  0.0000  0.0000 </r>
       </set>
       <set comment="band 3">
        <r>  0.0000  0.0858  0.0045  0.1295  0.0000  0.0000  0.0000  0.0000  0.0000 </r>
        <r>  0.0000  0.0858  0.0045  0.1295  0.0000  0.0000  0.0000  0.0000  0.0000 </r>
       </set>
       <set comment="band 4">
        <r>  0.0000  0.0608  0.1421  0.0170  0.0000  0.0000  0.0000  0.0000  0.0000 </r>
        <r>  0.0000  0.0608  0.1421  0.0170  0.0000  0.0000  0.0000  0.0000  0.0000 </r>
       </set>
       <set comment="band 5">
        <r>  0.0000  0.0507  0.0513  0.0504  0.0000  0.0000  0.0000  0.0000  0.0000 </r>
        <r>  0.0000  0.0507  0.0513  0.0504  0.0000  0.0000  0.0000  0.0000  0.0000 </r>
       </set>
       <set comment="band 6">
        <r>  0.0000  0.0949  0.0454  0.0120  0.0000  0.0000  0.0000  0.0000  0.0000 </r>
        <r>  0.0000  0.0949  0.0454  0.0120  0.0000  0.0000  0.0000  0.0000  0.0000 </r>
       </set>
       <set comment="band 7">
        <r>  0.0000  0.0068  0.0557  0.0900  0.0000  0.0000  0.0000  0.0000  0.0000 </r>
        <r>  0.0000  0.0068  0.0557  0.0900  0.0000  0.0000  0.0000  0.0000  0.0000 </r>
       </set>
       <set comment="band 8">
        <r>  0.3587  0.0000  0.0000  0.0000  0.0000  0.0000  0.0000  0.0000  0.0000 </r>
        <r>  0.3587  0.0000  0.0000  0.0000  0.0000  0.0000  0.0000  0.0000  0.0000 </r>
       </set>
      </set>
      <set comment="kpoint 42">
       <set comment="band 1">
        <r>  0.2156  0.0000  0.0000  0.0000  0.0000  0.0000  0.0000  0.0000  0.0000 </r>
        <r>  0.2156  0.0000  0.0000  0.0000  0.0000  0.0000  0.0000  0.0000  0.0000 </r>
       </set>
       <set comment="band 2">
        <r>  0.0021  0.2183  0.0000  0.0000  0.0000  0.0000  0.0000  0.0000  0.0000 </r>
        <r>  0.0021  0.2183  0.0000  0.0000  0.0000  0.0000  0.0000  0.0000  0.0000 </r>
       </set>
       <set comment="band 3">
        <r>  0.0000  0.0000  0.1097  0.1098  0.0000  0.0000  0.0000  0.0000  0.0000 </r>
        <r>  0.0000  0.0000  0.1096  0.1098  0.0000  0.0000  0.0000  0.0000  0.0000 </r>
       </set>
       <set comment="band 4">
        <r>  0.0000  0.0000  0.1098  0.1097  0.0000  0.0000  0.0000  0.0000  0.0000 </r>
        <r>  0.0000  0.0000  0.1098  0.1096  0.0000  0.0000  0.0000  0.0000  0.0000 </r>
       </set>
       <set comment="band 5">
        <r>  0.0003  0.1519  0.0000  0.0000  0.0000  0.0000  0.0000  0.0000  0.0000 </r>
        <r>  0.0003  0.1519  0.0000  0.0000  0.0000  0.0000  0.0000  0.0000  0.0000 </r>
       </set>
       <set comment="band 6">
        <r>  0.0000  0.0000  0.0744  0.0784  0.0000  0.0000  0.0000  0.0000  0.0000 </r>
        <r>  0.0000  0.0000  0.0736  0.0792  0.0000  0.0000  0.0000  0.0000  0.0000 </r>
       </set>
       <set comment="band 7">
        <r>  0.0000  0.0000  0.0784  0.0744  0.0000  0.0000  0.0000  0.0000  0.0000 </r>
        <r>  0.0000  0.0000  0.0792  0.0736  0.0000  0.0000  0.0000  0.0000  0.0000 </r>
       </set>
       <set comment="band 8">
        <r>  0.3565  0.0017  0.0000  0.0000  0.0000  0.0000  0.0000  0.0000  0.0000 </r>
        <r>  0.3565  0.0017  0.0000  0.0000  0.0000  0.0000  0.0000  0.0000  0.0000 </r>
       </set>
      </set>
      <set comment="kpoint 43">
       <set comment="band 1">
        <r>  0.2156  0.0001  0.0000  0.0000  0.0000  0.0000  0.0000  0.0000  0.0000 </r>
        <r>  0.2156  0.0001  0.0000  0.0000  0.0000  0.0000  0.0000  0.0000  0.0000 </r>
       </set>
       <set comment="band 2">
        <r>  0.0082  0.2141  0.0000  0.0000  0.0000  0.0000  0.0000  0.0000  0.0000 </r>
        <r>  0.0082  0.2141  0.0000  0.0000  0.0000  0.0000  0.0000  0.0000  0.0000 </r>
       </set>
       <set comment="band 3">
        <r>  0.0000  0.0000  0.1092  0.1093  0.0000  0.0000  0.0000  0.0000  0.0000 </r>
        <r>  0.0000  0.0000  0.1092  0.1093  0.0000  0.0000  0.0000  0.0000  0.0000 </r>
       </set>
       <set comment="band 4">
        <r>  0.0000  0.0000  0.1093  0.1092  0.0000  0.0000  0.0000  0.0000  0.0000 </r>
        <r>  0.0000  0.0000  0.1093  0.1092  0.0000  0.0000  0.0000  0.0000  0.0000 </r>
       </set>
       <set comment="band 5">
        <r>  0.0013  0.1504  0.0000  0.0000  0.0000  0.0000  0.0000  0.0000  0.0000 </r>
        <r>  0.0013  0.1504  0.0000  0.0000  0.0000  0.0000  0.0000  0.0000  0.0000 </r>
       </set>
       <set comment="band 6">
        <r>  0.0000  0.0000  0.0770  0.0767  0.0000  0.0000  0.0000  0.0000  0.0000 </r>
        <r>  0.0000  0.0000  0.0774  0.0763  0.0000  0.0000  0.0000  0.0000  0.0000 </r>
       </set>
       <set comment="band 7">
        <r>  0.0000  0.0000  0.0767  0.0770  0.0000  0.0000  0.0000  0.0000  0.0000 </r>
        <r>  0.0000  0.0000  0.0763  0.0774  0.0000  0.0000  0.0000  0.0000  0.0000 </r>
       </set>
       <set comment="band 8">
        <r>  0.3502  0.0064  0.0000  0.0000  0.0000  0.0000  0.0000  0.0000  0.0000 </r>
        <r>  0.3502  0.0064  0.0000  0.0000  0.0000  0.0000  0.0000  0.0000  0.0000 </r>
       </set>
      </set>
      <set comment="kpoint 44">
       <set comment="band 1">
        <r>  0.2155  0.0003  0.0000  0.0000  0.0000  0.0000  0.0000  0.0000  0.0000 </r>
        <r>  0.2155  0.0003  0.0000  0.0000  0.0000  0.0000  0.0000  0.0000  0.0000 </r>
       </set>
       <set comment="band 2">
        <r>  0.0173  0.2078  0.0000  0.0000  0.0000  0.0000  0.0000  0.0000  0.0000 </r>
        <r>  0.0173  0.2078  0.0000  0.0000  0.0000  0.0000  0.0000  0.0000  0.0000 </r>
       </set>
       <set comment="band 3">
        <r>  0.0000  0.0000  0.1086  0.1086  0.0000  0.0000  0.0000  0.0000  0.0000 </r>
        <r>  0.0000  0.0000  0.1086  0.1086  0.0000  0.0000  0.0000  0.0000  0.0000 </r>
       </set>
       <set comment="band 4">
        <r>  0.0000  0.0000  0.1086  0.1086  0.0000  0.0000  0.0000  0.0000  0.0000 </r>
        <r>  0.0000  0.0000  0.1086  0.1086  0.0000  0.0000  0.0000  0.0000  0.0000 </r>
       </set>
       <set comment="band 5">
        <r>  0.0028  0.1480  0.0000  0.0000  0.0000  0.0000  0.0000  0.0000  0.0000 </r>
        <r>  0.0028  0.1480  0.0000  0.0000  0.0000  0.0000  0.0000  0.0000  0.0000 </r>
       </set>
       <set comment="band 6">
        <r>  0.0000  0.0000  0.0784  0.0767  0.0000  0.0000  0.0000  0.0000  0.0000 </r>
        <r>  0.0000  0.0000  0.0773  0.0778  0.0000  0.0000  0.0000  0.0000  0.0000 </r>
       </set>
       <set comment="band 7">
        <r>  0.0000  0.0000  0.0767  0.0784  0.0000  0.0000  0.0000  0.0000  0.0000 </r>
        <r>  0.0000  0.0000  0.0778  0.0773  0.0000  0.0000  0.0000  0.0000  0.0000 </r>
       </set>
       <set comment="band 8">
        <r>  0.3406  0.0135  0.0000  0.0000  0.0000  0.0000  0.0000  0.0000  0.0000 </r>
        <r>  0.3406  0.0135  0.0000  0.0000  0.0000  0.0000  0.0000  0.0000  0.0000 </r>
       </set>
      </set>
      <set comment="kpoint 45">
       <set comment="band 1">
        <r>  0.2154  0.0005  0.0000  0.0000  0.0000  0.0000  0.0000  0.0000  0.0000 </r>
        <r>  0.2154  0.0005  0.0000  0.0000  0.0000  0.0000  0.0000  0.0000  0.0000 </r>
       </set>
       <set comment="band 2">
        <r>  0.0282  0.2001  0.0000  0.0000  0.0000  0.0000  0.0000  0.0000  0.0000 </r>
        <r>  0.0282  0.2001  0.0000  0.0000  0.0000  0.0000  0.0000  0.0000  0.0000 </r>
       </set>
       <set comment="band 3">
        <r>  0.0000  0.0000  0.1077  0.1078  0.0000  0.0000  0.0000  0.0000  0.0000 </r>
        <r>  0.0000  0.0000  0.1077  0.1078  0.0000  0.0000  0.0000  0.0000  0.0000 </r>
       </set>
       <set comment="band 4">
        <r>  0.0000  0.0000  0.1078  0.1077  0.0000  0.0000  0.0000  0.0000  0.0000 </r>
        <r>  0.0000  0.0000  0.1078  0.1077  0.0000  0.0000  0.0000  0.0000  0.0000 </r>
       </set>
       <set comment="band 5">
        <r>  0.0048  0.1448  0.0000  0.0000  0.0000  0.0000  0.0000  0.0000  0.0000 </r>
        <r>  0.0048  0.1448  0.0000  0.0000  0.0000  0.0000  0.0000  0.0000  0.0000 </r>
       </set>
       <set comment="band 6">
        <r>  0.0000  0.0000  0.0768  0.0799  0.0000  0.0000  0.0000  0.0000  0.0000 </r>
        <r>  0.0000  0.0000  0.0777  0.0790  0.0000  0.0000  0.0000  0.0000  0.0000 </r>
       </set>
       <set comment="band 7">
        <r>  0.0000  0.0000  0.0799  0.0768  0.0000  0.0000  0.0000  0.0000  0.0000 </r>
        <r>  0.0000  0.0000  0.0790  0.0777  0.0000  0.0000  0.0000  0.0000  0.0000 </r>
       </set>
       <set comment="band 8">
        <r>  0.3286  0.0223  0.0000  0.0000  0.0000  0.0000  0.0000  0.0000  0.0000 </r>
        <r>  0.3286  0.0223  0.0000  0.0000  0.0000  0.0000  0.0000  0.0000  0.0000 </r>
       </set>
      </set>
      <set comment="kpoint 46">
       <set comment="band 1">
        <r>  0.2152  0.0008  0.0000  0.0000  0.0000  0.0000  0.0000  0.0000  0.0000 </r>
        <r>  0.2152  0.0008  0.0000  0.0000  0.0000  0.0000  0.0000  0.0000  0.0000 </r>
       </set>
       <set comment="band 2">
        <r>  0.0400  0.1917  0.0000  0.0000  0.0000  0.0000  0.0000  0.0000  0.0000 </r>
        <r>  0.0400  0.1917  0.0000  0.0000  0.0000  0.0000  0.0000  0.0000  0.0000 </r>
       </set>
       <set comment="band 3">
        <r>  0.0000  0.0000  0.1069  0.1070  0.0000  0.0000  0.0000  0.0000  0.0000 </r>
        <r>  0.0000  0.0000  0.1069  0.1070  0.0000  0.0000  0.0000  0.0000  0.0000 </r>
       </set>
       <set comment="band 4">
        <r>  0.0000  0.0000  0.1070  0.1069  0.0000  0.0000  0.0000  0.0000  0.0000 </r>
        <r>  0.0000  0.0000  0.1070  0.1069  0.0000  0.0000  0.0000  0.0000  0.0000 </r>
       </set>
       <set comment="band 5">
        <r>  0.0072  0.1409  0.0000  0.0000  0.0000  0.0000  0.0000  0.0000  0.0000 </r>
        <r>  0.0072  0.1409  0.0000  0.0000  0.0000  0.0000  0.0000  0.0000  0.0000 </r>
       </set>
       <set comment="band 6">
        <r>  0.0000  0.0000  0.0831  0.0753  0.0000  0.0000  0.0000  0.0000  0.0000 </r>
        <r>  0.0000  0.0000  0.0776  0.0807  0.0000  0.0000  0.0000  0.0000  0.0000 </r>
       </set>
       <set comment="band 7">
        <r>  0.0000  0.0000  0.0753  0.0831  0.0000  0.0000  0.0000  0.0000  0.0000 </r>
        <r>  0.0000  0.0000  0.0807  0.0776  0.0000  0.0000  0.0000  0.0000  0.0000 </r>
       </set>
       <set comment="band 8">
        <r>  0.3149  0.0321  0.0000  0.0000  0.0000  0.0000  0.0000  0.0000  0.0000 </r>
        <r>  0.3149  0.0321  0.0000  0.0000  0.0000  0.0000  0.0000  0.0000  0.0000 </r>
       </set>
      </set>
      <set comment="kpoint 47">
       <set comment="band 1">
        <r>  0.2151  0.0012  0.0000  0.0000  0.0000  0.0000  0.0000  0.0000  0.0000 </r>
        <r>  0.2151  0.0012  0.0000  0.0000  0.0000  0.0000  0.0000  0.0000  0.0000 </r>
       </set>
       <set comment="band 2">
        <r>  0.0519  0.1832  0.0000  0.0000  0.0000  0.0000  0.0000  0.0000  0.0000 </r>
        <r>  0.0519  0.1832  0.0000  0.0000  0.0000  0.0000  0.0000  0.0000  0.0000 </r>
       </set>
       <set comment="band 3">
        <r>  0.0000  0.0000  0.1061  0.1061  0.0000  0.0000  0.0000  0.0000  0.0000 </r>
        <r>  0.0000  0.0000  0.1061  0.1061  0.0000  0.0000  0.0000  0.0000  0.0000 </r>
       </set>
       <set comment="band 4">
        <r>  0.0000  0.0000  0.1061  0.1061  0.0000  0.0000  0.0000  0.0000  0.0000 </r>
        <r>  0.0000  0.0000  0.1061  0.1061  0.0000  0.0000  0.0000  0.0000  0.0000 </r>
       </set>
       <set comment="band 5">
        <r>  0.0099  0.1366  0.0000  0.0000  0.0000  0.0000  0.0000  0.0000  0.0000 </r>
        <r>  0.0099  0.1366  0.0000  0.0000  0.0000  0.0000  0.0000  0.0000  0.0000 </r>
       </set>
       <set comment="band 6">
        <r>  0.0000  0.0000  0.0838  0.0762  0.0000  0.0000  0.0000  0.0000  0.0000 </r>
        <r>  0.0000  0.0000  0.0785  0.0815  0.0000  0.0000  0.0000  0.0000  0.0000 </r>
       </set>
       <set comment="band 7">
        <r>  0.0000  0.0000  0.0762  0.0838  0.0000  0.0000  0.0000  0.0000  0.0000 </r>
        <r>  0.0000  0.0000  0.0815  0.0785  0.0000  0.0000  0.0000  0.0000  0.0000 </r>
       </set>
       <set comment="band 8">
        <r>  0.2997  0.0422  0.0000  0.0000  0.0000  0.0000  0.0000  0.0000  0.0000 </r>
        <r>  0.2997  0.0422  0.0000  0.0000  0.0000  0.0000  0.0000  0.0000  0.0000 </r>
       </set>
      </set>
      <set comment="kpoint 48">
       <set comment="band 1">
        <r>  0.2149  0.0016  0.0000  0.0000  0.0000  0.0000  0.0000  0.0000  0.0000 </r>
        <r>  0.2149  0.0016  0.0000  0.0000  0.0000  0.0000  0.0000  0.0000  0.0000 </r>
       </set>
       <set comment="band 2">
        <r>  0.0635  0.1751  0.0000  0.0000  0.0000  0.0000  0.0000  0.0000  0.0000 </r>
        <r>  0.0635  0.1751  0.0000  0.0000  0.0000  0.0000  0.0000  0.0000  0.0000 </r>
       </set>
       <set comment="band 3">
        <r>  0.0000  0.0000  0.1053  0.1054  0.0000  0.0000  0.0000  0.0000  0.0000 </r>
        <r>  0.0000  0.0000  0.1053  0.1054  0.0000  0.0000  0.0000  0.0000  0.0000 </r>
       </set>
       <set comment="band 4">
        <r>  0.0000  0.0000  0.1054  0.1053  0.0000  0.0000  0.0000  0.0000  0.0000 </r>
        <r>  0.0000  0.0000  0.1054  0.1053  0.0000  0.0000  0.0000  0.0000  0.0000 </r>
       </set>
       <set comment="band 5">
        <r>  0.0127  0.1321  0.0000  0.0000  0.0000  0.0000  0.0000  0.0000  0.0000 </r>
        <r>  0.0127  0.1321  0.0000  0.0000  0.0000  0.0000  0.0000  0.0000  0.0000 </r>
       </set>
       <set comment="band 6">
        <r>  0.0000  0.0000  0.0808  0.0807  0.0000  0.0000  0.0000  0.0000  0.0000 </r>
        <r>  0.0000  0.0000  0.0807  0.0808  0.0000  0.0000  0.0000  0.0000  0.0000 </r>
       </set>
       <set comment="band 7">
        <r>  0.0000  0.0000  0.0807  0.0808  0.0000  0.0000  0.0000  0.0000  0.0000 </r>
        <r>  0.0000  0.0000  0.0808  0.0807  0.0000  0.0000  0.0000  0.0000  0.0000 </r>
       </set>
       <set comment="band 8">
        <r>  0.2822  0.0522  0.0000  0.0000  0.0000  0.0000  0.0000  0.0000  0.0000 </r>
        <r>  0.2822  0.0522  0.0000  0.0000  0.0000  0.0000  0.0000  0.0000  0.0000 </r>
       </set>
      </set>
      <set comment="kpoint 49">
       <set comment="band 1">
        <r>  0.2146  0.0021  0.0000  0.0000  0.0000  0.0000  0.0000  0.0000  0.0000 </r>
        <r>  0.2146  0.0021  0.0000  0.0000  0.0000  0.0000  0.0000  0.0000  0.0000 </r>
       </set>
       <set comment="band 2">
        <r>  0.0744  0.1672  0.0000  0.0000  0.0000  0.0000  0.0000  0.0000  0.0000 </r>
        <r>  0.0744  0.1672  0.0000  0.0000  0.0000  0.0000  0.0000  0.0000  0.0000 </r>
       </set>
       <set comment="band 3">
        <r>  0.0000  0.0000  0.1047  0.1047  0.0000  0.0000  0.0000  0.0000  0.0000 </r>
        <r>  0.0000  0.0000  0.1047  0.1047  0.0000  0.0000  0.0000  0.0000  0.0000 </r>
       </set>
       <set comment="band 4">
        <r>  0.0000  0.0000  0.1047  0.1047  0.0000  0.0000  0.0000  0.0000  0.0000 </r>
        <r>  0.0000  0.0000  0.1047  0.1047  0.0000  0.0000  0.0000  0.0000  0.0000 </r>
       </set>
       <set comment="band 5">
        <r>  0.0157  0.1273  0.0000  0.0000  0.0000  0.0000  0.0000  0.0000  0.0000 </r>
        <r>  0.0157  0.1273  0.0000  0.0000  0.0000  0.0000  0.0000  0.0000  0.0000 </r>
       </set>
       <set comment="band 6">
        <r>  0.0000  0.0000  0.1075  0.0553  0.0000  0.0000  0.0000  0.0000  0.0000 </r>
        <r>  0.0000  0.0000  0.0649  0.0979  0.0000  0.0000  0.0000  0.0000  0.0000 </r>
       </set>
       <set comment="band 7">
        <r>  0.0000  0.0000  0.0553  0.1075  0.0000  0.0000  0.0000  0.0000  0.0000 </r>
        <r>  0.0000  0.0000  0.0979  0.0649  0.0000  0.0000  0.0000  0.0000  0.0000 </r>
       </set>
       <set comment="band 8">
        <r>  0.2606  0.0610  0.0000  0.0000  0.0000  0.0000  0.0000  0.0000  0.0000 </r>
        <r>  0.2607  0.0610  0.0000  0.0000  0.0000  0.0000  0.0000  0.0000  0.0000 </r>
       </set>
      </set>
      <set comment="kpoint 50">
       <set comment="band 1">
        <r>  0.2143  0.0027  0.0000  0.0000  0.0000  0.0000  0.0000  0.0000  0.0000 </r>
        <r>  0.2143  0.0027  0.0000  0.0000  0.0000  0.0000  0.0000  0.0000  0.0000 </r>
       </set>
       <set comment="band 2">
        <r>  0.0846  0.1598  0.0000  0.0000  0.0000  0.0000  0.0000  0.0000  0.0000 </r>
        <r>  0.0846  0.1598  0.0000  0.0000  0.0000  0.0000  0.0000  0.0000  0.0000 </r>
       </set>
       <set comment="band 3">
        <r>  0.0000  0.0000  0.1041  0.1041  0.0000  0.0000  0.0000  0.0000  0.0000 </r>
        <r>  0.0000  0.0000  0.1041  0.1041  0.0000  0.0000  0.0000  0.0000  0.0000 </r>
       </set>
       <set comment="band 4">
        <r>  0.0000  0.0000  0.1041  0.1041  0.0000  0.0000  0.0000  0.0000  0.0000 </r>
        <r>  0.0000  0.0000  0.1041  0.1041  0.0000  0.0000  0.0000  0.0000  0.0000 </r>
       </set>
       <set comment="band 5">
        <r>  0.0187  0.1224  0.0000  0.0000  0.0000  0.0000  0.0000  0.0000  0.0000 </r>
        <r>  0.0187  0.1224  0.0000  0.0000  0.0000  0.0000  0.0000  0.0000  0.0000 </r>
       </set>
       <set comment="band 6">
        <r>  0.0000  0.0000  0.0832  0.0807  0.0000  0.0000  0.0000  0.0000  0.0000 </r>
        <r>  0.0000  0.0000  0.0831  0.0808  0.0000  0.0000  0.0000  0.0000  0.0000 </r>
       </set>
       <set comment="band 7">
        <r>  0.0000  0.0000  0.0807  0.0832  0.0000  0.0000  0.0000  0.0000  0.0000 </r>
        <r>  0.0000  0.0000  0.0808  0.0831  0.0000  0.0000  0.0000  0.0000  0.0000 </r>
       </set>
       <set comment="band 8">
        <r>  0.2333  0.0675  0.0000  0.0000  0.0000  0.0000  0.0000  0.0000  0.0000 </r>
        <r>  0.2333  0.0674  0.0000  0.0000  0.0000  0.0000  0.0000  0.0000  0.0000 </r>
       </set>
      </set>
      <set comment="kpoint 51">
       <set comment="band 1">
        <r>  0.2140  0.0033  0.0000  0.0000  0.0000  0.0000  0.0000  0.0000  0.0000 </r>
        <r>  0.2140  0.0033  0.0000  0.0000  0.0000  0.0000  0.0000  0.0000  0.0000 </r>
       </set>
       <set comment="band 2">
        <r>  0.0940  0.1528  0.0000  0.0000  0.0000  0.0000  0.0000  0.0000  0.0000 </r>
        <r>  0.0940  0.1528  0.0000  0.0000  0.0000  0.0000  0.0000  0.0000  0.0000 </r>
       </set>
       <set comment="band 3">
        <r>  0.0000  0.0000  0.1035  0.1036  0.0000  0.0000  0.0000  0.0000  0.0000 </r>
        <r>  0.0000  0.0000  0.1035  0.1036  0.0000  0.0000  0.0000  0.0000  0.0000 </r>
       </set>
       <set comment="band 4">
        <r>  0.0000  0.0000  0.1036  0.1035  0.0000  0.0000  0.0000  0.0000  0.0000 </r>
        <r>  0.0000  0.0000  0.1036  0.1035  0.0000  0.0000  0.0000  0.0000  0.0000 </r>
       </set>
       <set comment="band 5">
        <r>  0.0217  0.1173  0.0000  0.0000  0.0000  0.0000  0.0000  0.0000  0.0000 </r>
        <r>  0.0217  0.1173  0.0000  0.0000  0.0000  0.0000  0.0000  0.0000  0.0000 </r>
       </set>
       <set comment="band 6">
        <r>  0.0000  0.0000  0.0781  0.0867  0.0000  0.0000  0.0000  0.0000  0.0000 </r>
        <r>  0.0000  0.0000  0.1026  0.0623  0.0000  0.0000  0.0000  0.0000  0.0000 </r>
       </set>
       <set comment="band 7">
        <r>  0.0000  0.0000  0.0867  0.0781  0.0000  0.0000  0.0000  0.0000  0.0000 </r>
        <r>  0.0000  0.0000  0.0622  0.1026  0.0000  0.0000  0.0000  0.0000  0.0000 </r>
       </set>
       <set comment="band 8">
        <r>  0.1989  0.0699  0.0000  0.0000  0.0000  0.0000  0.0000  0.0000  0.0000 </r>
        <r>  0.1989  0.0699  0.0000  0.0000  0.0000  0.0000  0.0000  0.0000  0.0000 </r>
       </set>
      </set>
      <set comment="kpoint 52">
       <set comment="band 1">
        <r>  0.2137  0.0040  0.0000  0.0000  0.0000  0.0000  0.0000  0.0000  0.0000 </r>
        <r>  0.2137  0.0040  0.0000  0.0000  0.0000  0.0000  0.0000  0.0000  0.0000 </r>
       </set>
       <set comment="band 2">
        <r>  0.1027  0.1464  0.0000  0.0000  0.0000  0.0000  0.0000  0.0000  0.0000 </r>
        <r>  0.1027  0.1464  0.0000  0.0000  0.0000  0.0000  0.0000  0.0000  0.0000 </r>
       </set>
       <set comment="band 3">
        <r>  0.0000  0.0000  0.1031  0.1031  0.0000  0.0000  0.0000  0.0000  0.0000 </r>
        <r>  0.0000  0.0000  0.1031  0.1031  0.0000  0.0000  0.0000  0.0000  0.0000 </r>
       </set>
       <set comment="band 4">
        <r>  0.0000  0.0000  0.1031  0.1031  0.0000  0.0000  0.0000  0.0000  0.0000 </r>
        <r>  0.0000  0.0000  0.1031  0.1031  0.0000  0.0000  0.0000  0.0000  0.0000 </r>
       </set>
       <set comment="band 5">
        <r>  0.0246  0.1124  0.0000  0.0000  0.0000  0.0000  0.0000  0.0000  0.0000 </r>
        <r>  0.0246  0.1124  0.0000  0.0000  0.0000  0.0000  0.0000  0.0000  0.0000 </r>
       </set>
       <set comment="band 6">
        <r>  0.0000  0.0000  0.0753  0.0903  0.0000  0.0000  0.0000  0.0000  0.0000 </r>
        <r>  0.0000  0.0000  0.0945  0.0711  0.0000  0.0000  0.0000  0.0000  0.0000 </r>
       </set>
       <set comment="band 7">
        <r>  0.0000  0.0000  0.0903  0.0753  0.0000  0.0000  0.0000  0.0000  0.0000 </r>
        <r>  0.0000  0.0000  0.0711  0.0945  0.0000  0.0000  0.0000  0.0000  0.0000 </r>
       </set>
       <set comment="band 8">
        <r>  0.1611  0.0678  0.0000  0.0000  0.0000  0.0000  0.0000  0.0000  0.0000 </r>
        <r>  0.1611  0.0678  0.0000  0.0000  0.0000  0.0000  0.0000  0.0000  0.0000 </r>
       </set>
      </set>
      <set comment="kpoint 53">
       <set comment="band 1">
        <r>  0.2133  0.0048  0.0000  0.0000  0.0000  0.0000  0.0000  0.0000  0.0000 </r>
        <r>  0.2133  0.0048  0.0000  0.0000  0.0000  0.0000  0.0000  0.0000  0.0000 </r>
       </set>
       <set comment="band 2">
        <r>  0.1106  0.1404  0.0000  0.0000  0.0000  0.0000  0.0000  0.0000  0.0000 </r>
        <r>  0.1106  0.1404  0.0000  0.0000  0.0000  0.0000  0.0000  0.0000  0.0000 </r>
       </set>
       <set comment="band 3">
        <r>  0.0000  0.0000  0.1027  0.1027  0.0000  0.0000  0.0000  0.0000  0.0000 </r>
        <r>  0.0000  0.0000  0.1027  0.1027  0.0000  0.0000  0.0000  0.0000  0.0000 </r>
       </set>
       <set comment="band 4">
        <r>  0.0000  0.0000  0.1027  0.1027  0.0000  0.0000  0.0000  0.0000  0.0000 </r>
        <r>  0.0000  0.0000  0.1027  0.1027  0.0000  0.0000  0.0000  0.0000  0.0000 </r>
       </set>
       <set comment="band 5">
        <r>  0.0274  0.1076  0.0000  0.0000  0.0000  0.0000  0.0000  0.0000  0.0000 </r>
        <r>  0.0274  0.1076  0.0000  0.0000  0.0000  0.0000  0.0000  0.0000  0.0000 </r>
       </set>
       <set comment="band 6">
        <r>  0.0000  0.0000  0.0301  0.1361  0.0000  0.0000  0.0000  0.0000  0.0000 </r>
        <r>  0.0000  0.0000  0.1337  0.0325  0.0000  0.0000  0.0000  0.0000  0.0000 </r>
       </set>
       <set comment="band 7">
        <r>  0.0000  0.0000  0.1361  0.0301  0.0000  0.0000  0.0000  0.0000  0.0000 </r>
        <r>  0.0000  0.0000  0.0325  0.1337  0.0000  0.0000  0.0000  0.0000  0.0000 </r>
       </set>
       <set comment="band 8">
        <r>  0.1268  0.0625  0.0000  0.0000  0.0000  0.0000  0.0000  0.0000  0.0000 </r>
        <r>  0.1268  0.0625  0.0000  0.0000  0.0000  0.0000  0.0000  0.0000  0.0000 </r>
       </set>
      </set>
      <set comment="kpoint 54">
       <set comment="band 1">
        <r>  0.2129  0.0056  0.0000  0.0000  0.0000  0.0000  0.0000  0.0000  0.0000 </r>
        <r>  0.2129  0.0056  0.0000  0.0000  0.0000  0.0000  0.0000  0.0000  0.0000 </r>
       </set>
       <set comment="band 2">
        <r>  0.1179  0.1348  0.0000  0.0000  0.0000  0.0000  0.0000  0.0000  0.0000 </r>
        <r>  0.1179  0.1348  0.0000  0.0000  0.0000  0.0000  0.0000  0.0000  0.0000 </r>
       </set>
       <set comment="band 3">
        <r>  0.0000  0.0000  0.1024  0.1024  0.0000  0.0000  0.0000  0.0000  0.0000 </r>
        <r>  0.0000  0.0000  0.1024  0.1024  0.0000  0.0000  0.0000  0.0000  0.0000 </r>
       </set>
       <set comment="band 4">
        <r>  0.0000  0.0000  0.1024  0.1024  0.0000  0.0000  0.0000  0.0000  0.0000 </r>
        <r>  0.0000  0.0000  0.1024  0.1024  0.0000  0.0000  0.0000  0.0000  0.0000 </r>
       </set>
       <set comment="band 5">
        <r>  0.0300  0.1029  0.0000  0.0000  0.0000  0.0000  0.0000  0.0000  0.0000 </r>
        <r>  0.0300  0.1029  0.0000  0.0000  0.0000  0.0000  0.0000  0.0000  0.0000 </r>
       </set>
       <set comment="band 6">
        <r>  0.0000  0.0000  0.1105  0.0561  0.0000  0.0000  0.0000  0.0000  0.0000 </r>
        <r>  0.0000  0.0000  0.0500  0.1166  0.0000  0.0000  0.0000  0.0000  0.0000 </r>
       </set>
       <set comment="band 7">
        <r>  0.0000  0.0000  0.0561  0.1105  0.0000  0.0000  0.0000  0.0000  0.0000 </r>
        <r>  0.0000  0.0000  0.1166  0.0500  0.0000  0.0000  0.0000  0.0000  0.0000 </r>
       </set>
       <set comment="band 8">
        <r>  0.0999  0.0563  0.0000  0.0000  0.0000  0.0000  0.0000  0.0000  0.0000 </r>
        <r>  0.0999  0.0563  0.0000  0.0000  0.0000  0.0000  0.0000  0.0000  0.0000 </r>
       </set>
      </set>
      <set comment="kpoint 55">
       <set comment="band 1">
        <r>  0.2124  0.0065  0.0000  0.0000  0.0000  0.0000  0.0000  0.0000  0.0000 </r>
        <r>  0.2124  0.0065  0.0000  0.0000  0.0000  0.0000  0.0000  0.0000  0.0000 </r>
       </set>
       <set comment="band 2">
        <r>  0.1245  0.1295  0.0000  0.0000  0.0000  0.0000  0.0000  0.0000  0.0000 </r>
        <r>  0.1245  0.1295  0.0000  0.0000  0.0000  0.0000  0.0000  0.0000  0.0000 </r>
       </set>
       <set comment="band 3">
        <r>  0.0000  0.0000  0.1021  0.1022  0.0000  0.0000  0.0000  0.0000  0.0000 </r>
        <r>  0.0000  0.0000  0.1021  0.1022  0.0000  0.0000  0.0000  0.0000  0.0000 </r>
       </set>
       <set comment="band 4">
        <r>  0.0000  0.0000  0.1022  0.1021  0.0000  0.0000  0.0000  0.0000  0.0000 </r>
        <r>  0.0000  0.0000  0.1022  0.1021  0.0000  0.0000  0.0000  0.0000  0.0000 </r>
       </set>
       <set comment="band 5">
        <r>  0.0326  0.0984  0.0000  0.0000  0.0000  0.0000  0.0000  0.0000  0.0000 </r>
        <r>  0.0326  0.0984  0.0000  0.0000  0.0000  0.0000  0.0000  0.0000  0.0000 </r>
       </set>
       <set comment="band 6">
        <r>  0.0812  0.0508  0.0000  0.0000  0.0000  0.0000  0.0000  0.0000  0.0000 </r>
        <r>  0.0812  0.0508  0.0000  0.0000  0.0000  0.0000  0.0000  0.0000  0.0000 </r>
       </set>
       <set comment="band 7">
        <r>  0.0000  0.0000  0.0864  0.0805  0.0000  0.0000  0.0000  0.0000  0.0000 </r>
        <r>  0.0000  0.0000  0.0814  0.0855  0.0000  0.0000  0.0000  0.0000  0.0000 </r>
       </set>
       <set comment="band 8">
        <r>  0.0000  0.0000  0.0805  0.0864  0.0000  0.0000  0.0000  0.0000  0.0000 </r>
        <r>  0.0000  0.0000  0.0855  0.0814  0.0000  0.0000  0.0000  0.0000  0.0000 </r>
       </set>
      </set>
      <set comment="kpoint 56">
       <set comment="band 1">
        <r>  0.2120  0.0075  0.0000  0.0000  0.0000  0.0000  0.0000  0.0000  0.0000 </r>
        <r>  0.2120  0.0075  0.0000  0.0000  0.0000  0.0000  0.0000  0.0000  0.0000 </r>
       </set>
       <set comment="band 2">
        <r>  0.1306  0.1246  0.0000  0.0000  0.0000  0.0000  0.0000  0.0000  0.0000 </r>
        <r>  0.1306  0.1246  0.0000  0.0000  0.0000  0.0000  0.0000  0.0000  0.0000 </r>
       </set>
       <set comment="band 3">
        <r>  0.0000  0.0000  0.1019  0.1019  0.0000  0.0000  0.0000  0.0000  0.0000 </r>
        <r>  0.0000  0.0000  0.1019  0.1019  0.0000  0.0000  0.0000  0.0000  0.0000 </r>
       </set>
       <set comment="band 4">
        <r>  0.0000  0.0000  0.1019  0.1019  0.0000  0.0000  0.0000  0.0000  0.0000 </r>
        <r>  0.0000  0.0000  0.1019  0.1019  0.0000  0.0000  0.0000  0.0000  0.0000 </r>
       </set>
       <set comment="band 5">
        <r>  0.0350  0.0940  0.0000  0.0000  0.0000  0.0000  0.0000  0.0000  0.0000 </r>
        <r>  0.0350  0.0940  0.0000  0.0000  0.0000  0.0000  0.0000  0.0000  0.0000 </r>
       </set>
       <set comment="band 6">
        <r>  0.0683  0.0462  0.0000  0.0000  0.0000  0.0000  0.0000  0.0000  0.0000 </r>
        <r>  0.0683  0.0462  0.0000  0.0000  0.0000  0.0000  0.0000  0.0000  0.0000 </r>
       </set>
       <set comment="band 7">
        <r>  0.0000  0.0000  0.0222  0.1449  0.0000  0.0000  0.0000  0.0000  0.0000 </r>
        <r>  0.0000  0.0000  0.1489  0.0182  0.0000  0.0000  0.0000  0.0000  0.0000 </r>
       </set>
       <set comment="band 8">
        <r>  0.0000  0.0000  0.1449  0.0222  0.0000  0.0000  0.0000  0.0000  0.0000 </r>
        <r>  0.0000  0.0000  0.0182  0.1489  0.0000  0.0000  0.0000  0.0000  0.0000 </r>
       </set>
      </set>
      <set comment="kpoint 57">
       <set comment="band 1">
        <r>  0.2115  0.0085  0.0000  0.0000  0.0000  0.0000  0.0000  0.0000  0.0000 </r>
        <r>  0.2115  0.0085  0.0000  0.0000  0.0000  0.0000  0.0000  0.0000  0.0000 </r>
       </set>
       <set comment="band 2">
        <r>  0.1363  0.1199  0.0000  0.0000  0.0000  0.0000  0.0000  0.0000  0.0000 </r>
        <r>  0.1363  0.1199  0.0000  0.0000  0.0000  0.0000  0.0000  0.0000  0.0000 </r>
       </set>
       <set comment="band 3">
        <r>  0.0000  0.0000  0.1017  0.1017  0.0000  0.0000  0.0000  0.0000  0.0000 </r>
        <r>  0.0000  0.0000  0.1017  0.1017  0.0000  0.0000  0.0000  0.0000  0.0000 </r>
       </set>
       <set comment="band 4">
        <r>  0.0000  0.0000  0.1017  0.1017  0.0000  0.0000  0.0000  0.0000  0.0000 </r>
        <r>  0.0000  0.0000  0.1017  0.1017  0.0000  0.0000  0.0000  0.0000  0.0000 </r>
       </set>
       <set comment="band 5">
        <r>  0.0373  0.0898  0.0000  0.0000  0.0000  0.0000  0.0000  0.0000  0.0000 </r>
        <r>  0.0373  0.0898  0.0000  0.0000  0.0000  0.0000  0.0000  0.0000  0.0000 </r>
       </set>
       <set comment="band 6">
        <r>  0.0595  0.0425  0.0000  0.0000  0.0000  0.0000  0.0000  0.0000  0.0000 </r>
        <r>  0.0595  0.0425  0.0000  0.0000  0.0000  0.0000  0.0000  0.0000  0.0000 </r>
       </set>
       <set comment="band 7">
        <r>  0.0000  0.0000  0.0862  0.0813  0.0000  0.0000  0.0000  0.0000  0.0000 </r>
        <r>  0.0000  0.0000  0.0814  0.0862  0.0000  0.0000  0.0000  0.0000  0.0000 </r>
       </set>
       <set comment="band 8">
        <r>  0.0000  0.0000  0.0813  0.0862  0.0000  0.0000  0.0000  0.0000  0.0000 </r>
        <r>  0.0000  0.0000  0.0862  0.0814  0.0000  0.0000  0.0000  0.0000  0.0000 </r>
       </set>
      </set>
      <set comment="kpoint 58">
       <set comment="band 1">
        <r>  0.2110  0.0096  0.0000  0.0000  0.0000  0.0000  0.0000  0.0000  0.0000 </r>
        <r>  0.2110  0.0096  0.0000  0.0000  0.0000  0.0000  0.0000  0.0000  0.0000 </r>
       </set>
       <set comment="band 2">
        <r>  0.1413  0.1153  0.0000  0.0000  0.0000  0.0000  0.0000  0.0000  0.0000 </r>
        <r>  0.1413  0.1153  0.0000  0.0000  0.0000  0.0000  0.0000  0.0000  0.0000 </r>
       </set>
       <set comment="band 3">
        <r>  0.0000  0.0000  0.1016  0.1016  0.0000  0.0000  0.0000  0.0000  0.0000 </r>
        <r>  0.0000  0.0000  0.1016  0.1016  0.0000  0.0000  0.0000  0.0000  0.0000 </r>
       </set>
       <set comment="band 4">
        <r>  0.0000  0.0000  0.1016  0.1016  0.0000  0.0000  0.0000  0.0000  0.0000 </r>
        <r>  0.0000  0.0000  0.1016  0.1016  0.0000  0.0000  0.0000  0.0000  0.0000 </r>
       </set>
       <set comment="band 5">
        <r>  0.0394  0.0858  0.0000  0.0000  0.0000  0.0000  0.0000  0.0000  0.0000 </r>
        <r>  0.0394  0.0858  0.0000  0.0000  0.0000  0.0000  0.0000  0.0000  0.0000 </r>
       </set>
       <set comment="band 6">
        <r>  0.0534  0.0392  0.0000  0.0000  0.0000  0.0000  0.0000  0.0000  0.0000 </r>
        <r>  0.0534  0.0392  0.0000  0.0000  0.0000  0.0000  0.0000  0.0000  0.0000 </r>
       </set>
       <set comment="band 7">
        <r>  0.0000  0.0000  0.0723  0.0952  0.0000  0.0000  0.0000  0.0000  0.0000 </r>
        <r>  0.0000  0.0000  0.0948  0.0728  0.0000  0.0000  0.0000  0.0000  0.0000 </r>
       </set>
       <set comment="band 8">
        <r>  0.0000  0.0000  0.0952  0.0723  0.0000  0.0000  0.0000  0.0000  0.0000 </r>
        <r>  0.0000  0.0000  0.0728  0.0948  0.0000  0.0000  0.0000  0.0000  0.0000 </r>
       </set>
      </set>
      <set comment="kpoint 59">
       <set comment="band 1">
        <r>  0.2105  0.0107  0.0000  0.0000  0.0000  0.0000  0.0000  0.0000  0.0000 </r>
        <r>  0.2105  0.0107  0.0000  0.0000  0.0000  0.0000  0.0000  0.0000  0.0000 </r>
       </set>
       <set comment="band 2">
        <r>  0.1461  0.1112  0.0000  0.0000  0.0000  0.0000  0.0000  0.0000  0.0000 </r>
        <r>  0.1461  0.1112  0.0000  0.0000  0.0000  0.0000  0.0000  0.0000  0.0000 </r>
       </set>
       <set comment="band 3">
        <r>  0.0000  0.0000  0.1014  0.1014  0.0000  0.0000  0.0000  0.0000  0.0000 </r>
        <r>  0.0000  0.0000  0.1014  0.1014  0.0000  0.0000  0.0000  0.0000  0.0000 </r>
       </set>
       <set comment="band 4">
        <r>  0.0000  0.0000  0.1014  0.1014  0.0000  0.0000  0.0000  0.0000  0.0000 </r>
        <r>  0.0000  0.0000  0.1014  0.1014  0.0000  0.0000  0.0000  0.0000  0.0000 </r>
       </set>
       <set comment="band 5">
        <r>  0.0413  0.0821  0.0000  0.0000  0.0000  0.0000  0.0000  0.0000  0.0000 </r>
        <r>  0.0413  0.0821  0.0000  0.0000  0.0000  0.0000  0.0000  0.0000  0.0000 </r>
       </set>
       <set comment="band 6">
        <r>  0.0492  0.0368  0.0000  0.0000  0.0000  0.0000  0.0000  0.0000  0.0000 </r>
        <r>  0.0492  0.0368  0.0000  0.0000  0.0000  0.0000  0.0000  0.0000  0.0000 </r>
       </set>
       <set comment="band 7">
        <r>  0.0000  0.0000  0.1010  0.0666  0.0000  0.0000  0.0000  0.0000  0.0000 </r>
        <r>  0.0000  0.0000  0.0674  0.1002  0.0000  0.0000  0.0000  0.0000  0.0000 </r>
       </set>
       <set comment="band 8">
        <r>  0.0000  0.0000  0.0666  0.1010  0.0000  0.0000  0.0000  0.0000  0.0000 </r>
        <r>  0.0000  0.0000  0.1001  0.0674  0.0000  0.0000  0.0000  0.0000  0.0000 </r>
       </set>
      </set>
      <set comment="kpoint 60">
       <set comment="band 1">
        <r>  0.2099  0.0119  0.0000  0.0000  0.0000  0.0000  0.0000  0.0000  0.0000 </r>
        <r>  0.2099  0.0119  0.0000  0.0000  0.0000  0.0000  0.0000  0.0000  0.0000 </r>
       </set>
       <set comment="band 2">
        <r>  0.1505  0.1072  0.0000  0.0000  0.0000  0.0000  0.0000  0.0000  0.0000 </r>
        <r>  0.1505  0.1072  0.0000  0.0000  0.0000  0.0000  0.0000  0.0000  0.0000 </r>
       </set>
       <set comment="band 3">
        <r>  0.0000  0.0000  0.1013  0.1013  0.0000  0.0000  0.0000  0.0000  0.0000 </r>
        <r>  0.0000  0.0000  0.1013  0.1013  0.0000  0.0000  0.0000  0.0000  0.0000 </r>
       </set>
       <set comment="band 4">
        <r>  0.0000  0.0000  0.1013  0.1013  0.0000  0.0000  0.0000  0.0000  0.0000 </r>
        <r>  0.0000  0.0000  0.1013  0.1013  0.0000  0.0000  0.0000  0.0000  0.0000 </r>
       </set>
       <set comment="band 5">
        <r>  0.0431  0.0784  0.0000  0.0000  0.0000  0.0000  0.0000  0.0000  0.0000 </r>
        <r>  0.0431  0.0784  0.0000  0.0000  0.0000  0.0000  0.0000  0.0000  0.0000 </r>
       </set>
       <set comment="band 6">
        <r>  0.0463  0.0348  0.0000  0.0000  0.0000  0.0000  0.0000  0.0000  0.0000 </r>
        <r>  0.0463  0.0348  0.0000  0.0000  0.0000  0.0000  0.0000  0.0000  0.0000 </r>
       </set>
       <set comment="band 7">
        <r>  0.0000  0.0000  0.0570  0.1103  0.0000  0.0000  0.0000  0.0000  0.0000 </r>
        <r>  0.0000  0.0000  0.1006  0.0667  0.0000  0.0000  0.0000  0.0000  0.0000 </r>
       </set>
       <set comment="band 8">
        <r>  0.0000  0.0000  0.1102  0.0571  0.0000  0.0000  0.0000  0.0000  0.0000 </r>
        <r>  0.0000  0.0000  0.0667  0.1006  0.0000  0.0000  0.0000  0.0000  0.0000 </r>
       </set>
      </set>
      <set comment="kpoint 61">
       <set comment="band 1">
        <r>  0.2093  0.0132  0.0000  0.0000  0.0000  0.0000  0.0000  0.0000  0.0000 </r>
        <r>  0.2093  0.0132  0.0000  0.0000  0.0000  0.0000  0.0000  0.0000  0.0000 </r>
       </set>
       <set comment="band 2">
        <r>  0.1545  0.1033  0.0000  0.0000  0.0000  0.0000  0.0000  0.0000  0.0000 </r>
        <r>  0.1545  0.1033  0.0000  0.0000  0.0000  0.0000  0.0000  0.0000  0.0000 </r>
       </set>
       <set comment="band 3">
        <r>  0.0000  0.0000  0.1012  0.1012  0.0000  0.0000  0.0000  0.0000  0.0000 </r>
        <r>  0.0000  0.0000  0.1012  0.1012  0.0000  0.0000  0.0000  0.0000  0.0000 </r>
       </set>
       <set comment="band 4">
        <r>  0.0000  0.0000  0.1012  0.1012  0.0000  0.0000  0.0000  0.0000  0.0000 </r>
        <r>  0.0000  0.0000  0.1012  0.1012  0.0000  0.0000  0.0000  0.0000  0.0000 </r>
       </set>
       <set comment="band 5">
        <r>  0.0448  0.0748  0.0000  0.0000  0.0000  0.0000  0.0000  0.0000  0.0000 </r>
        <r>  0.0448  0.0748  0.0000  0.0000  0.0000  0.0000  0.0000  0.0000  0.0000 </r>
       </set>
       <set comment="band 6">
        <r>  0.0444  0.0332  0.0000  0.0000  0.0000  0.0000  0.0000  0.0000  0.0000 </r>
        <r>  0.0444  0.0332  0.0000  0.0000  0.0000  0.0000  0.0000  0.0000  0.0000 </r>
       </set>
       <set comment="band 7">
        <r>  0.0000  0.0000  0.1048  0.0622  0.0000  0.0000  0.0000  0.0000  0.0000 </r>
        <r>  0.0000  0.0000  0.0559  0.1111  0.0000  0.0000  0.0000  0.0000  0.0000 </r>
       </set>
       <set comment="band 8">
        <r>  0.0000  0.0000  0.0622  0.1048  0.0000  0.0000  0.0000  0.0000  0.0000 </r>
        <r>  0.0000  0.0000  0.1111  0.0559  0.0000  0.0000  0.0000  0.0000  0.0000 </r>
       </set>
      </set>
      <set comment="kpoint 62">
       <set comment="band 1">
        <r>  0.2087  0.0145  0.0000  0.0000  0.0000  0.0000  0.0000  0.0000  0.0000 </r>
        <r>  0.2087  0.0145  0.0000  0.0000  0.0000  0.0000  0.0000  0.0000  0.0000 </r>
       </set>
       <set comment="band 2">
        <r>  0.1582  0.0997  0.0000  0.0000  0.0000  0.0000  0.0000  0.0000  0.0000 </r>
        <r>  0.1582  0.0997  0.0000  0.0000  0.0000  0.0000  0.0000  0.0000  0.0000 </r>
       </set>
       <set comment="band 3">
        <r>  0.0000  0.0000  0.1012  0.1012  0.0000  0.0000  0.0000  0.0000  0.0000 </r>
        <r>  0.0000  0.0000  0.1012  0.1012  0.0000  0.0000  0.0000  0.0000  0.0000 </r>
       </set>
       <set comment="band 4">
        <r>  0.0000  0.0000  0.1012  0.1012  0.0000  0.0000  0.0000  0.0000  0.0000 </r>
        <r>  0.0000  0.0000  0.1012  0.1012  0.0000  0.0000  0.0000  0.0000  0.0000 </r>
       </set>
       <set comment="band 5">
        <r>  0.0463  0.0714  0.0000  0.0000  0.0000  0.0000  0.0000  0.0000  0.0000 </r>
        <r>  0.0463  0.0714  0.0000  0.0000  0.0000  0.0000  0.0000  0.0000  0.0000 </r>
       </set>
       <set comment="band 6">
        <r>  0.0431  0.0319  0.0000  0.0000  0.0000  0.0000  0.0000  0.0000  0.0000 </r>
        <r>  0.0431  0.0319  0.0000  0.0000  0.0000  0.0000  0.0000  0.0000  0.0000 </r>
       </set>
       <set comment="band 7">
        <r>  0.0000  0.0000  0.1490  0.0175  0.0000  0.0000  0.0000  0.0000  0.0000 </r>
        <r>  0.0000  0.0000  0.0332  0.1334  0.0000  0.0000  0.0000  0.0000  0.0000 </r>
       </set>
       <set comment="band 8">
        <r>  0.0000  0.0000  0.0175  0.1490  0.0000  0.0000  0.0000  0.0000  0.0000 </r>
        <r>  0.0000  0.0000  0.1334  0.0332  0.0000  0.0000  0.0000  0.0000  0.0000 </r>
       </set>
      </set>
      <set comment="kpoint 63">
       <set comment="band 1">
        <r>  0.2080  0.0159  0.0000  0.0000  0.0000  0.0000  0.0000  0.0000  0.0000 </r>
        <r>  0.2080  0.0159  0.0000  0.0000  0.0000  0.0000  0.0000  0.0000  0.0000 </r>
       </set>
       <set comment="band 2">
        <r>  0.1616  0.0961  0.0000  0.0000  0.0000  0.0000  0.0000  0.0000  0.0000 </r>
        <r>  0.1616  0.0961  0.0000  0.0000  0.0000  0.0000  0.0000  0.0000  0.0000 </r>
       </set>
       <set comment="band 3">
        <r>  0.0000  0.0000  0.1011  0.1011  0.0000  0.0000  0.0000  0.0000  0.0000 </r>
        <r>  0.0000  0.0000  0.1011  0.1011  0.0000  0.0000  0.0000  0.0000  0.0000 </r>
       </set>
       <set comment="band 4">
        <r>  0.0000  0.0000  0.1011  0.1011  0.0000  0.0000  0.0000  0.0000  0.0000 </r>
        <r>  0.0000  0.0000  0.1011  0.1011  0.0000  0.0000  0.0000  0.0000  0.0000 </r>
       </set>
       <set comment="band 5">
        <r>  0.0477  0.0682  0.0000  0.0000  0.0000  0.0000  0.0000  0.0000  0.0000 </r>
        <r>  0.0477  0.0682  0.0000  0.0000  0.0000  0.0000  0.0000  0.0000  0.0000 </r>
       </set>
       <set comment="band 6">
        <r>  0.0424  0.0308  0.0000  0.0000  0.0000  0.0000  0.0000  0.0000  0.0000 </r>
        <r>  0.0424  0.0308  0.0000  0.0000  0.0000  0.0000  0.0000  0.0000  0.0000 </r>
       </set>
       <set comment="band 7">
        <r>  0.0000  0.0000  0.1120  0.0541  0.0000  0.0000  0.0000  0.0000  0.0000 </r>
        <r>  0.0000  0.0000  0.0698  0.0963  0.0000  0.0000  0.0000  0.0000  0.0000 </r>
       </set>
       <set comment="band 8">
        <r>  0.0000  0.0000  0.0541  0.1120  0.0000  0.0000  0.0000  0.0000  0.0000 </r>
        <r>  0.0000  0.0000  0.0964  0.0698  0.0000  0.0000  0.0000  0.0000  0.0000 </r>
       </set>
      </set>
      <set comment="kpoint 64">
       <set comment="band 1">
        <r>  0.2073  0.0173  0.0000  0.0000  0.0000  0.0000  0.0000  0.0000  0.0000 </r>
        <r>  0.2073  0.0173  0.0000  0.0000  0.0000  0.0000  0.0000  0.0000  0.0000 </r>
       </set>
       <set comment="band 2">
        <r>  0.1647  0.0926  0.0000  0.0000  0.0000  0.0000  0.0000  0.0000  0.0000 </r>
        <r>  0.1647  0.0926  0.0000  0.0000  0.0000  0.0000  0.0000  0.0000  0.0000 </r>
       </set>
       <set comment="band 3">
        <r>  0.0000  0.0000  0.1010  0.1011  0.0000  0.0000  0.0000  0.0000  0.0000 </r>
        <r>  0.0000  0.0000  0.1010  0.1011  0.0000  0.0000  0.0000  0.0000  0.0000 </r>
       </set>
       <set comment="band 4">
        <r>  0.0000  0.0000  0.1010  0.1010  0.0000  0.0000  0.0000  0.0000  0.0000 </r>
        <r>  0.0000  0.0000  0.1010  0.1010  0.0000  0.0000  0.0000  0.0000  0.0000 </r>
       </set>
       <set comment="band 5">
        <r>  0.0490  0.0651  0.0000  0.0000  0.0000  0.0000  0.0000  0.0000  0.0000 </r>
        <r>  0.0490  0.0651  0.0000  0.0000  0.0000  0.0000  0.0000  0.0000  0.0000 </r>
       </set>
       <set comment="band 6">
        <r>  0.0421  0.0299  0.0000  0.0000  0.0000  0.0000  0.0000  0.0000  0.0000 </r>
        <r>  0.0421  0.0299  0.0000  0.0000  0.0000  0.0000  0.0000  0.0000  0.0000 </r>
       </set>
       <set comment="band 7">
        <r>  0.0000  0.0000  0.1093  0.0564  0.0000  0.0000  0.0000  0.0000  0.0000 </r>
        <r>  0.0000  0.0000  0.0844  0.0813  0.0000  0.0000  0.0000  0.0000  0.0000 </r>
       </set>
       <set comment="band 8">
        <r>  0.0000  0.0000  0.0563  0.1093  0.0000  0.0000  0.0000  0.0000  0.0000 </r>
        <r>  0.0000  0.0000  0.0812  0.0844  0.0000  0.0000  0.0000  0.0000  0.0000 </r>
       </set>
      </set>
      <set comment="kpoint 65">
       <set comment="band 1">
        <r>  0.2066  0.0188  0.0000  0.0000  0.0000  0.0000  0.0000  0.0000  0.0000 </r>
        <r>  0.2066  0.0188  0.0000  0.0000  0.0000  0.0000  0.0000  0.0000  0.0000 </r>
       </set>
       <set comment="band 2">
        <r>  0.1676  0.0893  0.0000  0.0000  0.0000  0.0000  0.0000  0.0000  0.0000 </r>
        <r>  0.1676  0.0893  0.0000  0.0000  0.0000  0.0000  0.0000  0.0000  0.0000 </r>
       </set>
       <set comment="band 3">
        <r>  0.0000  0.0000  0.1010  0.1010  0.0000  0.0000  0.0000  0.0000  0.0000 </r>
        <r>  0.0000  0.0000  0.1010  0.1010  0.0000  0.0000  0.0000  0.0000  0.0000 </r>
       </set>
       <set comment="band 4">
        <r>  0.0000  0.0000  0.1010  0.1010  0.0000  0.0000  0.0000  0.0000  0.0000 </r>
        <r>  0.0000  0.0000  0.1010  0.1010  0.0000  0.0000  0.0000  0.0000  0.0000 </r>
       </set>
       <set comment="band 5">
        <r>  0.0501  0.0621  0.0000  0.0000  0.0000  0.0000  0.0000  0.0000  0.0000 </r>
        <r>  0.0501  0.0621  0.0000  0.0000  0.0000  0.0000  0.0000  0.0000  0.0000 </r>
       </set>
       <set comment="band 6">
        <r>  0.0421  0.0292  0.0000  0.0000  0.0000  0.0000  0.0000  0.0000  0.0000 </r>
        <r>  0.0421  0.0292  0.0000  0.0000  0.0000  0.0000  0.0000  0.0000  0.0000 </r>
       </set>
       <set comment="band 7">
        <r>  0.0000  0.0000  0.0389  0.1262  0.0000  0.0000  0.0000  0.0000  0.0000 </r>
        <r>  0.0000  0.0000  0.0965  0.0686  0.0000  0.0000  0.0000  0.0000  0.0000 </r>
       </set>
       <set comment="band 8">
        <r>  0.0000  0.0000  0.1262  0.0389  0.0000  0.0000  0.0000  0.0000  0.0000 </r>
        <r>  0.0000  0.0000  0.0686  0.0965  0.0000  0.0000  0.0000  0.0000  0.0000 </r>
       </set>
      </set>
      <set comment="kpoint 66">
       <set comment="band 1">
        <r>  0.2060  0.0204  0.0000  0.0000  0.0000  0.0000  0.0000  0.0000  0.0000 </r>
        <r>  0.2060  0.0204  0.0000  0.0000  0.0000  0.0000  0.0000  0.0000  0.0000 </r>
       </set>
       <set comment="band 2">
        <r>  0.1703  0.0861  0.0000  0.0000  0.0000  0.0000  0.0000  0.0000  0.0000 </r>
        <r>  0.1703  0.0861  0.0000  0.0000  0.0000  0.0000  0.0000  0.0000  0.0000 </r>
       </set>
       <set comment="band 3">
        <r>  0.0000  0.0000  0.1010  0.1010  0.0000  0.0000  0.0000  0.0000  0.0000 </r>
        <r>  0.0000  0.0000  0.1010  0.1010  0.0000  0.0000  0.0000  0.0000  0.0000 </r>
       </set>
       <set comment="band 4">
        <r>  0.0000  0.0000  0.1010  0.1010  0.0000  0.0000  0.0000  0.0000  0.0000 </r>
        <r>  0.0000  0.0000  0.1010  0.1010  0.0000  0.0000  0.0000  0.0000  0.0000 </r>
       </set>
       <set comment="band 5">
        <r>  0.0510  0.0594  0.0000  0.0000  0.0000  0.0000  0.0000  0.0000  0.0000 </r>
        <r>  0.0510  0.0594  0.0000  0.0000  0.0000  0.0000  0.0000  0.0000  0.0000 </r>
       </set>
       <set comment="band 6">
        <r>  0.0424  0.0286  0.0000  0.0000  0.0000  0.0000  0.0000  0.0000  0.0000 </r>
        <r>  0.0424  0.0286  0.0000  0.0000  0.0000  0.0000  0.0000  0.0000  0.0000 </r>
       </set>
       <set comment="band 7">
        <r>  0.0000  0.0000  0.0578  0.1069  0.0000  0.0000  0.0000  0.0000  0.0000 </r>
        <r>  0.0000  0.0000  0.1083  0.0563  0.0000  0.0000  0.0000  0.0000  0.0000 </r>
       </set>
       <set comment="band 8">
        <r>  0.0000  0.0000  0.1069  0.0578  0.0000  0.0000  0.0000  0.0000  0.0000 </r>
        <r>  0.0000  0.0000  0.0563  0.1083  0.0000  0.0000  0.0000  0.0000  0.0000 </r>
       </set>
      </set>
      <set comment="kpoint 67">
       <set comment="band 1">
        <r>  0.2052  0.0220  0.0000  0.0000  0.0000  0.0000  0.0000  0.0000  0.0000 </r>
        <r>  0.2052  0.0220  0.0000  0.0000  0.0000  0.0000  0.0000  0.0000  0.0000 </r>
       </set>
       <set comment="band 2">
        <r>  0.1728  0.0829  0.0000  0.0000  0.0000  0.0000  0.0000  0.0000  0.0000 </r>
        <r>  0.1728  0.0829  0.0000  0.0000  0.0000  0.0000  0.0000  0.0000  0.0000 </r>
       </set>
       <set comment="band 3">
        <r>  0.0000  0.0000  0.1009  0.1010  0.0000  0.0000  0.0000  0.0000  0.0000 </r>
        <r>  0.0000  0.0000  0.1009  0.1010  0.0000  0.0000  0.0000  0.0000  0.0000 </r>
       </set>
       <set comment="band 4">
        <r>  0.0000  0.0000  0.1010  0.1009  0.0000  0.0000  0.0000  0.0000  0.0000 </r>
        <r>  0.0000  0.0000  0.1010  0.1009  0.0000  0.0000  0.0000  0.0000  0.0000 </r>
       </set>
       <set comment="band 5">
        <r>  0.0519  0.0567  0.0000  0.0000  0.0000  0.0000  0.0000  0.0000  0.0000 </r>
        <r>  0.0519  0.0567  0.0000  0.0000  0.0000  0.0000  0.0000  0.0000  0.0000 </r>
       </set>
       <set comment="band 6">
        <r>  0.0428  0.0282  0.0000  0.0000  0.0000  0.0000  0.0000  0.0000  0.0000 </r>
        <r>  0.0428  0.0282  0.0000  0.0000  0.0000  0.0000  0.0000  0.0000  0.0000 </r>
       </set>
       <set comment="band 7">
        <r>  0.0000  0.0000  0.0806  0.0834  0.0000  0.0000  0.0000  0.0000  0.0000 </r>
        <r>  0.0000  0.0000  0.0702  0.0939  0.0000  0.0000  0.0000  0.0000  0.0000 </r>
       </set>
       <set comment="band 8">
        <r>  0.0000  0.0000  0.0834  0.0806  0.0000  0.0000  0.0000  0.0000  0.0000 </r>
        <r>  0.0000  0.0000  0.0939  0.0702  0.0000  0.0000  0.0000  0.0000  0.0000 </r>
       </set>
      </set>
      <set comment="kpoint 68">
       <set comment="band 1">
        <r>  0.2044  0.0237  0.0000  0.0000  0.0000  0.0000  0.0000  0.0000  0.0000 </r>
        <r>  0.2044  0.0237  0.0000  0.0000  0.0000  0.0000  0.0000  0.0000  0.0000 </r>
       </set>
       <set comment="band 2">
        <r>  0.1750  0.0799  0.0000  0.0000  0.0000  0.0000  0.0000  0.0000  0.0000 </r>
        <r>  0.1750  0.0799  0.0000  0.0000  0.0000  0.0000  0.0000  0.0000  0.0000 </r>
       </set>
       <set comment="band 3">
        <r>  0.0000  0.0000  0.1009  0.1009  0.0000  0.0000  0.0000  0.0000  0.0000 </r>
        <r>  0.0000  0.0000  0.1009  0.1009  0.0000  0.0000  0.0000  0.0000  0.0000 </r>
       </set>
       <set comment="band 4">
        <r>  0.0000  0.0000  0.1009  0.1009  0.0000  0.0000  0.0000  0.0000  0.0000 </r>
        <r>  0.0000  0.0000  0.1009  0.1009  0.0000  0.0000  0.0000  0.0000  0.0000 </r>
       </set>
       <set comment="band 5">
        <r>  0.0527  0.0542  0.0000  0.0000  0.0000  0.0000  0.0000  0.0000  0.0000 </r>
        <r>  0.0527  0.0542  0.0000  0.0000  0.0000  0.0000  0.0000  0.0000  0.0000 </r>
       </set>
       <set comment="band 6">
        <r>  0.0434  0.0279  0.0000  0.0000  0.0000  0.0000  0.0000  0.0000  0.0000 </r>
        <r>  0.0434  0.0279  0.0000  0.0000  0.0000  0.0000  0.0000  0.0000  0.0000 </r>
       </set>
       <set comment="band 7">
        <r>  0.0000  0.0000  0.0934  0.0701  0.0000  0.0000  0.0000  0.0000  0.0000 </r>
        <r>  0.0000  0.0000  0.0570  0.1065  0.0000  0.0000  0.0000  0.0000  0.0000 </r>
       </set>
       <set comment="band 8">
        <r>  0.0000  0.0000  0.0701  0.0934  0.0000  0.0000  0.0000  0.0000  0.0000 </r>
        <r>  0.0000  0.0000  0.1065  0.0570  0.0000  0.0000  0.0000  0.0000  0.0000 </r>
       </set>
      </set>
      <set comment="kpoint 69">
       <set comment="band 1">
        <r>  0.2037  0.0254  0.0000  0.0000  0.0000  0.0000  0.0000  0.0000  0.0000 </r>
        <r>  0.2037  0.0254  0.0000  0.0000  0.0000  0.0000  0.0000  0.0000  0.0000 </r>
       </set>
       <set comment="band 2">
        <r>  0.1772  0.0769  0.0000  0.0000  0.0000  0.0000  0.0000  0.0000  0.0000 </r>
        <r>  0.1772  0.0769  0.0000  0.0000  0.0000  0.0000  0.0000  0.0000  0.0000 </r>
       </set>
       <set comment="band 3">
        <r>  0.0000  0.0000  0.1009  0.1009  0.0000  0.0000  0.0000  0.0000  0.0000 </r>
        <r>  0.0000  0.0000  0.1009  0.1009  0.0000  0.0000  0.0000  0.0000  0.0000 </r>
       </set>
       <set comment="band 4">
        <r>  0.0000  0.0000  0.1009  0.1009  0.0000  0.0000  0.0000  0.0000  0.0000 </r>
        <r>  0.0000  0.0000  0.1009  0.1009  0.0000  0.0000  0.0000  0.0000  0.0000 </r>
       </set>
       <set comment="band 5">
        <r>  0.0532  0.0519  0.0000  0.0000  0.0000  0.0000  0.0000  0.0000  0.0000 </r>
        <r>  0.0532  0.0519  0.0000  0.0000  0.0000  0.0000  0.0000  0.0000  0.0000 </r>
       </set>
       <set comment="band 6">
        <r>  0.0440  0.0277  0.0000  0.0000  0.0000  0.0000  0.0000  0.0000  0.0000 </r>
        <r>  0.0440  0.0277  0.0000  0.0000  0.0000  0.0000  0.0000  0.0000  0.0000 </r>
       </set>
       <set comment="band 7">
        <r>  0.0000  0.0000  0.0901  0.0728  0.0000  0.0000  0.0000  0.0000  0.0000 </r>
        <r>  0.0000  0.0000  0.0764  0.0865  0.0000  0.0000  0.0000  0.0000  0.0000 </r>
       </set>
       <set comment="band 8">
        <r>  0.0000  0.0000  0.0728  0.0902  0.0000  0.0000  0.0000  0.0000  0.0000 </r>
        <r>  0.0000  0.0000  0.0865  0.0764  0.0000  0.0000  0.0000  0.0000  0.0000 </r>
       </set>
      </set>
      <set comment="kpoint 70">
       <set comment="band 1">
        <r>  0.2029  0.0272  0.0000  0.0000  0.0000  0.0000  0.0000  0.0000  0.0000 </r>
        <r>  0.2029  0.0272  0.0000  0.0000  0.0000  0.0000  0.0000  0.0000  0.0000 </r>
       </set>
       <set comment="band 2">
        <r>  0.1791  0.0739  0.0000  0.0000  0.0000  0.0000  0.0000  0.0000  0.0000 </r>
        <r>  0.1791  0.0739  0.0000  0.0000  0.0000  0.0000  0.0000  0.0000  0.0000 </r>
       </set>
       <set comment="band 3">
        <r>  0.0000  0.0000  0.1009  0.1009  0.0000  0.0000  0.0000  0.0000  0.0000 </r>
        <r>  0.0000  0.0000  0.1009  0.1009  0.0000  0.0000  0.0000  0.0000  0.0000 </r>
       </set>
       <set comment="band 4">
        <r>  0.0000  0.0000  0.1009  0.1009  0.0000  0.0000  0.0000  0.0000  0.0000 </r>
        <r>  0.0000  0.0000  0.1009  0.1009  0.0000  0.0000  0.0000  0.0000  0.0000 </r>
       </set>
       <set comment="band 5">
        <r>  0.0537  0.0496  0.0000  0.0000  0.0000  0.0000  0.0000  0.0000  0.0000 </r>
        <r>  0.0537  0.0496  0.0000  0.0000  0.0000  0.0000  0.0000  0.0000  0.0000 </r>
       </set>
       <set comment="band 6">
        <r>  0.0448  0.0277  0.0000  0.0000  0.0000  0.0000  0.0000  0.0000  0.0000 </r>
        <r>  0.0448  0.0277  0.0000  0.0000  0.0000  0.0000  0.0000  0.0000  0.0000 </r>
       </set>
       <set comment="band 7">
        <r>  0.0000  0.0000  0.0917  0.0709  0.0000  0.0000  0.0000  0.0000  0.0000 </r>
        <r>  0.0000  0.0000  0.0508  0.1118  0.0000  0.0000  0.0000  0.0000  0.0000 </r>
       </set>
       <set comment="band 8">
        <r>  0.0000  0.0000  0.0710  0.0916  0.0000  0.0000  0.0000  0.0000  0.0000 </r>
        <r>  0.0000  0.0000  0.1117  0.0509  0.0000  0.0000  0.0000  0.0000  0.0000 </r>
       </set>
      </set>
      <set comment="kpoint 71">
       <set comment="band 1">
        <r>  0.2020  0.0290  0.0000  0.0000  0.0000  0.0000  0.0000  0.0000  0.0000 </r>
        <r>  0.2020  0.0290  0.0000  0.0000  0.0000  0.0000  0.0000  0.0000  0.0000 </r>
       </set>
       <set comment="band 2">
        <r>  0.1810  0.0711  0.0000  0.0000  0.0000  0.0000  0.0000  0.0000  0.0000 </r>
        <r>  0.1810  0.0711  0.0000  0.0000  0.0000  0.0000  0.0000  0.0000  0.0000 </r>
       </set>
       <set comment="band 3">
        <r>  0.0000  0.0000  0.1009  0.1009  0.0000  0.0000  0.0000  0.0000  0.0000 </r>
        <r>  0.0000  0.0000  0.1009  0.1009  0.0000  0.0000  0.0000  0.0000  0.0000 </r>
       </set>
       <set comment="band 4">
        <r>  0.0000  0.0000  0.1009  0.1009  0.0000  0.0000  0.0000  0.0000  0.0000 </r>
        <r>  0.0000  0.0000  0.1009  0.1009  0.0000  0.0000  0.0000  0.0000  0.0000 </r>
       </set>
       <set comment="band 5">
        <r>  0.0541  0.0475  0.0000  0.0000  0.0000  0.0000  0.0000  0.0000  0.0000 </r>
        <r>  0.0541  0.0475  0.0000  0.0000  0.0000  0.0000  0.0000  0.0000  0.0000 </r>
       </set>
       <set comment="band 6">
        <r>  0.0456  0.0277  0.0000  0.0000  0.0000  0.0000  0.0000  0.0000  0.0000 </r>
        <r>  0.0456  0.0277  0.0000  0.0000  0.0000  0.0000  0.0000  0.0000  0.0000 </r>
       </set>
       <set comment="band 7">
        <r>  0.0000  0.0000  0.0710  0.0916  0.0000  0.0000  0.0000  0.0000  0.0000 </r>
        <r>  0.0000  0.0000  0.0754  0.0872  0.0000  0.0000  0.0000  0.0000  0.0000 </r>
       </set>
       <set comment="band 8">
        <r>  0.0000  0.0000  0.0916  0.0710  0.0000  0.0000  0.0000  0.0000  0.0000 </r>
        <r>  0.0000  0.0000  0.0872  0.0754  0.0000  0.0000  0.0000  0.0000  0.0000 </r>
       </set>
      </set>
      <set comment="kpoint 72">
       <set comment="band 1">
        <r>  0.2012  0.0309  0.0000  0.0000  0.0000  0.0000  0.0000  0.0000  0.0000 </r>
        <r>  0.2012  0.0309  0.0000  0.0000  0.0000  0.0000  0.0000  0.0000  0.0000 </r>
       </set>
       <set comment="band 2">
        <r>  0.1827  0.0683  0.0000  0.0000  0.0000  0.0000  0.0000  0.0000  0.0000 </r>
        <r>  0.1827  0.0683  0.0000  0.0000  0.0000  0.0000  0.0000  0.0000  0.0000 </r>
       </set>
       <set comment="band 3">
        <r>  0.0000  0.0000  0.1009  0.1009  0.0000  0.0000  0.0000  0.0000  0.0000 </r>
        <r>  0.0000  0.0000  0.1009  0.1009  0.0000  0.0000  0.0000  0.0000  0.0000 </r>
       </set>
       <set comment="band 4">
        <r>  0.0000  0.0000  0.1009  0.1009  0.0000  0.0000  0.0000  0.0000  0.0000 </r>
        <r>  0.0000  0.0000  0.1009  0.1009  0.0000  0.0000  0.0000  0.0000  0.0000 </r>
       </set>
       <set comment="band 5">
        <r>  0.0544  0.0454  0.0000  0.0000  0.0000  0.0000  0.0000  0.0000  0.0000 </r>
        <r>  0.0544  0.0454  0.0000  0.0000  0.0000  0.0000  0.0000  0.0000  0.0000 </r>
       </set>
       <set comment="band 6">
        <r>  0.0465  0.0279  0.0000  0.0000  0.0000  0.0000  0.0000  0.0000  0.0000 </r>
        <r>  0.0465  0.0279  0.0000  0.0000  0.0000  0.0000  0.0000  0.0000  0.0000 </r>
       </set>
       <set comment="band 7">
        <r>  0.0000  0.0000  0.0617  0.1008  0.0000  0.0000  0.0000  0.0000  0.0000 </r>
        <r>  0.0000  0.0000  0.0792  0.0835  0.0000  0.0000  0.0000  0.0000  0.0000 </r>
       </set>
       <set comment="band 8">
        <r>  0.0000  0.0000  0.1009  0.0617  0.0000  0.0000  0.0000  0.0000  0.0000 </r>
        <r>  0.0000  0.0000  0.0834  0.0792  0.0000  0.0000  0.0000  0.0000  0.0000 </r>
       </set>
      </set>
      <set comment="kpoint 73">
       <set comment="band 1">
        <r>  0.2003  0.0329  0.0000  0.0000  0.0000  0.0000  0.0000  0.0000  0.0000 </r>
        <r>  0.2003  0.0329  0.0000  0.0000  0.0000  0.0000  0.0000  0.0000  0.0000 </r>
       </set>
       <set comment="band 2">
        <r>  0.1843  0.0656  0.0000  0.0000  0.0000  0.0000  0.0000  0.0000  0.0000 </r>
        <r>  0.1843  0.0656  0.0000  0.0000  0.0000  0.0000  0.0000  0.0000  0.0000 </r>
       </set>
       <set comment="band 3">
        <r>  0.0000  0.0000  0.1009  0.1009  0.0000  0.0000  0.0000  0.0000  0.0000 </r>
        <r>  0.0000  0.0000  0.1009  0.1009  0.0000  0.0000  0.0000  0.0000  0.0000 </r>
       </set>
       <set comment="band 4">
        <r>  0.0000  0.0000  0.1009  0.1009  0.0000  0.0000  0.0000  0.0000  0.0000 </r>
        <r>  0.0000  0.0000  0.1009  0.1009  0.0000  0.0000  0.0000  0.0000  0.0000 </r>
       </set>
       <set comment="band 5">
        <r>  0.0545  0.0435  0.0000  0.0000  0.0000  0.0000  0.0000  0.0000  0.0000 </r>
        <r>  0.0545  0.0435  0.0000  0.0000  0.0000  0.0000  0.0000  0.0000  0.0000 </r>
       </set>
       <set comment="band 6">
        <r>  0.0473  0.0282  0.0000  0.0000  0.0000  0.0000  0.0000  0.0000  0.0000 </r>
        <r>  0.0473  0.0282  0.0000  0.0000  0.0000  0.0000  0.0000  0.0000  0.0000 </r>
       </set>
       <set comment="band 7">
        <r>  0.0000  0.0000  0.0207  0.1424  0.0000  0.0000  0.0000  0.0000  0.0000 </r>
        <r>  0.0000  0.0000  0.1259  0.0372  0.0000  0.0000  0.0000  0.0000  0.0000 </r>
       </set>
       <set comment="band 8">
        <r>  0.0000  0.0000  0.1424  0.0207  0.0000  0.0000  0.0000  0.0000  0.0000 </r>
        <r>  0.0000  0.0000  0.0372  0.1259  0.0000  0.0000  0.0000  0.0000  0.0000 </r>
       </set>
      </set>
      <set comment="kpoint 74">
       <set comment="band 1">
        <r>  0.1994  0.0348  0.0000  0.0000  0.0000  0.0000  0.0000  0.0000  0.0000 </r>
        <r>  0.1994  0.0348  0.0000  0.0000  0.0000  0.0000  0.0000  0.0000  0.0000 </r>
       </set>
       <set comment="band 2">
        <r>  0.1858  0.0629  0.0000  0.0000  0.0000  0.0000  0.0000  0.0000  0.0000 </r>
        <r>  0.1858  0.0629  0.0000  0.0000  0.0000  0.0000  0.0000  0.0000  0.0000 </r>
       </set>
       <set comment="band 3">
        <r>  0.0000  0.0000  0.1009  0.1009  0.0000  0.0000  0.0000  0.0000  0.0000 </r>
        <r>  0.0000  0.0000  0.1009  0.1009  0.0000  0.0000  0.0000  0.0000  0.0000 </r>
       </set>
       <set comment="band 4">
        <r>  0.0000  0.0000  0.1009  0.1009  0.0000  0.0000  0.0000  0.0000  0.0000 </r>
        <r>  0.0000  0.0000  0.1009  0.1009  0.0000  0.0000  0.0000  0.0000  0.0000 </r>
       </set>
       <set comment="band 5">
        <r>  0.0545  0.0417  0.0000  0.0000  0.0000  0.0000  0.0000  0.0000  0.0000 </r>
        <r>  0.0545  0.0417  0.0000  0.0000  0.0000  0.0000  0.0000  0.0000  0.0000 </r>
       </set>
       <set comment="band 6">
        <r>  0.0482  0.0287  0.0000  0.0000  0.0000  0.0000  0.0000  0.0000  0.0000 </r>
        <r>  0.0482  0.0287  0.0000  0.0000  0.0000  0.0000  0.0000  0.0000  0.0000 </r>
       </set>
       <set comment="band 7">
        <r>  0.0000  0.0000  0.0645  0.0999  0.0000  0.0000  0.0000  0.0000  0.0000 </r>
        <r>  0.0000  0.0000  0.0946  0.0698  0.0000  0.0000  0.0000  0.0000  0.0000 </r>
       </set>
       <set comment="band 8">
        <r>  0.0000  0.0000  0.1000  0.0645  0.0000  0.0000  0.0000  0.0000  0.0000 </r>
        <r>  0.0000  0.0000  0.0698  0.0946  0.0000  0.0000  0.0000  0.0000  0.0000 </r>
       </set>
      </set>
      <set comment="kpoint 75">
       <set comment="band 1">
        <r>  0.1984  0.0369  0.0000  0.0000  0.0000  0.0000  0.0000  0.0000  0.0000 </r>
        <r>  0.1984  0.0369  0.0000  0.0000  0.0000  0.0000  0.0000  0.0000  0.0000 </r>
       </set>
       <set comment="band 2">
        <r>  0.1872  0.0603  0.0000  0.0000  0.0000  0.0000  0.0000  0.0000  0.0000 </r>
        <r>  0.1872  0.0603  0.0000  0.0000  0.0000  0.0000  0.0000  0.0000  0.0000 </r>
       </set>
       <set comment="band 3">
        <r>  0.0000  0.0000  0.1010  0.1010  0.0000  0.0000  0.0000  0.0000  0.0000 </r>
        <r>  0.0000  0.0000  0.1010  0.1010  0.0000  0.0000  0.0000  0.0000  0.0000 </r>
       </set>
       <set comment="band 4">
        <r>  0.0000  0.0000  0.1010  0.1010  0.0000  0.0000  0.0000  0.0000  0.0000 </r>
        <r>  0.0000  0.0000  0.1010  0.1010  0.0000  0.0000  0.0000  0.0000  0.0000 </r>
       </set>
       <set comment="band 5">
        <r>  0.0545  0.0401  0.0000  0.0000  0.0000  0.0000  0.0000  0.0000  0.0000 </r>
        <r>  0.0545  0.0401  0.0000  0.0000  0.0000  0.0000  0.0000  0.0000  0.0000 </r>
       </set>
       <set comment="band 6">
        <r>  0.0491  0.0292  0.0000  0.0000  0.0000  0.0000  0.0000  0.0000  0.0000 </r>
        <r>  0.0491  0.0292  0.0000  0.0000  0.0000  0.0000  0.0000  0.0000  0.0000 </r>
       </set>
       <set comment="band 7">
        <r>  0.0000  0.0000  0.1390  0.0282  0.0000  0.0000  0.0000  0.0000  0.0000 </r>
        <r>  0.0000  0.0000  0.0181  0.1491  0.0000  0.0000  0.0000  0.0000  0.0000 </r>
       </set>
       <set comment="band 8">
        <r>  0.0000  0.0000  0.0281  0.1389  0.0000  0.0000  0.0000  0.0000  0.0000 </r>
        <r>  0.0000  0.0000  0.1491  0.0180  0.0000  0.0000  0.0000  0.0000  0.0000 </r>
       </set>
      </set>
      <set comment="kpoint 76">
       <set comment="band 1">
        <r>  0.1975  0.0390  0.0000  0.0000  0.0000  0.0000  0.0000  0.0000  0.0000 </r>
        <r>  0.1975  0.0390  0.0000  0.0000  0.0000  0.0000  0.0000  0.0000  0.0000 </r>
       </set>
       <set comment="band 2">
        <r>  0.1886  0.0577  0.0000  0.0000  0.0000  0.0000  0.0000  0.0000  0.0000 </r>
        <r>  0.1886  0.0577  0.0000  0.0000  0.0000  0.0000  0.0000  0.0000  0.0000 </r>
       </set>
       <set comment="band 3">
        <r>  0.0000  0.0000  0.1010  0.1010  0.0000  0.0000  0.0000  0.0000  0.0000 </r>
        <r>  0.0000  0.0000  0.1010  0.1010  0.0000  0.0000  0.0000  0.0000  0.0000 </r>
       </set>
       <set comment="band 4">
        <r>  0.0000  0.0000  0.1010  0.1010  0.0000  0.0000  0.0000  0.0000  0.0000 </r>
        <r>  0.0000  0.0000  0.1010  0.1010  0.0000  0.0000  0.0000  0.0000  0.0000 </r>
       </set>
       <set comment="band 5">
        <r>  0.0543  0.0385  0.0000  0.0000  0.0000  0.0000  0.0000  0.0000  0.0000 </r>
        <r>  0.0543  0.0385  0.0000  0.0000  0.0000  0.0000  0.0000  0.0000  0.0000 </r>
       </set>
       <set comment="band 6">
        <r>  0.0499  0.0298  0.0000  0.0000  0.0000  0.0000  0.0000  0.0000  0.0000 </r>
        <r>  0.0499  0.0298  0.0000  0.0000  0.0000  0.0000  0.0000  0.0000  0.0000 </r>
       </set>
       <set comment="band 7">
        <r>  0.0000  0.0000  0.0986  0.0728  0.0000  0.0000  0.0000  0.0000  0.0000 </r>
        <r>  0.0000  0.0000  0.0395  0.1319  0.0000  0.0000  0.0000  0.0000  0.0000 </r>
       </set>
       <set comment="band 8">
        <r>  0.0000  0.0000  0.0728  0.0987  0.0000  0.0000  0.0000  0.0000  0.0000 </r>
        <r>  0.0000  0.0000  0.1319  0.0395  0.0000  0.0000  0.0000  0.0000  0.0000 </r>
       </set>
      </set>
      <set comment="kpoint 77">
       <set comment="band 1">
        <r>  0.1965  0.0411  0.0000  0.0000  0.0000  0.0000  0.0000  0.0000  0.0000 </r>
        <r>  0.1965  0.0411  0.0000  0.0000  0.0000  0.0000  0.0000  0.0000  0.0000 </r>
       </set>
       <set comment="band 2">
        <r>  0.1899  0.0552  0.0000  0.0000  0.0000  0.0000  0.0000  0.0000  0.0000 </r>
        <r>  0.1899  0.0552  0.0000  0.0000  0.0000  0.0000  0.0000  0.0000  0.0000 </r>
       </set>
       <set comment="band 3">
        <r>  0.0000  0.0000  0.1009  0.1009  0.0000  0.0000  0.0000  0.0000  0.0000 </r>
        <r>  0.0000  0.0000  0.1009  0.1009  0.0000  0.0000  0.0000  0.0000  0.0000 </r>
       </set>
       <set comment="band 4">
        <r>  0.0000  0.0000  0.1009  0.1009  0.0000  0.0000  0.0000  0.0000  0.0000 </r>
        <r>  0.0000  0.0000  0.1009  0.1009  0.0000  0.0000  0.0000  0.0000  0.0000 </r>
       </set>
       <set comment="band 5">
        <r>  0.0540  0.0370  0.0000  0.0000  0.0000  0.0000  0.0000  0.0000  0.0000 </r>
        <r>  0.0540  0.0370  0.0000  0.0000  0.0000  0.0000  0.0000  0.0000  0.0000 </r>
       </set>
       <set comment="band 6">
        <r>  0.0506  0.0306  0.0000  0.0000  0.0000  0.0000  0.0000  0.0000  0.0000 </r>
        <r>  0.0506  0.0306  0.0000  0.0000  0.0000  0.0000  0.0000  0.0000  0.0000 </r>
       </set>
       <set comment="band 7">
        <r>  0.0000  0.0000  0.0146  0.1648  0.0000  0.0000  0.0000  0.0000  0.0000 </r>
        <r>  0.0000  0.0000  0.1419  0.0374  0.0000  0.0000  0.0000  0.0000  0.0000 </r>
       </set>
       <set comment="band 8">
        <r>  0.0000  0.0000  0.1648  0.0146  0.0000  0.0000  0.0000  0.0000  0.0000 </r>
        <r>  0.0000  0.0000  0.0374  0.1419  0.0000  0.0000  0.0000  0.0000  0.0000 </r>
       </set>
      </set>
      <set comment="kpoint 78">
       <set comment="band 1">
        <r>  0.1955  0.0433  0.0000  0.0000  0.0000  0.0000  0.0000  0.0000  0.0000 </r>
        <r>  0.1955  0.0433  0.0000  0.0000  0.0000  0.0000  0.0000  0.0000  0.0000 </r>
       </set>
       <set comment="band 2">
        <r>  0.1911  0.0527  0.0000  0.0000  0.0000  0.0000  0.0000  0.0000  0.0000 </r>
        <r>  0.1911  0.0527  0.0000  0.0000  0.0000  0.0000  0.0000  0.0000  0.0000 </r>
       </set>
       <set comment="band 3">
        <r>  0.0000  0.0000  0.1009  0.1009  0.0000  0.0000  0.0000  0.0000  0.0000 </r>
        <r>  0.0000  0.0000  0.1009  0.1009  0.0000  0.0000  0.0000  0.0000  0.0000 </r>
       </set>
       <set comment="band 4">
        <r>  0.0000  0.0000  0.1009  0.1009  0.0000  0.0000  0.0000  0.0000  0.0000 </r>
        <r>  0.0000  0.0000  0.1009  0.1009  0.0000  0.0000  0.0000  0.0000  0.0000 </r>
       </set>
       <set comment="band 5">
        <r>  0.0536  0.0357  0.0000  0.0000  0.0000  0.0000  0.0000  0.0000  0.0000 </r>
        <r>  0.0536  0.0357  0.0000  0.0000  0.0000  0.0000  0.0000  0.0000  0.0000 </r>
       </set>
       <set comment="band 6">
        <r>  0.0514  0.0314  0.0000  0.0000  0.0000  0.0000  0.0000  0.0000  0.0000 </r>
        <r>  0.0514  0.0314  0.0000  0.0000  0.0000  0.0000  0.0000  0.0000  0.0000 </r>
       </set>
       <set comment="band 7">
        <r>  0.0000  0.0000  0.1464  0.0471  0.0000  0.0000  0.0000  0.0000  0.0000 </r>
        <r>  0.0000  0.0000  0.0411  0.1529  0.0000  0.0000  0.0000  0.0000  0.0000 </r>
       </set>
       <set comment="band 8">
        <r>  0.0000  0.0000  0.0468  0.1464  0.0000  0.0000  0.0000  0.0000  0.0000 </r>
        <r>  0.0000  0.0000  0.1523  0.0404  0.0000  0.0000  0.0000  0.0000  0.0000 </r>
       </set>
      </set>
      <set comment="kpoint 79">
       <set comment="band 1">
        <r>  0.1945  0.0456  0.0000  0.0000  0.0000  0.0000  0.0000  0.0000  0.0000 </r>
        <r>  0.1945  0.0456  0.0000  0.0000  0.0000  0.0000  0.0000  0.0000  0.0000 </r>
       </set>
       <set comment="band 2">
        <r>  0.1923  0.0503  0.0000  0.0000  0.0000  0.0000  0.0000  0.0000  0.0000 </r>
        <r>  0.1923  0.0503  0.0000  0.0000  0.0000  0.0000  0.0000  0.0000  0.0000 </r>
       </set>
       <set comment="band 3">
        <r>  0.0000  0.0000  0.1009  0.1009  0.0000  0.0000  0.0000  0.0000  0.0000 </r>
        <r>  0.0000  0.0000  0.1009  0.1009  0.0000  0.0000  0.0000  0.0000  0.0000 </r>
       </set>
       <set comment="band 4">
        <r>  0.0000  0.0000  0.1009  0.1009  0.0000  0.0000  0.0000  0.0000  0.0000 </r>
        <r>  0.0000  0.0000  0.1009  0.1009  0.0000  0.0000  0.0000  0.0000  0.0000 </r>
       </set>
       <set comment="band 5">
        <r>  0.0532  0.0345  0.0000  0.0000  0.0000  0.0000  0.0000  0.0000  0.0000 </r>
        <r>  0.0532  0.0345  0.0000  0.0000  0.0000  0.0000  0.0000  0.0000  0.0000 </r>
       </set>
       <set comment="band 6">
        <r>  0.0520  0.0323  0.0000  0.0000  0.0000  0.0000  0.0000  0.0000  0.0000 </r>
        <r>  0.0520  0.0323  0.0000  0.0000  0.0000  0.0000  0.0000  0.0000  0.0000 </r>
       </set>
       <set comment="band 7">
        <r>  0.0000  0.0000  0.0851  0.1344  0.0000  0.0000  0.0000  0.0000  0.0000 </r>
        <r>  0.0000  0.0000  0.1609  0.0589  0.0000  0.0000  0.0000  0.0000  0.0000 </r>
       </set>
       <set comment="band 8">
        <r>  0.0000  0.0000  0.1342  0.0858  0.0000  0.0000  0.0000  0.0000  0.0000 </r>
        <r>  0.0000  0.0000  0.0604  0.1602  0.0000  0.0000  0.0000  0.0000  0.0000 </r>
       </set>
      </set>
      <set comment="kpoint 80">
       <set comment="band 1">
        <r>  0.1974  0.0469  0.0000  0.0000  0.0000  0.0000  0.0000  0.0000  0.0000 </r>
        <r>  0.1894  0.0489  0.0000  0.0000  0.0000  0.0000  0.0000  0.0000  0.0000 </r>
       </set>
       <set comment="band 2">
        <r>  0.1894  0.0489  0.0000  0.0000  0.0000  0.0000  0.0000  0.0000  0.0000 </r>
        <r>  0.1974  0.0469  0.0000  0.0000  0.0000  0.0000  0.0000  0.0000  0.0000 </r>
       </set>
       <set comment="band 3">
        <r>  0.0000  0.0000  0.1009  0.1009  0.0000  0.0000  0.0000  0.0000  0.0000 </r>
        <r>  0.0000  0.0000  0.1009  0.1009  0.0000  0.0000  0.0000  0.0000  0.0000 </r>
       </set>
       <set comment="band 4">
        <r>  0.0000  0.0000  0.1009  0.1009  0.0000  0.0000  0.0000  0.0000  0.0000 </r>
        <r>  0.0000  0.0000  0.1009  0.1009  0.0000  0.0000  0.0000  0.0000  0.0000 </r>
       </set>
       <set comment="band 5">
        <r>  0.0530  0.0331  0.0000  0.0000  0.0000  0.0000  0.0000  0.0000  0.0000 </r>
        <r>  0.0523  0.0336  0.0000  0.0000  0.0000  0.0000  0.0000  0.0000  0.0000 </r>
       </set>
       <set comment="band 6">
        <r>  0.0523  0.0336  0.0000  0.0000  0.0000  0.0000  0.0000  0.0000  0.0000 </r>
        <r>  0.0530  0.0331  0.0000  0.0000  0.0000  0.0000  0.0000  0.0000  0.0000 </r>
       </set>
       <set comment="band 7">
        <r>  0.0000  0.0000  0.1658  0.0756  0.0000  0.0000  0.0000  0.0000  0.0000 </r>
        <r>  0.0000  0.0000  0.0748  0.1640  0.0000  0.0000  0.0000  0.0000  0.0000 </r>
       </set>
       <set comment="band 8">
        <r>  0.0000  0.0000  0.0768  0.1674  0.0000  0.0000  0.0000  0.0000  0.0000 </r>
        <r>  0.0000  0.0001  0.1622  0.0727  0.0000  0.0000  0.0000  0.0000  0.0000 </r>
       </set>
      </set>
     </set>
    </set>
   </array>
  </projected>
 </calculation>
 <structure name="finalpos" >
  <crystal>
   <varray name="basis" >
    <v>       0.00000000       2.68785000       2.68785000 </v>
    <v>       2.68785000       0.00000000       2.68785000 </v>
    <v>       2.68785000       2.68785000       0.00000000 </v>
   </varray>
   <i name="volume">     38.83694690 </i>
   <varray name="rec_basis" >
    <v>      -0.18602229       0.18602229       0.18602229 </v>
    <v>       0.18602229      -0.18602229       0.18602229 </v>
    <v>       0.18602229       0.18602229      -0.18602229 </v>
   </varray>
  </crystal>
  <varray name="positions" >
   <v>       0.00000000       0.00000000       0.00000000 </v>
   <v>       0.25000000       0.25000000       0.25000000 </v>
  </varray>
 </structure>
</modeling>
