generated by phonopy                    
   1.00000000000000     
     0.1086000000000000    5.4842999999999993    5.4842999999999993
     5.4842999999999993    0.1086000000000000    5.4842999999999993
     5.4842999999999993    5.4842999999999993    0.1086000000000000
   Si
    16
Direct
  0.9993448055174241  0.0006340082678093  0.0006340082478147
  0.5006340082852816  0.0006340082678093  0.0006340082478147
  0.0006340082852816  0.5006340082678093  0.0006340082478147
  0.5006340082852816  0.5006340082678093  0.0006340082478147
  0.0006340082852816  0.0006340082678093  0.5006340082478147
  0.5006340082852816  0.0006340082678093  0.5006340082478147
  0.0006340082852816  0.5006340082678093  0.5006340082478147
  0.5006340082852816  0.5006340082678093  0.5006340082478147
  0.1243659917147184  0.1243659917321907  0.1243659917521853
  0.6243659917147184  0.1243659917321907  0.1243659917521853
  0.1243659917147184  0.6243659917321907  0.1243659917521853
  0.6243659917147184  0.6243659917321907  0.1243659917521853
  0.1243659917147184  0.1243659917321907  0.6243659917521853
  0.6243659917147184  0.1243659917321907  0.6243659917521853
  0.1243659917147184  0.6243659917321907  0.6243659917521853
  0.6243659917147184  0.6243659917321907  0.6243659917521853
 
  0.00000000E+00  0.00000000E+00  0.00000000E+00
  0.00000000E+00  0.00000000E+00  0.00000000E+00
  0.00000000E+00  0.00000000E+00  0.00000000E+00
  0.00000000E+00  0.00000000E+00  0.00000000E+00
  0.00000000E+00  0.00000000E+00  0.00000000E+00
  0.00000000E+00  0.00000000E+00  0.00000000E+00
  0.00000000E+00  0.00000000E+00  0.00000000E+00
  0.00000000E+00  0.00000000E+00  0.00000000E+00
  0.00000000E+00  0.00000000E+00  0.00000000E+00
  0.00000000E+00  0.00000000E+00  0.00000000E+00
  0.00000000E+00  0.00000000E+00  0.00000000E+00
  0.00000000E+00  0.00000000E+00  0.00000000E+00
  0.00000000E+00  0.00000000E+00  0.00000000E+00
  0.00000000E+00  0.00000000E+00  0.00000000E+00
  0.00000000E+00  0.00000000E+00  0.00000000E+00
  0.00000000E+00  0.00000000E+00  0.00000000E+00
