generated by phonopy                    
   1.00000000000000     
     0.0543000000000000    5.4571499999999995    5.4571499999999995
     5.4571499999999995    0.0543000000000000    5.4571499999999995
     5.4571499999999995    5.4571499999999995    0.0543000000000000
   Si
    16
Direct
  0.9990305248461979  0.0003262365918246  0.0003262366405679
  0.5003262364898688  0.0003262365918246  0.0003262366405679
  0.0003262364898688  0.5003262365918246  0.0003262366405679
  0.5003262364898688  0.5003262365918246  0.0003262366405679
  0.0003262364898688  0.0003262365918246  0.5003262366405679
  0.5003262364898688  0.0003262365918246  0.5003262366405679
  0.0003262364898688  0.5003262365918246  0.5003262366405679
  0.5003262364898688  0.5003262365918246  0.5003262366405679
  0.1246737635101312  0.1246737634081754  0.1246737633594321
  0.6246737635101312  0.1246737634081754  0.1246737633594321
  0.1246737635101312  0.6246737634081754  0.1246737633594321
  0.6246737635101312  0.6246737634081754  0.1246737633594321
  0.1246737635101312  0.1246737634081754  0.6246737633594321
  0.6246737635101312  0.1246737634081754  0.6246737633594321
  0.1246737635101312  0.6246737634081754  0.6246737633594321
  0.6246737635101312  0.6246737634081754  0.6246737633594321
 
  0.00000000E+00  0.00000000E+00  0.00000000E+00
  0.00000000E+00  0.00000000E+00  0.00000000E+00
  0.00000000E+00  0.00000000E+00  0.00000000E+00
  0.00000000E+00  0.00000000E+00  0.00000000E+00
  0.00000000E+00  0.00000000E+00  0.00000000E+00
  0.00000000E+00  0.00000000E+00  0.00000000E+00
  0.00000000E+00  0.00000000E+00  0.00000000E+00
  0.00000000E+00  0.00000000E+00  0.00000000E+00
  0.00000000E+00  0.00000000E+00  0.00000000E+00
  0.00000000E+00  0.00000000E+00  0.00000000E+00
  0.00000000E+00  0.00000000E+00  0.00000000E+00
  0.00000000E+00  0.00000000E+00  0.00000000E+00
  0.00000000E+00  0.00000000E+00  0.00000000E+00
  0.00000000E+00  0.00000000E+00  0.00000000E+00
  0.00000000E+00  0.00000000E+00  0.00000000E+00
  0.00000000E+00  0.00000000E+00  0.00000000E+00
