       N       E                     dE             d eps       ncg     rms          rms(c)
DAV:   1     0.917404306375E+01    0.91740E+01   -0.25867E+03  1280   0.510E+02
DAV:   2    -0.510619695882E+01   -0.14280E+02   -0.13284E+02  2128   0.673E+01
DAV:   3    -0.528465135232E+01   -0.17845E+00   -0.17845E+00  1672   0.957E+00
DAV:   4    -0.528525150486E+01   -0.60015E-03   -0.60015E-03  2088   0.558E-01
DAV:   5    -0.528525274481E+01   -0.12399E-05   -0.12399E-05  1552   0.163E-02
DAV:   6    -0.528525276696E+01   -0.22155E-07   -0.22107E-07  1520   0.180E-03
   1 F= -.52852528E+01 E0= -.52852528E+01  d E =-.299307E-11
