<?xml version="1.0" encoding="ISO-8859-1"?>
<modeling>
 <generator>
  <i name="program" type="string">vasp </i>
  <i name="version" type="string">6.3.0  </i>
  <i name="subversion" type="string">20Jan22 (build Mar 29 2022 17:59:55) complex                          parallel </i>
  <i name="platform" type="string">IFC91_ompi </i>
  <i name="date" type="string">2026 06 03 </i>
  <i name="time" type="string">12:46:49 </i>
 </generator>
 <incar>
  <i type="int" name="ISTART">     0</i>
  <i type="int" name="ICHARG">    11</i>
  <i type="int" name="ISYM">     2</i>
  <i name="ENCUT">    320.00000000</i>
  <i type="int" name="ISMEAR">     0</i>
  <i name="SIGMA">      0.05000000</i>
  <i type="int" name="LORBIT">    11</i>
  <i type="string" name="GGA">PE</i>
 </incar>
 <primitive_cell>
  <structure name="primitive_cell" >
   <crystal>
    <varray name="basis" >
     <v>       0.00000000       2.71500000       2.71500000 </v>
     <v>       2.71500000       0.00000000       2.71500000 </v>
     <v>       2.71500000       2.71500000       0.00000000 </v>
    </varray>
    <i name="volume">     40.02575175 </i>
    <varray name="rec_basis" >
     <v>      -0.18416206       0.18416206       0.18416206 </v>
     <v>       0.18416206      -0.18416206       0.18416206 </v>
     <v>       0.18416206       0.18416206      -0.18416206 </v>
    </varray>
   </crystal>
   <varray name="positions" >
    <v>       0.00000000       0.00000000       0.00000000 </v>
    <v>       0.25000000       0.25000000       0.25000000 </v>
   </varray>
  </structure>
  <varray name="primitive_index" >
   <v type="int" >        1 </v>
   <v type="int" >        2 </v>
  </varray>
 </primitive_cell>
 <kpoints>
  <generation param="listgenerated">
   <i name="divisions" type="int">      40 </i>
   <v>       0.00000000       0.50000000       0.50000000 </v>
   <v>       0.00000000       0.00000000       0.00000000 </v>
   <v>       0.50000000       0.00000000       0.50000000 </v>
  </generation>
  <varray name="kpointlist" >
   <v>       0.00000000       0.50000000       0.50000000 </v>
   <v>       0.00000000       0.48717949       0.48717949 </v>
   <v>       0.00000000       0.47435897       0.47435897 </v>
   <v>       0.00000000       0.46153846       0.46153846 </v>
   <v>       0.00000000       0.44871795       0.44871795 </v>
   <v>       0.00000000       0.43589744       0.43589744 </v>
   <v>       0.00000000       0.42307692       0.42307692 </v>
   <v>       0.00000000       0.41025641       0.41025641 </v>
   <v>       0.00000000       0.39743590       0.39743590 </v>
   <v>       0.00000000       0.38461538       0.38461538 </v>
   <v>       0.00000000       0.37179487       0.37179487 </v>
   <v>       0.00000000       0.35897436       0.35897436 </v>
   <v>       0.00000000       0.34615385       0.34615385 </v>
   <v>       0.00000000       0.33333333       0.33333333 </v>
   <v>       0.00000000       0.32051282       0.32051282 </v>
   <v>       0.00000000       0.30769231       0.30769231 </v>
   <v>       0.00000000       0.29487179       0.29487179 </v>
   <v>       0.00000000       0.28205128       0.28205128 </v>
   <v>       0.00000000       0.26923077       0.26923077 </v>
   <v>       0.00000000       0.25641026       0.25641026 </v>
   <v>       0.00000000       0.24358974       0.24358974 </v>
   <v>       0.00000000       0.23076923       0.23076923 </v>
   <v>       0.00000000       0.21794872       0.21794872 </v>
   <v>       0.00000000       0.20512821       0.20512821 </v>
   <v>       0.00000000       0.19230769       0.19230769 </v>
   <v>       0.00000000       0.17948718       0.17948718 </v>
   <v>       0.00000000       0.16666667       0.16666667 </v>
   <v>       0.00000000       0.15384615       0.15384615 </v>
   <v>       0.00000000       0.14102564       0.14102564 </v>
   <v>       0.00000000       0.12820513       0.12820513 </v>
   <v>       0.00000000       0.11538462       0.11538462 </v>
   <v>       0.00000000       0.10256410       0.10256410 </v>
   <v>       0.00000000       0.08974359       0.08974359 </v>
   <v>       0.00000000       0.07692308       0.07692308 </v>
   <v>       0.00000000       0.06410256       0.06410256 </v>
   <v>       0.00000000       0.05128205       0.05128205 </v>
   <v>       0.00000000       0.03846154       0.03846154 </v>
   <v>       0.00000000       0.02564103       0.02564103 </v>
   <v>       0.00000000       0.01282051       0.01282051 </v>
   <v>       0.00000000       0.00000000       0.00000000 </v>
   <v>       0.00000000       0.00000000       0.00000000 </v>
   <v>       0.01282051       0.00000000       0.01282051 </v>
   <v>       0.02564103       0.00000000       0.02564103 </v>
   <v>       0.03846154       0.00000000       0.03846154 </v>
   <v>       0.05128205       0.00000000       0.05128205 </v>
   <v>       0.06410256       0.00000000       0.06410256 </v>
   <v>       0.07692308       0.00000000       0.07692308 </v>
   <v>       0.08974359       0.00000000       0.08974359 </v>
   <v>       0.10256410       0.00000000       0.10256410 </v>
   <v>       0.11538462       0.00000000       0.11538462 </v>
   <v>       0.12820513       0.00000000       0.12820513 </v>
   <v>       0.14102564       0.00000000       0.14102564 </v>
   <v>       0.15384615       0.00000000       0.15384615 </v>
   <v>       0.16666667       0.00000000       0.16666667 </v>
   <v>       0.17948718       0.00000000       0.17948718 </v>
   <v>       0.19230769       0.00000000       0.19230769 </v>
   <v>       0.20512821       0.00000000       0.20512821 </v>
   <v>       0.21794872       0.00000000       0.21794872 </v>
   <v>       0.23076923       0.00000000       0.23076923 </v>
   <v>       0.24358974       0.00000000       0.24358974 </v>
   <v>       0.25641026       0.00000000       0.25641026 </v>
   <v>       0.26923077       0.00000000       0.26923077 </v>
   <v>       0.28205128       0.00000000       0.28205128 </v>
   <v>       0.29487179       0.00000000       0.29487179 </v>
   <v>       0.30769231       0.00000000       0.30769231 </v>
   <v>       0.32051282       0.00000000       0.32051282 </v>
   <v>       0.33333333       0.00000000       0.33333333 </v>
   <v>       0.34615385       0.00000000       0.34615385 </v>
   <v>       0.35897436       0.00000000       0.35897436 </v>
   <v>       0.37179487       0.00000000       0.37179487 </v>
   <v>       0.38461538       0.00000000       0.38461538 </v>
   <v>       0.39743590       0.00000000       0.39743590 </v>
   <v>       0.41025641       0.00000000       0.41025641 </v>
   <v>       0.42307692       0.00000000       0.42307692 </v>
   <v>       0.43589744       0.00000000       0.43589744 </v>
   <v>       0.44871795       0.00000000       0.44871795 </v>
   <v>       0.46153846       0.00000000       0.46153846 </v>
   <v>       0.47435897       0.00000000       0.47435897 </v>
   <v>       0.48717949       0.00000000       0.48717949 </v>
   <v>       0.50000000       0.00000000       0.50000000 </v>
  </varray>
  <varray name="weights" >
   <v>       0.01250000 </v>
   <v>       0.01250000 </v>
   <v>       0.01250000 </v>
   <v>       0.01250000 </v>
   <v>       0.01250000 </v>
   <v>       0.01250000 </v>
   <v>       0.01250000 </v>
   <v>       0.01250000 </v>
   <v>       0.01250000 </v>
   <v>       0.01250000 </v>
   <v>       0.01250000 </v>
   <v>       0.01250000 </v>
   <v>       0.01250000 </v>
   <v>       0.01250000 </v>
   <v>       0.01250000 </v>
   <v>       0.01250000 </v>
   <v>       0.01250000 </v>
   <v>       0.01250000 </v>
   <v>       0.01250000 </v>
   <v>       0.01250000 </v>
   <v>       0.01250000 </v>
   <v>       0.01250000 </v>
   <v>       0.01250000 </v>
   <v>       0.01250000 </v>
   <v>       0.01250000 </v>
   <v>       0.01250000 </v>
   <v>       0.01250000 </v>
   <v>       0.01250000 </v>
   <v>       0.01250000 </v>
   <v>       0.01250000 </v>
   <v>       0.01250000 </v>
   <v>       0.01250000 </v>
   <v>       0.01250000 </v>
   <v>       0.01250000 </v>
   <v>       0.01250000 </v>
   <v>       0.01250000 </v>
   <v>       0.01250000 </v>
   <v>       0.01250000 </v>
   <v>       0.01250000 </v>
   <v>       0.01250000 </v>
   <v>       0.01250000 </v>
   <v>       0.01250000 </v>
   <v>       0.01250000 </v>
   <v>       0.01250000 </v>
   <v>       0.01250000 </v>
   <v>       0.01250000 </v>
   <v>       0.01250000 </v>
   <v>       0.01250000 </v>
   <v>       0.01250000 </v>
   <v>       0.01250000 </v>
   <v>       0.01250000 </v>
   <v>       0.01250000 </v>
   <v>       0.01250000 </v>
   <v>       0.01250000 </v>
   <v>       0.01250000 </v>
   <v>       0.01250000 </v>
   <v>       0.01250000 </v>
   <v>       0.01250000 </v>
   <v>       0.01250000 </v>
   <v>       0.01250000 </v>
   <v>       0.01250000 </v>
   <v>       0.01250000 </v>
   <v>       0.01250000 </v>
   <v>       0.01250000 </v>
   <v>       0.01250000 </v>
   <v>       0.01250000 </v>
   <v>       0.01250000 </v>
   <v>       0.01250000 </v>
   <v>       0.01250000 </v>
   <v>       0.01250000 </v>
   <v>       0.01250000 </v>
   <v>       0.01250000 </v>
   <v>       0.01250000 </v>
   <v>       0.01250000 </v>
   <v>       0.01250000 </v>
   <v>       0.01250000 </v>
   <v>       0.01250000 </v>
   <v>       0.01250000 </v>
   <v>       0.01250000 </v>
   <v>       0.01250000 </v>
  </varray>
  <kpoints_labels>
   <i name="X_par" type="int">       1 </i>
   <i name="\Gamma" type="int">       2 </i>
   <i name="\Gamma" type="int">       3 </i>
   <i name="X_perp" type="int">       4 </i>
  </kpoints_labels>
 </kpoints>
 <parameters>
  <separator name="general" >
   <i type="string" name="SYSTEM">unknown system</i>
   <i type="logical" name="LCOMPAT"> F  </i>
  </separator>
  <separator name="electronic" >
   <i type="string" name="PREC">normal</i>
   <i name="ENMAX">    320.00000000</i>
   <i name="ENAUG">    322.06900000</i>
   <i name="EDIFF">      0.00010000</i>
   <i type="int" name="IALGO">    38</i>
   <i type="int" name="IWAVPR">    10</i>
   <i type="int" name="NBANDS">     8</i>
   <i type="int" name="NBANDSLOW">    -1</i>
   <i type="int" name="NBANDSHIGH">    -1</i>
   <i name="NELECT">      8.00000000</i>
   <i type="int" name="TURBO">     0</i>
   <i type="int" name="IRESTART">     0</i>
   <i type="int" name="NREBOOT">     0</i>
   <i type="int" name="NMIN">     0</i>
   <i name="EREF">      0.00000000</i>
   <separator name="electronic smearing" >
    <i type="int" name="ISMEAR">     0</i>
    <i name="SIGMA">      0.05000000</i>
    <i name="KSPACING">      0.50000000</i>
    <i type="logical" name="KGAMMA"> T  </i>
    <i type="logical" name="KBLOWUP"> T  </i>
   </separator>
   <separator name="electronic projectors" >
    <i type="logical" name="LREAL"> F  </i>
    <v name="ROPT">      0.00000000</v>
    <i type="int" name="LMAXPAW">  -100</i>
    <i type="int" name="LMAXMIX">     2</i>
    <i type="logical" name="NLSPLINE"> F  </i>
   </separator>
   <separator name="electronic startup" >
    <i type="int" name="ISTART">     0</i>
    <i type="int" name="ICHARG">    11</i>
    <i type="int" name="INIWAV">     1</i>
   </separator>
   <separator name="electronic spin" >
    <i type="int" name="ISPIN">     1</i>
    <i type="logical" name="LNONCOLLINEAR"> F  </i>
    <v name="MAGMOM">      1.00000000      1.00000000</v>
    <i name="NUPDOWN">     -1.00000000</i>
    <i type="logical" name="LSORBIT"> F  </i>
    <v name="SAXIS">      0.00000000      0.00000000      1.00000000</v>
    <i type="logical" name="LSPIRAL"> F  </i>
    <v name="QSPIRAL">      0.00000000      0.00000000      0.00000000</v>
    <i type="logical" name="LZEROZ"> F  </i>
   </separator>
   <separator name="electronic exchange-correlation" >
    <i type="logical" name="LASPH"> F  </i>
    <i type="logical" name="LMETAGGA"> F  </i>
   </separator>
   <separator name="electronic convergence" >
    <i type="int" name="NELM">    60</i>
    <i type="int" name="NELMDL">    -5</i>
    <i type="int" name="NELMIN">     2</i>
    <i name="ENINI">    320.00000000</i>
    <separator name="electronic convergence detail" >
     <i type="logical" name="LDIAG"> T  </i>
     <i type="logical" name="LSUBROT"> F  </i>
     <i name="WEIMIN">      0.00000000</i>
     <i name="EBREAK">      0.00000313</i>
     <i name="DEPER">      0.30000000</i>
     <i type="int" name="NRMM">     4</i>
     <i name="TIME">      0.40000000</i>
    </separator>
   </separator>
   <separator name="electronic mixer" >
    <i name="AMIX">      0.40000000</i>
    <i name="BMIX">      1.00000000</i>
    <i name="AMIN">      0.10000000</i>
    <i name="AMIX_MAG">      1.60000000</i>
    <i name="BMIX_MAG">      1.00000000</i>
    <separator name="electronic mixer details" >
     <i type="int" name="IMIX">     4</i>
     <i type="logical" name="MIXFIRST"> F  </i>
     <i type="int" name="MAXMIX">   -45</i>
     <i name="WC">    100.00000000</i>
     <i type="int" name="INIMIX">     1</i>
     <i type="int" name="MIXPRE">     1</i>
     <i type="int" name="MREMOVE">     5</i>
    </separator>
   </separator>
   <separator name="electronic dipolcorrection" >
    <i type="logical" name="LDIPOL"> F  </i>
    <i type="logical" name="LMONO"> F  </i>
    <i type="int" name="IDIPOL">     0</i>
    <i name="EPSILON">      1.00000000</i>
    <v name="DIPOL">   -100.00000000   -100.00000000   -100.00000000</v>
    <i name="EFIELD">      0.00000000</i>
   </separator>
  </separator>
  <separator name="grids" >
   <i type="int" name="NGX">    18</i>
   <i type="int" name="NGY">    18</i>
   <i type="int" name="NGZ">    18</i>
   <i type="int" name="NGXF">    36</i>
   <i type="int" name="NGYF">    36</i>
   <i type="int" name="NGZF">    36</i>
   <i type="logical" name="ADDGRID"> F  </i>
  </separator>
  <separator name="ionic" >
   <i type="int" name="NSW">     0</i>
   <i type="int" name="IBRION">    -1</i>
   <i type="int" name="MDALGO">     0</i>
   <i type="int" name="ISIF">     2</i>
   <i name="PSTRESS">      0.00000000</i>
   <i name="EDIFFG">      0.00100000</i>
   <i type="int" name="NFREE">     0</i>
   <i name="POTIM">      0.50000000</i>
   <i name="SMASS">     -3.00000000</i>
   <i name="SCALEE">      1.00000000</i>
  </separator>
  <separator name="ionic md" >
   <i name="TEBEG">      0.00010000</i>
   <i name="TEEND">      0.00010000</i>
   <i type="int" name="NBLOCK">     1</i>
   <i type="int" name="KBLOCK">     1</i>
   <i type="int" name="NPACO">   256</i>
   <i name="APACO">     10.00000000</i>
  </separator>
  <separator name="symmetry" >
   <i type="int" name="ISYM">     2</i>
   <i name="SYMPREC">      0.00001000</i>
  </separator>
  <separator name="dos" >
   <i type="int" name="LORBIT">    11</i>
   <v name="RWIGS">     -1.00000000</v>
   <i type="int" name="NEDOS">   301</i>
   <i name="EMIN">     10.00000000</i>
   <i name="EMAX">    -10.00000000</i>
   <i name="EFERMI">      0.00000000</i>
  </separator>
  <separator name="writing" >
   <i type="int" name="NWRITE">     2</i>
   <i type="logical" name="LWAVE"> T  </i>
   <i type="logical" name="LDOWNSAMPLE"> F  </i>
   <i type="logical" name="LCHARG"> T  </i>
   <i type="logical" name="LPARD"> F  </i>
   <i type="logical" name="LVTOT"> F  </i>
   <i type="logical" name="LVHAR"> F  </i>
   <i type="logical" name="LELF"> F  </i>
   <i type="logical" name="LOPTICS"> F  </i>
   <v name="STM">      0.00000000      0.00000000      0.00000000      0.00000000      0.00000000      0.00000000      0.00000000</v>
  </separator>
  <separator name="performance" >
   <i type="int" name="NPAR">     1</i>
   <i type="int" name="NSIM">     4</i>
   <i type="int" name="NBLK">    -1</i>
   <i type="logical" name="LPLANE"> T  </i>
   <i type="logical" name="LSCALAPACK"> T  </i>
   <i type="logical" name="LSCAAWARE"> F  </i>
   <i type="logical" name="LSCALU"> F  </i>
   <i type="logical" name="LASYNC"> F  </i>
   <i type="logical" name="LORBITALREAL"> F  </i>
  </separator>
  <separator name="miscellaneous" >
   <i type="int" name="IDIOT">     3</i>
   <i type="int" name="PHON_NSTRUCT">    -1</i>
   <i type="logical" name="LMUSIC"> F  </i>
   <v name="POMASS">     28.08500000</v>
   <v name="DARWINR">      0.00000000</v>
   <v name="DARWINV">      1.00000000</v>
   <i type="logical" name="LCORR"> T  </i>
  </separator>
  <i type="logical" name="GGA_COMPAT"> T  </i>
  <i type="logical" name="LBERRY"> F  </i>
  <i type="int" name="ICORELEVEL">     0</i>
  <i type="logical" name="LDAU"> F  </i>
  <i type="int" name="I_CONSTRAINED_M">     0</i>
  <separator name="electronic exchange-correlation" >
   <i type="string" name="GGA">PE</i>
   <i type="int" name="VOSKOWN">     0</i>
   <i type="logical" name="LHFCALC"> F  </i>
   <i type="string" name="PRECFOCK"></i>
   <i type="logical" name="LSYMGRAD"> F  </i>
   <i type="logical" name="LHFONE"> F  </i>
   <i type="logical" name="LRHFCALC"> F  </i>
   <i type="logical" name="LTHOMAS"> F  </i>
   <i type="logical" name="LMODELHF"> F  </i>
   <i type="logical" name="LFOCKACE"> F  </i>
   <i name="ENCUT4O">     -1.00000000</i>
   <i type="int" name="EXXOEP">     0</i>
   <i type="int" name="FOURORBIT">     0</i>
   <i name="AEXX">      0.00000000</i>
   <i name="HFALPHA">      0.00000000</i>
   <i name="MCALPHA">      0.00000000</i>
   <i name="ALDAX">      1.00000000</i>
   <i name="AGGAX">      1.00000000</i>
   <i name="ALDAC">      1.00000000</i>
   <i name="AGGAC">      1.00000000</i>
   <i type="int" name="NKREDX">     1</i>
   <i type="int" name="NKREDY">     1</i>
   <i type="int" name="NKREDZ">     1</i>
   <i type="logical" name="SHIFTRED"> F  </i>
   <i type="logical" name="ODDONLY"> F  </i>
   <i type="logical" name="EVENONLY"> F  </i>
   <i type="int" name="LMAXFOCK">     0</i>
   <i type="int" name="NMAXFOCKAE">     0</i>
   <i type="logical" name="LFOCKAEDFT"> F  </i>
   <i name="HFSCREEN">      0.00000000</i>
   <i name="HFSCREENC">      0.00000000</i>
   <i type="int" name="NBANDSGWLOW">     0</i>
  </separator>
  <separator name="vdW DFT" >
   <i type="logical" name="LUSE_VDW"> F  </i>
   <i name="Zab_VDW">     -0.84910000</i>
   <i name="PARAM1">      0.12340000</i>
   <i name="PARAM2">      1.00000000</i>
   <i name="PARAM3">      0.00000000</i>
  </separator>
  <separator name="model GW" >
   <i type="int" name="MODEL_GW">     0</i>
   <i name="MODEL_EPS0">     12.00772552</i>
   <i name="MODEL_ALPHA">      1.00000000</i>
  </separator>
  <separator name="linear response parameters" >
   <i type="logical" name="LEPSILON"> F  </i>
   <i type="logical" name="LRPA"> F  </i>
   <i type="logical" name="LNABLA"> F  </i>
   <i type="logical" name="LVEL"> F  </i>
   <i name="CSHIFT">      0.10000000</i>
   <i name="OMEGAMAX">     -1.00000000</i>
   <i name="DEG_THRESHOLD">      0.00200000</i>
   <i name="RTIME">     -0.10000000</i>
   <i name="WPLASMAI">      0.00000000</i>
   <v name="DFIELD">      0.00000000      0.00000000      0.00000000</v>
   <v name="WPLASMA">      0.00000000      0.00000000      0.00000000      0.00000000      0.00000000      0.00000000      0.00000000      0.00000000      0.00000000</v>
  </separator>
  <separator name="orbital magnetization" >
   <i type="logical" name="NUCIND"> F  </i>
   <v name="MAGPOS">      0.00000000      0.00000000      0.00000000</v>
   <i type="logical" name="LNICSALL"> T  </i>
   <i type="logical" name="ORBITALMAG"> F  </i>
   <i type="logical" name="LMAGBLOCH"> F  </i>
   <i type="logical" name="LCHIMAG"> F  </i>
   <i type="logical" name="LGAUGE"> T  </i>
   <i type="int" name="MAGATOM">     0</i>
   <v name="MAGDIPOL">      0.00000000      0.00000000      0.00000000</v>
   <v name="AVECCONST">      0.00000000      0.00000000      0.00000000</v>
  </separator>
  <separator name="response functions" >
   <i type="logical" name="LFINITE_TEMPERATURE"> F  </i>
   <i type="logical" name="LADDER"> F  </i>
   <i type="logical" name="LRPAFORCE"> F  </i>
   <i type="logical" name="LFXC"> F  </i>
   <i type="logical" name="LHARTREE"> T  </i>
   <i type="int" name="IBSE">     0</i>
   <v type="int" name="KPOINT">    -1     0     0     0</v>
   <i type="logical" name="LTCTC"> F  </i>
   <i type="logical" name="LTCTE"> F  </i>
   <i type="logical" name="LTETE"> F  </i>
   <i type="logical" name="LTRIPLET"> F  </i>
   <i type="logical" name="LFXCEPS"> F  </i>
   <i type="logical" name="LFXHEG"> F  </i>
   <i type="int" name="NATURALO">     2</i>
   <i type="logical" name="LHOLEGF"> F  </i>
   <i type="logical" name="L2ORDER"> F  </i>
   <i type="logical" name="LDMP1"> F  </i>
   <i type="logical" name="LMP2LT"> F  </i>
   <i type="logical" name="LSMP2LT"> F  </i>
   <i type="logical" name="LGWLF"> F  </i>
   <i name="ENCUTGW">     -2.00000000</i>
   <i name="ENCUTGWSOFT">     -2.00000000</i>
   <i name="ENCUTLF">     -1.00000000</i>
   <i type="logical" name="LESF_SPLINES"> F  </i>
   <i type="int" name="LMAXMP2">    -1</i>
   <i name="SCISSOR">      0.00000000</i>
   <i type="int" name="NOMEGA">     0</i>
   <i type="int" name="NOMEGAR">     0</i>
   <i type="int" name="NBANDSGW">    -1</i>
   <i type="int" name="NBANDSO">    -1</i>
   <i type="int" name="NBANDSV">    -1</i>
   <i type="int" name="NELMGW">     1</i>
   <i type="int" name="NELMHF">     1</i>
   <i type="int" name="DIM">     3</i>
   <i type="int" name="IESPILON">     4</i>
   <i type="int" name="ANTIRES">     0</i>
   <i name="OMEGAMAX">    -30.00000000</i>
   <i name="OMEGAMIN">    -30.00000000</i>
   <i name="OMEGATL">   -200.00000000</i>
   <i type="int" name="OMEGAGRID">     0</i>
   <i name="CSHIFT">     -0.10000000</i>
   <i type="logical" name="LSELFENERGY"> F  </i>
   <i type="logical" name="LSPECTRAL"> F  </i>
   <i type="logical" name="LSPECTRALGW"> F  </i>
   <i type="logical" name="LSINGLES"> F  </i>
   <i type="logical" name="LFERMIGW"> F  </i>
   <i type="logical" name="ODDONLYGW"> F  </i>
   <i type="logical" name="EVENONLYGW"> F  </i>
   <i type="int" name="NKREDLFX">     1</i>
   <i type="int" name="NKREDLFY">     1</i>
   <i type="int" name="NKREDLFZ">     1</i>
   <i type="int" name="MAXMEM">  2800</i>
   <i type="int" name="TELESCOPE">     0</i>
   <i type="int" name="NTAUPAR">    -1</i>
   <i type="int" name="NOMEGAPAR">    -1</i>
   <i name="DAMP_NEWTON">      0.80000001</i>
   <i name="LAMBDA">      1.00000000</i>
  </separator>
  <separator name="External order field" >
   <i name="OFIELD_KAPPA">      0.00000000</i>
   <v name="OFIELD_K">      0.00000000      0.00000000      0.00000000</v>
   <i name="OFIELD_Q6_NEAR">      0.00000000</i>
   <i name="OFIELD_Q6_FAR">      0.00000000</i>
   <i name="OFIELD_A">      0.00000000</i>
  </separator>
  <separator name="optional k-points parameters" >
   <i type="int" name="KPOINTS_OPT_MODE">     1</i>
   <i type="logical" name="LKPOINTS_OPT"> F  </i>
  </separator>
 </parameters>
 <atominfo>
  <atoms>       2 </atoms>
  <types>       1 </types>
  <array name="atoms" >
   <dimension dim="1">ion</dimension>
   <field type="string">element</field>
   <field type="int">atomtype</field>
   <set>
    <rc><c>Si</c><c>   1</c></rc>
    <rc><c>Si</c><c>   1</c></rc>
   </set>
  </array>
  <array name="atomtypes" >
   <dimension dim="1">type</dimension>
   <field type="int">atomspertype</field>
   <field type="string">element</field>
   <field>mass</field>
   <field>valence</field>
   <field type="string">pseudopotential</field>
   <set>
    <rc><c>   2</c><c>Si</c><c>     28.08500000</c><c>      4.00000000</c><c>  PAW_PBE Si 05Jan2001                  </c></rc>
   </set>
  </array>
 </atominfo>
 <structure name="initialpos" >
  <crystal>
   <varray name="basis" >
    <v>       0.00000000       2.71500000       2.71500000 </v>
    <v>       2.71500000       0.00000000       2.71500000 </v>
    <v>       2.71500000       2.71500000       0.00000000 </v>
   </varray>
   <i name="volume">     40.02575175 </i>
   <varray name="rec_basis" >
    <v>      -0.18416206       0.18416206       0.18416206 </v>
    <v>       0.18416206      -0.18416206       0.18416206 </v>
    <v>       0.18416206       0.18416206      -0.18416206 </v>
   </varray>
  </crystal>
  <varray name="positions" >
   <v>       0.00000000       0.00000000       0.00000000 </v>
   <v>       0.25000000       0.25000000       0.25000000 </v>
  </varray>
 </structure>
 <calculation>
  <scstep>
   <time name="dav">    0.46    0.46</time>
   <time name="total">    0.48    0.48</time>
   <energy>
    <i name="alphaZ">      3.36414726 </i>
    <i name="ewald">   -228.56352493 </i>
    <i name="hartreedc">    -14.92813928 </i>
    <i name="XCdc">    -17.95896680 </i>
    <i name="pawpsdc">    894.61069898 </i>
    <i name="pawaedc">   -859.65002016 </i>
    <i name="eentropy">     -0.00058972 </i>
    <i name="bandstr">     26.16977083 </i>
    <i name="atom">    206.13066687 </i>
    <i name="e_fr_energy">      9.17404306 </i>
    <i name="e_wo_entrp">      9.17463278 </i>
    <i name="e_0_energy">      9.17433792 </i>
   </energy>
  </scstep>
  <scstep>
   <time name="dav">    0.69    0.69</time>
   <time name="total">    0.69    0.69</time>
   <energy>
    <i name="e_fr_energy">     -5.10619696 </i>
    <i name="e_wo_entrp">     -5.10619696 </i>
    <i name="e_0_energy">     -5.10619696 </i>
   </energy>
  </scstep>
  <scstep>
   <time name="dav">    0.56    0.56</time>
   <time name="total">    0.56    0.56</time>
   <energy>
    <i name="e_fr_energy">     -5.28465135 </i>
    <i name="e_wo_entrp">     -5.28465135 </i>
    <i name="e_0_energy">     -5.28465135 </i>
   </energy>
  </scstep>
  <scstep>
   <time name="dav">    0.68    0.68</time>
   <time name="total">    0.68    0.68</time>
   <energy>
    <i name="e_fr_energy">     -5.28525150 </i>
    <i name="e_wo_entrp">     -5.28525150 </i>
    <i name="e_0_energy">     -5.28525150 </i>
   </energy>
  </scstep>
  <scstep>
   <time name="dav">    0.53    0.53</time>
   <time name="total">    0.53    0.53</time>
   <energy>
    <i name="e_fr_energy">     -5.28525274 </i>
    <i name="e_wo_entrp">     -5.28525274 </i>
    <i name="e_0_energy">     -5.28525274 </i>
   </energy>
  </scstep>
  <scstep>
   <time name="dav">    0.53    0.53</time>
   <time name="total">    0.53    0.53</time>
   <energy>
    <i name="alphaZ">      3.36414726 </i>
    <i name="ewald">   -228.56352493 </i>
    <i name="hartreedc">    -14.92813928 </i>
    <i name="XCdc">    -17.95896680 </i>
    <i name="pawpsdc">    894.61069898 </i>
    <i name="pawaedc">   -859.65002016 </i>
    <i name="eentropy">     -0.00000000 </i>
    <i name="bandstr">     11.70988529 </i>
    <i name="atom">    206.13066687 </i>
    <i name="e_fr_energy">     -5.28525277 </i>
    <i name="e_wo_entrp">     -5.28525277 </i>
    <i name="e_0_energy">     -5.28525277 </i>
   </energy>
  </scstep>
  <structure>
   <crystal>
    <varray name="basis" >
     <v>       0.00000000       2.71500000       2.71500000 </v>
     <v>       2.71500000       0.00000000       2.71500000 </v>
     <v>       2.71500000       2.71500000       0.00000000 </v>
    </varray>
    <i name="volume">     40.02575175 </i>
    <varray name="rec_basis" >
     <v>      -0.18416206       0.18416206       0.18416206 </v>
     <v>       0.18416206      -0.18416206       0.18416206 </v>
     <v>       0.18416206       0.18416206      -0.18416206 </v>
    </varray>
   </crystal>
   <varray name="positions" >
    <v>       0.00000000       0.00000000       0.00000000 </v>
    <v>       0.25000000       0.25000000       0.25000000 </v>
   </varray>
  </structure>
  <varray name="forces" >
   <v>       0.00000000       0.00000000       0.00000000 </v>
   <v>      -0.00000000      -0.00000000      -0.00000000 </v>
  </varray>
  <varray name="stress" >
   <v>     271.07012151       0.00000000      -0.00000000 </v>
   <v>       0.00000000     271.07012151      -0.00000000 </v>
   <v>      -0.00000000      -0.00000000     271.07012151 </v>
  </varray>
  <energy>
   <i name="e_fr_energy">     -5.28525277 </i>
   <i name="e_wo_entrp">     -5.28525277 </i>
   <i name="e_0_energy">     -5.28525277 </i>
  </energy>
  <time name="totalsc">    3.89    3.89</time>
  <eigenvalues>
   <array>
    <dimension dim="1">band</dimension>
    <dimension dim="2">kpoint</dimension>
    <dimension dim="3">spin</dimension>
    <field>eigene</field>
    <field>occ</field>
    <set>
     <set comment="spin 1">
      <set comment="kpoint 1">
       <r>   -1.9830    1.0000 </r>
       <r>   -1.9830    1.0000 </r>
       <r>    2.9813    1.0000 </r>
       <r>    2.9813    1.0000 </r>
       <r>    6.5439    0.0000 </r>
       <r>    6.5440    0.0000 </r>
       <r>   15.9559    0.0000 </r>
       <r>   15.9574    0.0000 </r>
      </set>
      <set comment="kpoint 2">
       <r>   -2.1798    1.0000 </r>
       <r>   -1.7828    1.0000 </r>
       <r>    2.9839    1.0000 </r>
       <r>    2.9839    1.0000 </r>
       <r>    6.5021    0.0000 </r>
       <r>    6.5936    0.0000 </r>
       <r>   15.8840    0.0000 </r>
       <r>   15.8868    0.0000 </r>
      </set>
      <set comment="kpoint 3">
       <r>   -2.3730    1.0000 </r>
       <r>   -1.5794    1.0000 </r>
       <r>    2.9917    1.0000 </r>
       <r>    2.9917    1.0000 </r>
       <r>    6.4680    0.0000 </r>
       <r>    6.6511    0.0000 </r>
       <r>   15.7138    0.0000 </r>
       <r>   15.7142    0.0000 </r>
      </set>
      <set comment="kpoint 4">
       <r>   -2.5624    1.0000 </r>
       <r>   -1.3727    1.0000 </r>
       <r>    3.0047    1.0000 </r>
       <r>    3.0047    1.0000 </r>
       <r>    6.4414    0.0000 </r>
       <r>    6.7168    0.0000 </r>
       <r>   15.5016    0.0000 </r>
       <r>   15.5018    0.0000 </r>
      </set>
      <set comment="kpoint 5">
       <r>   -2.7480    1.0000 </r>
       <r>   -1.1632    1.0000 </r>
       <r>    3.0229    1.0000 </r>
       <r>    3.0229    1.0000 </r>
       <r>    6.4222    0.0000 </r>
       <r>    6.7904    0.0000 </r>
       <r>   15.2714    0.0000 </r>
       <r>   15.2715    0.0000 </r>
      </set>
      <set comment="kpoint 6">
       <r>   -2.9295    1.0000 </r>
       <r>   -0.9509    1.0000 </r>
       <r>    3.0462    1.0000 </r>
       <r>    3.0462    1.0000 </r>
       <r>    6.4103    0.0000 </r>
       <r>    6.8722    0.0000 </r>
       <r>   15.0336    0.0000 </r>
       <r>   15.0338    0.0000 </r>
      </set>
      <set comment="kpoint 7">
       <r>   -3.1069    1.0000 </r>
       <r>   -0.7361    1.0000 </r>
       <r>    3.0747    1.0000 </r>
       <r>    3.0747    1.0000 </r>
       <r>    6.4056    0.0000 </r>
       <r>    6.9623    0.0000 </r>
       <r>   14.7925    0.0000 </r>
       <r>   14.7925    0.0000 </r>
      </set>
      <set comment="kpoint 8">
       <r>   -3.2801    1.0000 </r>
       <r>   -0.5188    1.0000 </r>
       <r>    3.1084    1.0000 </r>
       <r>    3.1084    1.0000 </r>
       <r>    6.4080    0.0000 </r>
       <r>    7.0605    0.0000 </r>
       <r>   14.5491    0.0000 </r>
       <r>   14.5491    0.0000 </r>
      </set>
      <set comment="kpoint 9">
       <r>   -3.4489    1.0000 </r>
       <r>   -0.2994    1.0000 </r>
       <r>    3.1471    1.0000 </r>
       <r>    3.1471    1.0000 </r>
       <r>    6.4172    0.0000 </r>
       <r>    7.1673    0.0000 </r>
       <r>   14.3065    0.0000 </r>
       <r>   14.3065    0.0000 </r>
      </set>
      <set comment="kpoint 10">
       <r>   -3.6133    1.0000 </r>
       <r>   -0.0780    1.0000 </r>
       <r>    3.1909    1.0000 </r>
       <r>    3.1909    1.0000 </r>
       <r>    6.4330    0.0000 </r>
       <r>    7.2822    0.0000 </r>
       <r>   14.0642    0.0000 </r>
       <r>   14.0642    0.0000 </r>
      </set>
      <set comment="kpoint 11">
       <r>   -3.7731    1.0000 </r>
       <r>    0.1452    1.0000 </r>
       <r>    3.2397    1.0000 </r>
       <r>    3.2397    1.0000 </r>
       <r>    6.4556    0.0000 </r>
       <r>    7.4057    0.0000 </r>
       <r>   13.8223    0.0000 </r>
       <r>   13.8223    0.0000 </r>
      </set>
      <set comment="kpoint 12">
       <r>   -3.9281    1.0000 </r>
       <r>    0.3701    1.0000 </r>
       <r>    3.2936    1.0000 </r>
       <r>    3.2936    1.0000 </r>
       <r>    6.4854    0.0000 </r>
       <r>    7.5378    0.0000 </r>
       <r>   13.5827    0.0000 </r>
       <r>   13.5828    0.0000 </r>
      </set>
      <set comment="kpoint 13">
       <r>   -4.0784    1.0000 </r>
       <r>    0.5963    1.0000 </r>
       <r>    3.3524    1.0000 </r>
       <r>    3.3524    1.0000 </r>
       <r>    6.5208    0.0000 </r>
       <r>    7.6780    0.0000 </r>
       <r>   13.3435    0.0000 </r>
       <r>   13.3435    0.0000 </r>
      </set>
      <set comment="kpoint 14">
       <r>   -4.2239    1.0000 </r>
       <r>    0.8238    1.0000 </r>
       <r>    3.4161    1.0000 </r>
       <r>    3.4161    1.0000 </r>
       <r>    6.5622    0.0000 </r>
       <r>    7.8265    0.0000 </r>
       <r>   13.1055    0.0000 </r>
       <r>   13.1055    0.0000 </r>
      </set>
      <set comment="kpoint 15">
       <r>   -4.3645    1.0000 </r>
       <r>    1.0522    1.0000 </r>
       <r>    3.4846    1.0000 </r>
       <r>    3.4846    1.0000 </r>
       <r>    6.6095    0.0000 </r>
       <r>    7.9830    0.0000 </r>
       <r>   12.8690    0.0000 </r>
       <r>   12.8690    0.0000 </r>
      </set>
      <set comment="kpoint 16">
       <r>   -4.5001    1.0000 </r>
       <r>    1.2815    1.0000 </r>
       <r>    3.5578    1.0000 </r>
       <r>    3.5578    1.0000 </r>
       <r>    6.6626    0.0000 </r>
       <r>    8.1472    0.0000 </r>
       <r>   12.6339    0.0000 </r>
       <r>   12.6339    0.0000 </r>
      </set>
      <set comment="kpoint 17">
       <r>   -4.6306    1.0000 </r>
       <r>    1.5113    1.0000 </r>
       <r>    3.6358    1.0000 </r>
       <r>    3.6358    1.0000 </r>
       <r>    6.7212    0.0000 </r>
       <r>    8.3188    0.0000 </r>
       <r>   12.4005    0.0000 </r>
       <r>   12.4005    0.0000 </r>
      </set>
      <set comment="kpoint 18">
       <r>   -4.7560    1.0000 </r>
       <r>    1.7415    1.0000 </r>
       <r>    3.7182    1.0000 </r>
       <r>    3.7182    1.0000 </r>
       <r>    6.7848    0.0000 </r>
       <r>    8.4970    0.0000 </r>
       <r>   12.1674    0.0000 </r>
       <r>   12.1674    0.0000 </r>
      </set>
      <set comment="kpoint 19">
       <r>   -4.8762    1.0000 </r>
       <r>    1.9720    1.0000 </r>
       <r>    3.8052    1.0000 </r>
       <r>    3.8052    1.0000 </r>
       <r>    6.8535    0.0000 </r>
       <r>    8.6818    0.0000 </r>
       <r>   11.9374    0.0000 </r>
       <r>   11.9374    0.0000 </r>
      </set>
      <set comment="kpoint 20">
       <r>   -4.9912    1.0000 </r>
       <r>    2.2026    1.0000 </r>
       <r>    3.8964    1.0000 </r>
       <r>    3.8964    1.0000 </r>
       <r>    6.9268    0.0000 </r>
       <r>    8.8718    0.0000 </r>
       <r>   11.7085    0.0000 </r>
       <r>   11.7085    0.0000 </r>
      </set>
      <set comment="kpoint 21">
       <r>   -5.1008    1.0000 </r>
       <r>    2.4329    1.0000 </r>
       <r>    3.9918    1.0000 </r>
       <r>    3.9918    1.0000 </r>
       <r>    7.0047    0.0000 </r>
       <r>    9.0659    0.0000 </r>
       <r>   11.4824    0.0000 </r>
       <r>   11.4824    0.0000 </r>
      </set>
      <set comment="kpoint 22">
       <r>   -5.2051    1.0000 </r>
       <r>    2.6628    1.0000 </r>
       <r>    4.0913    1.0000 </r>
       <r>    4.0913    1.0000 </r>
       <r>    7.0866    0.0000 </r>
       <r>    9.2623    0.0000 </r>
       <r>   11.2585    0.0000 </r>
       <r>   11.2585    0.0000 </r>
      </set>
      <set comment="kpoint 23">
       <r>   -5.3040    1.0000 </r>
       <r>    2.8922    1.0000 </r>
       <r>    4.1947    1.0000 </r>
       <r>    4.1947    1.0000 </r>
       <r>    7.1724    0.0000 </r>
       <r>    9.4587    0.0000 </r>
       <r>   11.0376    0.0000 </r>
       <r>   11.0376    0.0000 </r>
      </set>
      <set comment="kpoint 24">
       <r>   -5.3974    1.0000 </r>
       <r>    3.1205    1.0000 </r>
       <r>    4.3015    1.0000 </r>
       <r>    4.3015    1.0000 </r>
       <r>    7.2611    0.0000 </r>
       <r>    9.6512    0.0000 </r>
       <r>   10.8188    0.0000 </r>
       <r>   10.8188    0.0000 </r>
      </set>
      <set comment="kpoint 25">
       <r>   -5.4854    1.0000 </r>
       <r>    3.3476    1.0000 </r>
       <r>    4.4117    1.0000 </r>
       <r>    4.4117    1.0000 </r>
       <r>    7.3524    0.0000 </r>
       <r>    9.8347    0.0000 </r>
       <r>   10.6032    0.0000 </r>
       <r>   10.6032    0.0000 </r>
      </set>
      <set comment="kpoint 26">
       <r>   -5.5679    1.0000 </r>
       <r>    3.5731    1.0000 </r>
       <r>    4.5247    1.0000 </r>
       <r>    4.5247    1.0000 </r>
       <r>    7.4457    0.0000 </r>
       <r>   10.0013    0.0000 </r>
       <r>   10.3908    0.0000 </r>
       <r>   10.3908    0.0000 </r>
      </set>
      <set comment="kpoint 27">
       <r>   -5.6448    1.0000 </r>
       <r>    3.7968    1.0000 </r>
       <r>    4.6403    1.0000 </r>
       <r>    4.6403    1.0000 </r>
       <r>    7.5404    0.0000 </r>
       <r>   10.1410    0.0000 </r>
       <r>   10.1826    0.0000 </r>
       <r>   10.1826    0.0000 </r>
      </set>
      <set comment="kpoint 28">
       <r>   -5.7161    1.0000 </r>
       <r>    4.0177    1.0000 </r>
       <r>    4.7579    1.0000 </r>
       <r>    4.7579    1.0000 </r>
       <r>    7.6358    0.0000 </r>
       <r>    9.9791    0.0000 </r>
       <r>    9.9791    0.0000 </r>
       <r>   10.2371    0.0000 </r>
      </set>
      <set comment="kpoint 29">
       <r>   -5.7818    1.0000 </r>
       <r>    4.2351    1.0000 </r>
       <r>    4.8769    1.0000 </r>
       <r>    4.8769    1.0000 </r>
       <r>    7.7308    0.0000 </r>
       <r>    9.7805    0.0000 </r>
       <r>    9.7805    0.0000 </r>
       <r>   10.2766    0.0000 </r>
      </set>
      <set comment="kpoint 30">
       <r>   -5.8419    1.0000 </r>
       <r>    4.4483    1.0000 </r>
       <r>    4.9964    1.0000 </r>
       <r>    4.9964    1.0000 </r>
       <r>    7.8244    0.0000 </r>
       <r>    9.5872    0.0000 </r>
       <r>    9.5872    0.0000 </r>
       <r>   10.2544    0.0000 </r>
      </set>
      <set comment="kpoint 31">
       <r>   -5.8964    1.0000 </r>
       <r>    4.6560    1.0000 </r>
       <r>    5.1156    1.0000 </r>
       <r>    5.1156    1.0000 </r>
       <r>    7.9157    0.0000 </r>
       <r>    9.4018    0.0000 </r>
       <r>    9.4018    0.0000 </r>
       <r>   10.1774    0.0000 </r>
      </set>
      <set comment="kpoint 32">
       <r>   -5.9451    1.0000 </r>
       <r>    4.8568    1.0000 </r>
       <r>    5.2331    1.0000 </r>
       <r>    5.2331    1.0000 </r>
       <r>    8.0034    0.0000 </r>
       <r>    9.2247    0.0000 </r>
       <r>    9.2247    0.0000 </r>
       <r>   10.0611    0.0000 </r>
      </set>
      <set comment="kpoint 33">
       <r>   -5.9882    1.0000 </r>
       <r>    5.0485    1.0000 </r>
       <r>    5.3474    1.0000 </r>
       <r>    5.3474    1.0000 </r>
       <r>    8.0860    0.0000 </r>
       <r>    9.0577    0.0000 </r>
       <r>    9.0577    0.0000 </r>
       <r>    9.9218    0.0000 </r>
      </set>
      <set comment="kpoint 34">
       <r>   -6.0255    1.0000 </r>
       <r>    5.2286    1.0000 </r>
       <r>    5.4565    1.0000 </r>
       <r>    5.4565    1.0000 </r>
       <r>    8.1622    0.0000 </r>
       <r>    8.9028    0.0000 </r>
       <r>    8.9028    0.0000 </r>
       <r>    9.7735    0.0000 </r>
      </set>
      <set comment="kpoint 35">
       <r>   -6.0572    1.0000 </r>
       <r>    5.3938    1.0000 </r>
       <r>    5.5579    1.0000 </r>
       <r>    5.5579    1.0000 </r>
       <r>    8.2302    0.0000 </r>
       <r>    8.7626    0.0000 </r>
       <r>    8.7626    0.0000 </r>
       <r>    9.6271    0.0000 </r>
      </set>
      <set comment="kpoint 36">
       <r>   -6.0831    1.0000 </r>
       <r>    5.5398    1.0000 </r>
       <r>    5.6485    1.0000 </r>
       <r>    5.6485    1.0000 </r>
       <r>    8.2887    0.0000 </r>
       <r>    8.6401    0.0000 </r>
       <r>    8.6401    0.0000 </r>
       <r>    9.4917    0.0000 </r>
      </set>
      <set comment="kpoint 37">
       <r>   -6.1032    1.0000 </r>
       <r>    5.6619    1.0000 </r>
       <r>    5.7249    1.0000 </r>
       <r>    5.7249    1.0000 </r>
       <r>    8.3360    0.0000 </r>
       <r>    8.5390    0.0000 </r>
       <r>    8.5390    0.0000 </r>
       <r>    9.3755    0.0000 </r>
      </set>
      <set comment="kpoint 38">
       <r>   -6.1176    1.0000 </r>
       <r>    5.7545    1.0000 </r>
       <r>    5.7832    1.0000 </r>
       <r>    5.7832    1.0000 </r>
       <r>    8.3709    0.0000 </r>
       <r>    8.4629    0.0000 </r>
       <r>    8.4629    0.0000 </r>
       <r>    9.2858    0.0000 </r>
      </set>
      <set comment="kpoint 39">
       <r>   -6.1262    1.0000 </r>
       <r>    5.8126    1.0000 </r>
       <r>    5.8199    1.0000 </r>
       <r>    5.8199    1.0000 </r>
       <r>    8.3923    0.0000 </r>
       <r>    8.4156    0.0000 </r>
       <r>    8.4156    0.0000 </r>
       <r>    9.2290    0.0000 </r>
      </set>
      <set comment="kpoint 40">
       <r>   -6.1291    1.0000 </r>
       <r>    5.8325    1.0000 </r>
       <r>    5.8325    1.0000 </r>
       <r>    5.8325    1.0000 </r>
       <r>    8.3995    0.0000 </r>
       <r>    8.3995    0.0000 </r>
       <r>    8.3995    0.0000 </r>
       <r>    9.2095    0.0000 </r>
      </set>
      <set comment="kpoint 41">
       <r>   -6.1291    1.0000 </r>
       <r>    5.8325    1.0000 </r>
       <r>    5.8325    1.0000 </r>
       <r>    5.8325    1.0000 </r>
       <r>    8.3995    0.0000 </r>
       <r>    8.3995    0.0000 </r>
       <r>    8.3995    0.0000 </r>
       <r>    9.2095    0.0000 </r>
      </set>
      <set comment="kpoint 42">
       <r>   -6.1262    1.0000 </r>
       <r>    5.8126    1.0000 </r>
       <r>    5.8199    1.0000 </r>
       <r>    5.8199    1.0000 </r>
       <r>    8.3923    0.0000 </r>
       <r>    8.4156    0.0000 </r>
       <r>    8.4156    0.0000 </r>
       <r>    9.2290    0.0000 </r>
      </set>
      <set comment="kpoint 43">
       <r>   -6.1176    1.0000 </r>
       <r>    5.7545    1.0000 </r>
       <r>    5.7832    1.0000 </r>
       <r>    5.7832    1.0000 </r>
       <r>    8.3709    0.0000 </r>
       <r>    8.4629    0.0000 </r>
       <r>    8.4629    0.0000 </r>
       <r>    9.2858    0.0000 </r>
      </set>
      <set comment="kpoint 44">
       <r>   -6.1032    1.0000 </r>
       <r>    5.6619    1.0000 </r>
       <r>    5.7249    1.0000 </r>
       <r>    5.7249    1.0000 </r>
       <r>    8.3360    0.0000 </r>
       <r>    8.5390    0.0000 </r>
       <r>    8.5390    0.0000 </r>
       <r>    9.3755    0.0000 </r>
      </set>
      <set comment="kpoint 45">
       <r>   -6.0831    1.0000 </r>
       <r>    5.5398    1.0000 </r>
       <r>    5.6485    1.0000 </r>
       <r>    5.6485    1.0000 </r>
       <r>    8.2887    0.0000 </r>
       <r>    8.6401    0.0000 </r>
       <r>    8.6401    0.0000 </r>
       <r>    9.4917    0.0000 </r>
      </set>
      <set comment="kpoint 46">
       <r>   -6.0572    1.0000 </r>
       <r>    5.3938    1.0000 </r>
       <r>    5.5579    1.0000 </r>
       <r>    5.5579    1.0000 </r>
       <r>    8.2302    0.0000 </r>
       <r>    8.7626    0.0000 </r>
       <r>    8.7626    0.0000 </r>
       <r>    9.6271    0.0000 </r>
      </set>
      <set comment="kpoint 47">
       <r>   -6.0255    1.0000 </r>
       <r>    5.2286    1.0000 </r>
       <r>    5.4565    1.0000 </r>
       <r>    5.4565    1.0000 </r>
       <r>    8.1622    0.0000 </r>
       <r>    8.9028    0.0000 </r>
       <r>    8.9028    0.0000 </r>
       <r>    9.7735    0.0000 </r>
      </set>
      <set comment="kpoint 48">
       <r>   -5.9882    1.0000 </r>
       <r>    5.0485    1.0000 </r>
       <r>    5.3474    1.0000 </r>
       <r>    5.3474    1.0000 </r>
       <r>    8.0860    0.0000 </r>
       <r>    9.0577    0.0000 </r>
       <r>    9.0577    0.0000 </r>
       <r>    9.9218    0.0000 </r>
      </set>
      <set comment="kpoint 49">
       <r>   -5.9451    1.0000 </r>
       <r>    4.8568    1.0000 </r>
       <r>    5.2331    1.0000 </r>
       <r>    5.2331    1.0000 </r>
       <r>    8.0034    0.0000 </r>
       <r>    9.2247    0.0000 </r>
       <r>    9.2247    0.0000 </r>
       <r>   10.0611    0.0000 </r>
      </set>
      <set comment="kpoint 50">
       <r>   -5.8964    1.0000 </r>
       <r>    4.6560    1.0000 </r>
       <r>    5.1156    1.0000 </r>
       <r>    5.1156    1.0000 </r>
       <r>    7.9157    0.0000 </r>
       <r>    9.4018    0.0000 </r>
       <r>    9.4018    0.0000 </r>
       <r>   10.1774    0.0000 </r>
      </set>
      <set comment="kpoint 51">
       <r>   -5.8419    1.0000 </r>
       <r>    4.4483    1.0000 </r>
       <r>    4.9964    1.0000 </r>
       <r>    4.9964    1.0000 </r>
       <r>    7.8244    0.0000 </r>
       <r>    9.5872    0.0000 </r>
       <r>    9.5872    0.0000 </r>
       <r>   10.2544    0.0000 </r>
      </set>
      <set comment="kpoint 52">
       <r>   -5.7818    1.0000 </r>
       <r>    4.2351    1.0000 </r>
       <r>    4.8769    1.0000 </r>
       <r>    4.8769    1.0000 </r>
       <r>    7.7308    0.0000 </r>
       <r>    9.7805    0.0000 </r>
       <r>    9.7805    0.0000 </r>
       <r>   10.2766    0.0000 </r>
      </set>
      <set comment="kpoint 53">
       <r>   -5.7161    1.0000 </r>
       <r>    4.0177    1.0000 </r>
       <r>    4.7579    1.0000 </r>
       <r>    4.7579    1.0000 </r>
       <r>    7.6358    0.0000 </r>
       <r>    9.9791    0.0000 </r>
       <r>    9.9791    0.0000 </r>
       <r>   10.2371    0.0000 </r>
      </set>
      <set comment="kpoint 54">
       <r>   -5.6448    1.0000 </r>
       <r>    3.7968    1.0000 </r>
       <r>    4.6403    1.0000 </r>
       <r>    4.6403    1.0000 </r>
       <r>    7.5404    0.0000 </r>
       <r>   10.1410    0.0000 </r>
       <r>   10.1826    0.0000 </r>
       <r>   10.1826    0.0000 </r>
      </set>
      <set comment="kpoint 55">
       <r>   -5.5679    1.0000 </r>
       <r>    3.5731    1.0000 </r>
       <r>    4.5247    1.0000 </r>
       <r>    4.5247    1.0000 </r>
       <r>    7.4457    0.0000 </r>
       <r>   10.0013    0.0000 </r>
       <r>   10.3908    0.0000 </r>
       <r>   10.3908    0.0000 </r>
      </set>
      <set comment="kpoint 56">
       <r>   -5.4854    1.0000 </r>
       <r>    3.3476    1.0000 </r>
       <r>    4.4117    1.0000 </r>
       <r>    4.4117    1.0000 </r>
       <r>    7.3524    0.0000 </r>
       <r>    9.8347    0.0000 </r>
       <r>   10.6032    0.0000 </r>
       <r>   10.6032    0.0000 </r>
      </set>
      <set comment="kpoint 57">
       <r>   -5.3974    1.0000 </r>
       <r>    3.1205    1.0000 </r>
       <r>    4.3015    1.0000 </r>
       <r>    4.3015    1.0000 </r>
       <r>    7.2611    0.0000 </r>
       <r>    9.6512    0.0000 </r>
       <r>   10.8188    0.0000 </r>
       <r>   10.8188    0.0000 </r>
      </set>
      <set comment="kpoint 58">
       <r>   -5.3040    1.0000 </r>
       <r>    2.8922    1.0000 </r>
       <r>    4.1947    1.0000 </r>
       <r>    4.1947    1.0000 </r>
       <r>    7.1724    0.0000 </r>
       <r>    9.4587    0.0000 </r>
       <r>   11.0376    0.0000 </r>
       <r>   11.0376    0.0000 </r>
      </set>
      <set comment="kpoint 59">
       <r>   -5.2051    1.0000 </r>
       <r>    2.6628    1.0000 </r>
       <r>    4.0913    1.0000 </r>
       <r>    4.0913    1.0000 </r>
       <r>    7.0866    0.0000 </r>
       <r>    9.2623    0.0000 </r>
       <r>   11.2585    0.0000 </r>
       <r>   11.2585    0.0000 </r>
      </set>
      <set comment="kpoint 60">
       <r>   -5.1008    1.0000 </r>
       <r>    2.4329    1.0000 </r>
       <r>    3.9918    1.0000 </r>
       <r>    3.9918    1.0000 </r>
       <r>    7.0047    0.0000 </r>
       <r>    9.0659    0.0000 </r>
       <r>   11.4824    0.0000 </r>
       <r>   11.4824    0.0000 </r>
      </set>
      <set comment="kpoint 61">
       <r>   -4.9912    1.0000 </r>
       <r>    2.2026    1.0000 </r>
       <r>    3.8964    1.0000 </r>
       <r>    3.8964    1.0000 </r>
       <r>    6.9268    0.0000 </r>
       <r>    8.8718    0.0000 </r>
       <r>   11.7085    0.0000 </r>
       <r>   11.7085    0.0000 </r>
      </set>
      <set comment="kpoint 62">
       <r>   -4.8762    1.0000 </r>
       <r>    1.9720    1.0000 </r>
       <r>    3.8052    1.0000 </r>
       <r>    3.8052    1.0000 </r>
       <r>    6.8535    0.0000 </r>
       <r>    8.6818    0.0000 </r>
       <r>   11.9374    0.0000 </r>
       <r>   11.9374    0.0000 </r>
      </set>
      <set comment="kpoint 63">
       <r>   -4.7560    1.0000 </r>
       <r>    1.7415    1.0000 </r>
       <r>    3.7182    1.0000 </r>
       <r>    3.7182    1.0000 </r>
       <r>    6.7848    0.0000 </r>
       <r>    8.4970    0.0000 </r>
       <r>   12.1674    0.0000 </r>
       <r>   12.1674    0.0000 </r>
      </set>
      <set comment="kpoint 64">
       <r>   -4.6306    1.0000 </r>
       <r>    1.5113    1.0000 </r>
       <r>    3.6358    1.0000 </r>
       <r>    3.6358    1.0000 </r>
       <r>    6.7212    0.0000 </r>
       <r>    8.3188    0.0000 </r>
       <r>   12.4005    0.0000 </r>
       <r>   12.4005    0.0000 </r>
      </set>
      <set comment="kpoint 65">
       <r>   -4.5001    1.0000 </r>
       <r>    1.2815    1.0000 </r>
       <r>    3.5578    1.0000 </r>
       <r>    3.5578    1.0000 </r>
       <r>    6.6626    0.0000 </r>
       <r>    8.1472    0.0000 </r>
       <r>   12.6339    0.0000 </r>
       <r>   12.6339    0.0000 </r>
      </set>
      <set comment="kpoint 66">
       <r>   -4.3645    1.0000 </r>
       <r>    1.0522    1.0000 </r>
       <r>    3.4846    1.0000 </r>
       <r>    3.4846    1.0000 </r>
       <r>    6.6095    0.0000 </r>
       <r>    7.9830    0.0000 </r>
       <r>   12.8690    0.0000 </r>
       <r>   12.8690    0.0000 </r>
      </set>
      <set comment="kpoint 67">
       <r>   -4.2239    1.0000 </r>
       <r>    0.8238    1.0000 </r>
       <r>    3.4161    1.0000 </r>
       <r>    3.4161    1.0000 </r>
       <r>    6.5622    0.0000 </r>
       <r>    7.8265    0.0000 </r>
       <r>   13.1055    0.0000 </r>
       <r>   13.1056    0.0000 </r>
      </set>
      <set comment="kpoint 68">
       <r>   -4.0784    1.0000 </r>
       <r>    0.5963    1.0000 </r>
       <r>    3.3524    1.0000 </r>
       <r>    3.3524    1.0000 </r>
       <r>    6.5208    0.0000 </r>
       <r>    7.6780    0.0000 </r>
       <r>   13.3435    0.0000 </r>
       <r>   13.3435    0.0000 </r>
      </set>
      <set comment="kpoint 69">
       <r>   -3.9281    1.0000 </r>
       <r>    0.3701    1.0000 </r>
       <r>    3.2936    1.0000 </r>
       <r>    3.2936    1.0000 </r>
       <r>    6.4854    0.0000 </r>
       <r>    7.5378    0.0000 </r>
       <r>   13.5827    0.0000 </r>
       <r>   13.5828    0.0000 </r>
      </set>
      <set comment="kpoint 70">
       <r>   -3.7731    1.0000 </r>
       <r>    0.1452    1.0000 </r>
       <r>    3.2397    1.0000 </r>
       <r>    3.2397    1.0000 </r>
       <r>    6.4556    0.0000 </r>
       <r>    7.4057    0.0000 </r>
       <r>   13.8223    0.0000 </r>
       <r>   13.8223    0.0000 </r>
      </set>
      <set comment="kpoint 71">
       <r>   -3.6133    1.0000 </r>
       <r>   -0.0780    1.0000 </r>
       <r>    3.1909    1.0000 </r>
       <r>    3.1909    1.0000 </r>
       <r>    6.4330    0.0000 </r>
       <r>    7.2822    0.0000 </r>
       <r>   14.0642    0.0000 </r>
       <r>   14.0643    0.0000 </r>
      </set>
      <set comment="kpoint 72">
       <r>   -3.4489    1.0000 </r>
       <r>   -0.2994    1.0000 </r>
       <r>    3.1471    1.0000 </r>
       <r>    3.1471    1.0000 </r>
       <r>    6.4172    0.0000 </r>
       <r>    7.1673    0.0000 </r>
       <r>   14.3065    0.0000 </r>
       <r>   14.3065    0.0000 </r>
      </set>
      <set comment="kpoint 73">
       <r>   -3.2801    1.0000 </r>
       <r>   -0.5188    1.0000 </r>
       <r>    3.1084    1.0000 </r>
       <r>    3.1084    1.0000 </r>
       <r>    6.4080    0.0000 </r>
       <r>    7.0605    0.0000 </r>
       <r>   14.5491    0.0000 </r>
       <r>   14.5492    0.0000 </r>
      </set>
      <set comment="kpoint 74">
       <r>   -3.1069    1.0000 </r>
       <r>   -0.7361    1.0000 </r>
       <r>    3.0747    1.0000 </r>
       <r>    3.0747    1.0000 </r>
       <r>    6.4056    0.0000 </r>
       <r>    6.9623    0.0000 </r>
       <r>   14.7925    0.0000 </r>
       <r>   14.7925    0.0000 </r>
      </set>
      <set comment="kpoint 75">
       <r>   -2.9295    1.0000 </r>
       <r>   -0.9509    1.0000 </r>
       <r>    3.0462    1.0000 </r>
       <r>    3.0462    1.0000 </r>
       <r>    6.4103    0.0000 </r>
       <r>    6.8722    0.0000 </r>
       <r>   15.0336    0.0000 </r>
       <r>   15.0336    0.0000 </r>
      </set>
      <set comment="kpoint 76">
       <r>   -2.7480    1.0000 </r>
       <r>   -1.1632    1.0000 </r>
       <r>    3.0229    1.0000 </r>
       <r>    3.0229    1.0000 </r>
       <r>    6.4222    0.0000 </r>
       <r>    6.7904    0.0000 </r>
       <r>   15.2714    0.0000 </r>
       <r>   15.2715    0.0000 </r>
      </set>
      <set comment="kpoint 77">
       <r>   -2.5624    1.0000 </r>
       <r>   -1.3727    1.0000 </r>
       <r>    3.0047    1.0000 </r>
       <r>    3.0047    1.0000 </r>
       <r>    6.4414    0.0000 </r>
       <r>    6.7168    0.0000 </r>
       <r>   15.5016    0.0000 </r>
       <r>   15.5017    0.0000 </r>
      </set>
      <set comment="kpoint 78">
       <r>   -2.3730    1.0000 </r>
       <r>   -1.5794    1.0000 </r>
       <r>    2.9917    1.0000 </r>
       <r>    2.9917    1.0000 </r>
       <r>    6.4680    0.0000 </r>
       <r>    6.6511    0.0000 </r>
       <r>   15.7139    0.0000 </r>
       <r>   15.7142    0.0000 </r>
      </set>
      <set comment="kpoint 79">
       <r>   -2.1798    1.0000 </r>
       <r>   -1.7828    1.0000 </r>
       <r>    2.9839    1.0000 </r>
       <r>    2.9839    1.0000 </r>
       <r>    6.5021    0.0000 </r>
       <r>    6.5936    0.0000 </r>
       <r>   15.8841    0.0000 </r>
       <r>   15.8845    0.0000 </r>
      </set>
      <set comment="kpoint 80">
       <r>   -1.9830    1.0000 </r>
       <r>   -1.9830    1.0000 </r>
       <r>    2.9813    1.0000 </r>
       <r>    2.9813    1.0000 </r>
       <r>    6.5439    0.0000 </r>
       <r>    6.5440    0.0000 </r>
       <r>   15.9558    0.0000 </r>
       <r>   15.9583    0.0000 </r>
      </set>
     </set>
    </set>
   </array>
  </eigenvalues>
  <separator name="orbital magnetization" >
   <v name="MAGDIPOLOUT">      0.00000000      0.00000000      0.00000000</v>
  </separator>
  <dos>
   <i name="efermi">      6.05855275 </i>
   <total>
    <array>
     <dimension dim="1">gridpoints</dimension>
     <dimension dim="2">spin</dimension>
     <field>energy</field>
     <field>total</field>
     <field>integrated</field>
     <set>
      <set comment="spin 1">
       <r>    -7.2335     0.0000     0.0000 </r>
       <r>    -7.1525     0.0000     0.0000 </r>
       <r>    -7.0715     0.0000     0.0000 </r>
       <r>    -6.9905     0.0000     0.0000 </r>
       <r>    -6.9095     0.0000     0.0000 </r>
       <r>    -6.8286     0.0000     0.0000 </r>
       <r>    -6.7476     0.0000     0.0000 </r>
       <r>    -6.6666     0.0000     0.0000 </r>
       <r>    -6.5856     0.0000     0.0000 </r>
       <r>    -6.5046     0.0000     0.0000 </r>
       <r>    -6.4236     0.0000     0.0000 </r>
       <r>    -6.3426     0.0000     0.0000 </r>
       <r>    -6.2616     0.0001     0.0000 </r>
       <r>    -6.1807     0.1166     0.0095 </r>
       <r>    -6.0997     1.8950     0.1629 </r>
       <r>    -6.0187     2.0659     0.3302 </r>
       <r>    -5.9377     1.2470     0.4312 </r>
       <r>    -5.8567     0.9839     0.5109 </r>
       <r>    -5.7757     0.8432     0.5792 </r>
       <r>    -5.6947     0.7505     0.6400 </r>
       <r>    -5.6137     0.6828     0.6953 </r>
       <r>    -5.5328     0.6321     0.7465 </r>
       <r>    -5.4518     0.5938     0.7945 </r>
       <r>    -5.3708     0.5633     0.8402 </r>
       <r>    -5.2898     0.5308     0.8832 </r>
       <r>    -5.2088     0.4895     0.9228 </r>
       <r>    -5.1278     0.4644     0.9604 </r>
       <r>    -5.0468     0.4854     0.9997 </r>
       <r>    -4.9658     0.4781     1.0384 </r>
       <r>    -4.8849     0.3909     1.0701 </r>
       <r>    -4.8039     0.4110     1.1034 </r>
       <r>    -4.7229     0.4708     1.1415 </r>
       <r>    -4.6419     0.3359     1.1687 </r>
       <r>    -4.5609     0.3978     1.2009 </r>
       <r>    -4.4799     0.4309     1.2358 </r>
       <r>    -4.3989     0.2758     1.2582 </r>
       <r>    -4.3179     0.4612     1.2955 </r>
       <r>    -4.2370     0.2754     1.3178 </r>
       <r>    -4.1560     0.3894     1.3493 </r>
       <r>    -4.0750     0.3408     1.3769 </r>
       <r>    -3.9940     0.2987     1.4011 </r>
       <r>    -3.9130     0.3968     1.4333 </r>
       <r>    -3.8320     0.2340     1.4522 </r>
       <r>    -3.7510     0.4255     1.4867 </r>
       <r>    -3.6700     0.1968     1.5026 </r>
       <r>    -3.5891     0.4328     1.5377 </r>
       <r>    -3.5081     0.1804     1.5523 </r>
       <r>    -3.4271     0.4234     1.5866 </r>
       <r>    -3.3461     0.1838     1.6015 </r>
       <r>    -3.2651     0.3920     1.6332 </r>
       <r>    -3.1841     0.2143     1.6506 </r>
       <r>    -3.1031     0.3282     1.6771 </r>
       <r>    -3.0221     0.2799     1.6998 </r>
       <r>    -2.9412     0.2313     1.7185 </r>
       <r>    -2.8602     0.3735     1.7488 </r>
       <r>    -2.7792     0.1313     1.7594 </r>
       <r>    -2.6982     0.4518     1.7960 </r>
       <r>    -2.6172     0.0864     1.8030 </r>
       <r>    -2.5362     0.4384     1.8385 </r>
       <r>    -2.4552     0.1471     1.8504 </r>
       <r>    -2.3742     0.2943     1.8743 </r>
       <r>    -2.2933     0.3106     1.8994 </r>
       <r>    -2.2123     0.1176     1.9090 </r>
       <r>    -2.1313     0.4543     1.9457 </r>
       <r>    -2.0503     0.0876     1.9528 </r>
       <r>    -1.9693     0.7686     2.0151 </r>
       <r>    -1.8883     0.4273     2.0497 </r>
       <r>    -1.8073     0.1543     2.0622 </r>
       <r>    -1.7264     0.4327     2.0972 </r>
       <r>    -1.6454     0.0531     2.1015 </r>
       <r>    -1.5644     0.3909     2.1332 </r>
       <r>    -1.4834     0.2059     2.1499 </r>
       <r>    -1.4024     0.1254     2.1600 </r>
       <r>    -1.3214     0.4482     2.1963 </r>
       <r>    -1.2404     0.0542     2.2007 </r>
       <r>    -1.1594     0.3261     2.2271 </r>
       <r>    -1.0785     0.2774     2.2496 </r>
       <r>    -0.9975     0.0631     2.2547 </r>
       <r>    -0.9165     0.4575     2.2918 </r>
       <r>    -0.8355     0.1029     2.3001 </r>
       <r>    -0.7545     0.1848     2.3151 </r>
       <r>    -0.6735     0.4077     2.3481 </r>
       <r>    -0.5925     0.0351     2.3509 </r>
       <r>    -0.5115     0.3477     2.3791 </r>
       <r>    -0.4306     0.2545     2.3997 </r>
       <r>    -0.3496     0.0519     2.4039 </r>
       <r>    -0.2686     0.4509     2.4404 </r>
       <r>    -0.1876     0.1185     2.4500 </r>
       <r>    -0.1066     0.1289     2.4605 </r>
       <r>    -0.0256     0.4455     2.4965 </r>
       <r>     0.0554     0.0462     2.5003 </r>
       <r>     0.1364     0.2442     2.5201 </r>
       <r>     0.2173     0.3570     2.5490 </r>
       <r>     0.2983     0.0259     2.5511 </r>
       <r>     0.3793     0.3593     2.5802 </r>
       <r>     0.4603     0.2417     2.5997 </r>
       <r>     0.5413     0.0402     2.6030 </r>
       <r>     0.6223     0.4376     2.6384 </r>
       <r>     0.7033     0.1422     2.6500 </r>
       <r>     0.7843     0.0820     2.6566 </r>
       <r>     0.8652     0.4616     2.6940 </r>
       <r>     0.9462     0.0749     2.7001 </r>
       <r>     1.0272     0.1474     2.7120 </r>
       <r>     1.1082     0.4344     2.7472 </r>
       <r>     1.1892     0.0377     2.7502 </r>
       <r>     1.2702     0.2286     2.7687 </r>
       <r>     1.3512     0.3710     2.7988 </r>
       <r>     1.4322     0.0228     2.8006 </r>
       <r>     1.5131     0.3135     2.8260 </r>
       <r>     1.5941     0.2902     2.8495 </r>
       <r>     1.6751     0.0245     2.8515 </r>
       <r>     1.7561     0.3887     2.8830 </r>
       <r>     1.8371     0.2080     2.8998 </r>
       <r>     1.9181     0.0413     2.9032 </r>
       <r>     1.9991     0.4409     2.9389 </r>
       <r>     2.0801     0.1368     2.9500 </r>
       <r>     2.1610     0.0747     2.9560 </r>
       <r>     2.2420     0.4616     2.9934 </r>
       <r>     2.3230     0.0819     3.0000 </r>
       <r>     2.4040     0.1274     3.0103 </r>
       <r>     2.4850     0.4462     3.0465 </r>
       <r>     2.5660     0.0453     3.0501 </r>
       <r>     2.6470     0.1999     3.0663 </r>
       <r>     2.7280     0.3954     3.0984 </r>
       <r>     2.8089     0.0259     3.1005 </r>
       <r>     2.8899     0.3015     3.1249 </r>
       <r>     2.9709     1.8799     3.2771 </r>
       <r>     3.0519     5.2253     3.7003 </r>
       <r>     3.1329     3.5900     3.9911 </r>
       <r>     3.2139     2.5219     4.1953 </r>
       <r>     3.2949     1.9581     4.3539 </r>
       <r>     3.3758     2.1238     4.5259 </r>
       <r>     3.4568     1.6467     4.6592 </r>
       <r>     3.5378     1.4936     4.7802 </r>
       <r>     3.6188     1.7592     4.9227 </r>
       <r>     3.6998     1.2867     5.0269 </r>
       <r>     3.7808     1.3591     5.1369 </r>
       <r>     3.8618     1.5104     5.2593 </r>
       <r>     3.9428     1.1158     5.3496 </r>
       <r>     4.0237     1.3980     5.4628 </r>
       <r>     4.1047     1.2602     5.5649 </r>
       <r>     4.1857     0.9734     5.6437 </r>
       <r>     4.2667     1.3719     5.7549 </r>
       <r>     4.3477     1.1008     5.8440 </r>
       <r>     4.4287     1.1019     5.9332 </r>
       <r>     4.5097     1.2100     6.0312 </r>
       <r>     4.5907     0.9298     6.1065 </r>
       <r>     4.6716     1.3456     6.2155 </r>
       <r>     4.7526     0.9683     6.2939 </r>
       <r>     4.8336     0.9669     6.3722 </r>
       <r>     4.9146     1.3822     6.4842 </r>
       <r>     4.9956     0.8429     6.5524 </r>
       <r>     5.0766     1.2250     6.6517 </r>
       <r>     5.1576     1.1025     6.7409 </r>
       <r>     5.2386     1.1827     6.8367 </r>
       <r>     5.3195     1.0459     6.9214 </r>
       <r>     5.4005     1.3133     7.0278 </r>
       <r>     5.4815     1.2583     7.1297 </r>
       <r>     5.5625     1.3975     7.2429 </r>
       <r>     5.6435     1.4421     7.3597 </r>
       <r>     5.7245     1.8761     7.5116 </r>
       <r>     5.8055     3.0327     7.7572 </r>
       <r>     5.8865     2.8299     7.9864 </r>
       <r>     5.9674     0.1677     8.0000 </r>
       <r>     6.0484     0.0001     8.0000 </r>
       <r>     6.1294     0.0000     8.0000 </r>
       <r>     6.2104     0.0000     8.0000 </r>
       <r>     6.2914     0.0011     8.0001 </r>
       <r>     6.3724     0.4530     8.0368 </r>
       <r>     6.4534     3.7614     8.3414 </r>
       <r>     6.5344     3.4403     8.6200 </r>
       <r>     6.6153     2.4895     8.8216 </r>
       <r>     6.6963     1.7415     8.9627 </r>
       <r>     6.7773     1.5049     9.0846 </r>
       <r>     6.8583     1.3529     9.1941 </r>
       <r>     6.9393     1.2405     9.2946 </r>
       <r>     7.0203     1.1618     9.3887 </r>
       <r>     7.1013     1.1190     9.4793 </r>
       <r>     7.1823     1.0492     9.5643 </r>
       <r>     7.2632     0.9461     9.6409 </r>
       <r>     7.3442     0.9787     9.7202 </r>
       <r>     7.4252     0.9690     9.7986 </r>
       <r>     7.5062     0.8238     9.8653 </r>
       <r>     7.5872     0.9933     9.9458 </r>
       <r>     7.6682     0.8228    10.0124 </r>
       <r>     7.7492     0.9003    10.0853 </r>
       <r>     7.8301     0.8671    10.1556 </r>
       <r>     7.9111     0.8320    10.2229 </r>
       <r>     7.9921     0.9303    10.2983 </r>
       <r>     8.0731     0.8557    10.3676 </r>
       <r>     8.1541     1.0026    10.4488 </r>
       <r>     8.2351     1.0056    10.5302 </r>
       <r>     8.3161     1.2549    10.6319 </r>
       <r>     8.3971     2.9113    10.8676 </r>
       <r>     8.4780     3.2310    11.1293 </r>
       <r>     8.5590     1.7405    11.2703 </r>
       <r>     8.6400     1.0540    11.3556 </r>
       <r>     8.7210     1.2170    11.4542 </r>
       <r>     8.8020     1.0368    11.5381 </r>
       <r>     8.8830     0.8860    11.6099 </r>
       <r>     8.9640     1.0642    11.6961 </r>
       <r>     9.0450     0.6626    11.7497 </r>
       <r>     9.1259     1.1871    11.8459 </r>
       <r>     9.2069     0.9294    11.9212 </r>
       <r>     9.2879     2.3082    12.1081 </r>
       <r>     9.3689     0.9952    12.1887 </r>
       <r>     9.4499     1.5776    12.3165 </r>
       <r>     9.5309     1.0067    12.3980 </r>
       <r>     9.6119     1.2474    12.4990 </r>
       <r>     9.6929     1.1672    12.5935 </r>
       <r>     9.7738     0.9421    12.6698 </r>
       <r>     9.8548     1.4213    12.7849 </r>
       <r>     9.9358     0.7446    12.8452 </r>
       <r>    10.0168     1.5932    12.9743 </r>
       <r>    10.0978     0.9264    13.0493 </r>
       <r>    10.1788     1.4623    13.1677 </r>
       <r>    10.2598     1.9896    13.3289 </r>
       <r>    10.3408     0.9484    13.4057 </r>
       <r>    10.4217     0.9295    13.4809 </r>
       <r>    10.5027     0.2372    13.5001 </r>
       <r>    10.5837     0.3576    13.5291 </r>
       <r>    10.6647     0.8249    13.5959 </r>
       <r>    10.7457     0.0743    13.6019 </r>
       <r>    10.8267     0.7020    13.6588 </r>
       <r>    10.9077     0.5017    13.6994 </r>
       <r>    10.9887     0.1101    13.7083 </r>
       <r>    11.0696     0.9071    13.7818 </r>
       <r>    11.1506     0.2254    13.8000 </r>
       <r>    11.2316     0.2755    13.8224 </r>
       <r>    11.3126     0.8810    13.8937 </r>
       <r>    11.3936     0.0851    13.9006 </r>
       <r>    11.4746     0.5020    13.9413 </r>
       <r>    11.5556     0.7016    13.9981 </r>
       <r>    11.6366     0.0495    14.0021 </r>
       <r>    11.7175     0.7159    14.0601 </r>
       <r>    11.7985     0.4864    14.0995 </r>
       <r>    11.8795     0.0695    14.1051 </r>
       <r>    11.9605     0.8553    14.1744 </r>
       <r>    12.0415     0.3149    14.1999 </r>
       <r>    12.1225     0.1276    14.2102 </r>
       <r>    12.2035     0.9189    14.2846 </r>
       <r>    12.2845     0.1901    14.3000 </r>
       <r>    12.3654     0.1987    14.3161 </r>
       <r>    12.4464     0.9165    14.3903 </r>
       <r>    12.5274     0.1209    14.4001 </r>
       <r>    12.6084     0.2891    14.4235 </r>
       <r>    12.6894     0.8723    14.4942 </r>
       <r>    12.7704     0.0752    14.5003 </r>
       <r>    12.8514     0.3785    14.5309 </r>
       <r>    12.9323     0.8079    14.5963 </r>
       <r>    13.0133     0.0507    14.6005 </r>
       <r>    13.0943     0.4582    14.6376 </r>
       <r>    13.1753     0.7411    14.6976 </r>
       <r>    13.2563     0.0383    14.7007 </r>
       <r>    13.3373     0.5231    14.7430 </r>
       <r>    13.4183     0.6820    14.7983 </r>
       <r>    13.4993     0.0325    14.8009 </r>
       <r>    13.5802     0.5713    14.8472 </r>
       <r>    13.6612     0.6359    14.8987 </r>
       <r>    13.7422     0.0309    14.9012 </r>
       <r>    13.8232     0.6161    14.9511 </r>
       <r>    13.9042     0.5915    14.9990 </r>
       <r>    13.9852     0.0283    15.0013 </r>
       <r>    14.0662     0.6288    15.0522 </r>
       <r>    14.1472     0.5786    15.0991 </r>
       <r>    14.2281     0.0282    15.1013 </r>
       <r>    14.3091     0.6381    15.1530 </r>
       <r>    14.3901     0.5691    15.1991 </r>
       <r>    14.4711     0.0279    15.2014 </r>
       <r>    14.5521     0.6416    15.2533 </r>
       <r>    14.6331     0.5655    15.2991 </r>
       <r>    14.7141     0.0273    15.3013 </r>
       <r>    14.7951     0.6370    15.3529 </r>
       <r>    14.8760     0.5702    15.3991 </r>
       <r>    14.9570     0.0298    15.4015 </r>
       <r>    15.0380     0.6591    15.4549 </r>
       <r>    15.1190     0.5473    15.4992 </r>
       <r>    15.2000     0.0365    15.5022 </r>
       <r>    15.2810     0.7218    15.5606 </r>
       <r>    15.3620     0.4798    15.5995 </r>
       <r>    15.4430     0.0661    15.6048 </r>
       <r>    15.5239     0.8485    15.6736 </r>
       <r>    15.6049     0.3256    15.6999 </r>
       <r>    15.6859     0.2646    15.7214 </r>
       <r>    15.7669     0.8885    15.7933 </r>
       <r>    15.8479     0.2663    15.8149 </r>
       <r>    15.9289     1.1840    15.9108 </r>
       <r>    16.0099     1.0188    15.9933 </r>
       <r>    16.0909     0.0829    16.0000 </r>
       <r>    16.1718     0.0001    16.0000 </r>
       <r>    16.2528     0.0000    16.0000 </r>
       <r>    16.3338     0.0000    16.0000 </r>
       <r>    16.4148     0.0000    16.0000 </r>
       <r>    16.4958     0.0000    16.0000 </r>
       <r>    16.5768     0.0000    16.0000 </r>
       <r>    16.6578     0.0000    16.0000 </r>
       <r>    16.7388     0.0000    16.0000 </r>
       <r>    16.8197     0.0000    16.0000 </r>
       <r>    16.9007     0.0000    16.0000 </r>
       <r>    16.9817     0.0000    16.0000 </r>
       <r>    17.0627     0.0000    16.0000 </r>
      </set>
     </set>
    </array>
   </total>
   <partial>
    <array>
     <dimension dim="1">gridpoints</dimension>
     <dimension dim="2">spin</dimension>
     <dimension dim="3">ion</dimension>
     <field>energy</field>
     <field>    s</field>
     <field>   py</field>
     <field>   pz</field>
     <field>   px</field>
     <field>  dxy</field>
     <field>  dyz</field>
     <field>  dz2</field>
     <field>  dxz</field>
     <field>x2-y2</field>
     <set>
      <set comment="ion 1">
       <set comment="spin 1">
        <r>    -7.2335     0.0000     0.0000     0.0000     0.0000     0.0000     0.0000     0.0000     0.0000     0.0000 </r>
        <r>    -7.1525     0.0000     0.0000     0.0000     0.0000     0.0000     0.0000     0.0000     0.0000     0.0000 </r>
        <r>    -7.0715     0.0000     0.0000     0.0000     0.0000     0.0000     0.0000     0.0000     0.0000     0.0000 </r>
        <r>    -6.9905     0.0000     0.0000     0.0000     0.0000     0.0000     0.0000     0.0000     0.0000     0.0000 </r>
        <r>    -6.9095     0.0000     0.0000     0.0000     0.0000     0.0000     0.0000     0.0000     0.0000     0.0000 </r>
        <r>    -6.8286     0.0000     0.0000     0.0000     0.0000     0.0000     0.0000     0.0000     0.0000     0.0000 </r>
        <r>    -6.7476     0.0000     0.0000     0.0000     0.0000     0.0000     0.0000     0.0000     0.0000     0.0000 </r>
        <r>    -6.6666     0.0000     0.0000     0.0000     0.0000     0.0000     0.0000     0.0000     0.0000     0.0000 </r>
        <r>    -6.5856     0.0000     0.0000     0.0000     0.0000     0.0000     0.0000     0.0000     0.0000     0.0000 </r>
        <r>    -6.5046     0.0000     0.0000     0.0000     0.0000     0.0000     0.0000     0.0000     0.0000     0.0000 </r>
        <r>    -6.4236     0.0000     0.0000     0.0000     0.0000     0.0000     0.0000     0.0000     0.0000     0.0000 </r>
        <r>    -6.3426     0.0000     0.0000     0.0000     0.0000     0.0000     0.0000     0.0000     0.0000     0.0000 </r>
        <r>    -6.2616     0.0000     0.0000     0.0000     0.0000     0.0000     0.0000     0.0000     0.0000     0.0000 </r>
        <r>    -6.1807     0.0249     0.0000     0.0000     0.0000     0.0000     0.0000     0.0000     0.0000     0.0000 </r>
        <r>    -6.0997     0.4043     0.0001     0.0001     0.0001     0.0000     0.0000     0.0000     0.0000     0.0000 </r>
        <r>    -6.0187     0.4403     0.0004     0.0004     0.0004     0.0000     0.0000     0.0000     0.0000     0.0000 </r>
        <r>    -5.9377     0.2652     0.0007     0.0007     0.0007     0.0000     0.0000     0.0000     0.0000     0.0000 </r>
        <r>    -5.8567     0.2088     0.0008     0.0008     0.0008     0.0000     0.0000     0.0000     0.0000     0.0000 </r>
        <r>    -5.7757     0.1786     0.0010     0.0010     0.0010     0.0000     0.0000     0.0000     0.0000     0.0000 </r>
        <r>    -5.6947     0.1587     0.0011     0.0011     0.0011     0.0000     0.0000     0.0000     0.0000     0.0000 </r>
        <r>    -5.6137     0.1441     0.0012     0.0012     0.0012     0.0000     0.0000     0.0000     0.0000     0.0000 </r>
        <r>    -5.5328     0.1331     0.0013     0.0013     0.0013     0.0000     0.0000     0.0000     0.0000     0.0000 </r>
        <r>    -5.4518     0.1248     0.0014     0.0014     0.0014     0.0000     0.0000     0.0000     0.0000     0.0000 </r>
        <r>    -5.3708     0.1182     0.0015     0.0015     0.0015     0.0000     0.0000     0.0000     0.0000     0.0000 </r>
        <r>    -5.2898     0.1111     0.0016     0.0016     0.0016     0.0000     0.0000     0.0000     0.0000     0.0000 </r>
        <r>    -5.2088     0.1023     0.0016     0.0016     0.0016     0.0000     0.0000     0.0000     0.0000     0.0000 </r>
        <r>    -5.1278     0.0969     0.0016     0.0016     0.0016     0.0000     0.0000     0.0000     0.0000     0.0000 </r>
        <r>    -5.0468     0.1010     0.0018     0.0018     0.0018     0.0000     0.0000     0.0000     0.0000     0.0000 </r>
        <r>    -4.9658     0.0993     0.0020     0.0020     0.0020     0.0000     0.0000     0.0000     0.0000     0.0000 </r>
        <r>    -4.8849     0.0810     0.0017     0.0017     0.0017     0.0000     0.0000     0.0000     0.0000     0.0000 </r>
        <r>    -4.8039     0.0851     0.0019     0.0019     0.0019     0.0000     0.0000     0.0000     0.0000     0.0000 </r>
        <r>    -4.7229     0.0973     0.0024     0.0024     0.0024     0.0000     0.0000     0.0000     0.0000     0.0000 </r>
        <r>    -4.6419     0.0692     0.0018     0.0018     0.0018     0.0000     0.0000     0.0000     0.0000     0.0000 </r>
        <r>    -4.5609     0.0819     0.0022     0.0022     0.0022     0.0000     0.0000     0.0000     0.0000     0.0000 </r>
        <r>    -4.4799     0.0885     0.0026     0.0026     0.0026     0.0000     0.0000     0.0000     0.0000     0.0000 </r>
        <r>    -4.3989     0.0566     0.0017     0.0017     0.0017     0.0000     0.0000     0.0000     0.0000     0.0000 </r>
        <r>    -4.3179     0.0944     0.0030     0.0030     0.0030     0.0000     0.0000     0.0000     0.0000     0.0000 </r>
        <r>    -4.2370     0.0562     0.0019     0.0019     0.0019     0.0000     0.0000     0.0000     0.0000     0.0000 </r>
        <r>    -4.1560     0.0794     0.0027     0.0027     0.0027     0.0000     0.0000     0.0000     0.0000     0.0000 </r>
        <r>    -4.0750     0.0693     0.0025     0.0025     0.0025     0.0000     0.0000     0.0000     0.0000     0.0000 </r>
        <r>    -3.9940     0.0607     0.0023     0.0023     0.0023     0.0000     0.0000     0.0000     0.0000     0.0000 </r>
        <r>    -3.9130     0.0804     0.0032     0.0032     0.0032     0.0000     0.0000     0.0000     0.0000     0.0000 </r>
        <r>    -3.8320     0.0474     0.0019     0.0019     0.0019     0.0000     0.0000     0.0000     0.0000     0.0000 </r>
        <r>    -3.7510     0.0859     0.0037     0.0037     0.0037     0.0000     0.0000     0.0000     0.0000     0.0000 </r>
        <r>    -3.6700     0.0397     0.0017     0.0017     0.0017     0.0000     0.0000     0.0000     0.0000     0.0000 </r>
        <r>    -3.5891     0.0871     0.0040     0.0040     0.0040     0.0000     0.0000     0.0000     0.0000     0.0000 </r>
        <r>    -3.5081     0.0363     0.0017     0.0017     0.0017     0.0000     0.0000     0.0000     0.0000     0.0000 </r>
        <r>    -3.4271     0.0849     0.0042     0.0042     0.0042     0.0000     0.0000     0.0000     0.0000     0.0000 </r>
        <r>    -3.3461     0.0368     0.0018     0.0018     0.0018     0.0000     0.0000     0.0000     0.0000     0.0000 </r>
        <r>    -3.2651     0.0783     0.0041     0.0041     0.0041     0.0000     0.0000     0.0000     0.0000     0.0000 </r>
        <r>    -3.1841     0.0428     0.0022     0.0022     0.0022     0.0000     0.0000     0.0000     0.0000     0.0000 </r>
        <r>    -3.1031     0.0652     0.0036     0.0036     0.0036     0.0000     0.0000     0.0000     0.0000     0.0000 </r>
        <r>    -3.0221     0.0557     0.0031     0.0031     0.0031     0.0000     0.0000     0.0000     0.0000     0.0000 </r>
        <r>    -2.9412     0.0458     0.0027     0.0027     0.0027     0.0000     0.0000     0.0000     0.0000     0.0000 </r>
        <r>    -2.8602     0.0739     0.0044     0.0044     0.0044     0.0000     0.0000     0.0000     0.0000     0.0000 </r>
        <r>    -2.7792     0.0259     0.0016     0.0016     0.0016     0.0000     0.0000     0.0000     0.0000     0.0000 </r>
        <r>    -2.6982     0.0891     0.0056     0.0056     0.0056     0.0000     0.0000     0.0000     0.0000     0.0000 </r>
        <r>    -2.6172     0.0170     0.0011     0.0011     0.0011     0.0000     0.0000     0.0000     0.0000     0.0000 </r>
        <r>    -2.5362     0.0860     0.0057     0.0057     0.0057     0.0000     0.0000     0.0000     0.0000     0.0000 </r>
        <r>    -2.4552     0.0289     0.0019     0.0019     0.0019     0.0000     0.0000     0.0000     0.0000     0.0000 </r>
        <r>    -2.3742     0.0575     0.0041     0.0041     0.0041     0.0000     0.0000     0.0000     0.0000     0.0000 </r>
        <r>    -2.2933     0.0607     0.0043     0.0043     0.0043     0.0000     0.0000     0.0000     0.0000     0.0000 </r>
        <r>    -2.2123     0.0229     0.0017     0.0017     0.0017     0.0000     0.0000     0.0000     0.0000     0.0000 </r>
        <r>    -2.1313     0.0883     0.0066     0.0066     0.0066     0.0000     0.0000     0.0000     0.0000     0.0000 </r>
        <r>    -2.0503     0.0170     0.0013     0.0013     0.0013     0.0000     0.0000     0.0000     0.0000     0.0000 </r>
        <r>    -1.9693     0.1486     0.0117     0.0117     0.0117     0.0000     0.0000     0.0000     0.0000     0.0000 </r>
        <r>    -1.8883     0.0826     0.0065     0.0065     0.0065     0.0000     0.0000     0.0000     0.0000     0.0000 </r>
        <r>    -1.8073     0.0297     0.0025     0.0025     0.0025     0.0000     0.0000     0.0000     0.0000     0.0000 </r>
        <r>    -1.7264     0.0832     0.0069     0.0069     0.0069     0.0000     0.0000     0.0000     0.0000     0.0000 </r>
        <r>    -1.6454     0.0102     0.0009     0.0009     0.0009     0.0000     0.0000     0.0000     0.0000     0.0000 </r>
        <r>    -1.5644     0.0748     0.0065     0.0065     0.0065     0.0000     0.0000     0.0000     0.0000     0.0000 </r>
        <r>    -1.4834     0.0394     0.0034     0.0034     0.0034     0.0000     0.0000     0.0000     0.0000     0.0000 </r>
        <r>    -1.4024     0.0238     0.0022     0.0022     0.0022     0.0000     0.0000     0.0000     0.0000     0.0000 </r>
        <r>    -1.3214     0.0852     0.0079     0.0079     0.0079     0.0000     0.0000     0.0000     0.0000     0.0000 </r>
        <r>    -1.2404     0.0103     0.0010     0.0010     0.0010     0.0000     0.0000     0.0000     0.0000     0.0000 </r>
        <r>    -1.1594     0.0616     0.0060     0.0060     0.0060     0.0000     0.0000     0.0000     0.0000     0.0000 </r>
        <r>    -1.0785     0.0524     0.0051     0.0051     0.0051     0.0000     0.0000     0.0000     0.0000     0.0000 </r>
        <r>    -0.9975     0.0119     0.0012     0.0012     0.0012     0.0000     0.0000     0.0000     0.0000     0.0000 </r>
        <r>    -0.9165     0.0859     0.0088     0.0088     0.0088     0.0000     0.0000     0.0000     0.0000     0.0000 </r>
        <r>    -0.8355     0.0193     0.0020     0.0020     0.0020     0.0000     0.0000     0.0000     0.0000     0.0000 </r>
        <r>    -0.7545     0.0345     0.0037     0.0037     0.0037     0.0000     0.0000     0.0000     0.0000     0.0000 </r>
        <r>    -0.6735     0.0760     0.0081     0.0081     0.0081     0.0000     0.0000     0.0000     0.0000     0.0000 </r>
        <r>    -0.5925     0.0065     0.0007     0.0007     0.0007     0.0000     0.0000     0.0000     0.0000     0.0000 </r>
        <r>    -0.5115     0.0643     0.0072     0.0072     0.0072     0.0000     0.0000     0.0000     0.0000     0.0000 </r>
        <r>    -0.4306     0.0471     0.0053     0.0053     0.0053     0.0000     0.0000     0.0000     0.0000     0.0000 </r>
        <r>    -0.3496     0.0095     0.0011     0.0011     0.0011     0.0000     0.0000     0.0000     0.0000     0.0000 </r>
        <r>    -0.2686     0.0827     0.0098     0.0098     0.0098     0.0000     0.0000     0.0000     0.0000     0.0000 </r>
        <r>    -0.1876     0.0217     0.0026     0.0026     0.0026     0.0000     0.0000     0.0000     0.0000     0.0000 </r>
        <r>    -0.1066     0.0234     0.0029     0.0029     0.0029     0.0000     0.0000     0.0000     0.0000     0.0000 </r>
        <r>    -0.0256     0.0810     0.0101     0.0101     0.0101     0.0000     0.0000     0.0000     0.0000     0.0000 </r>
        <r>     0.0554     0.0084     0.0010     0.0010     0.0010     0.0000     0.0000     0.0000     0.0000     0.0000 </r>
        <r>     0.1364     0.0440     0.0057     0.0057     0.0057     0.0000     0.0000     0.0000     0.0000     0.0000 </r>
        <r>     0.2173     0.0643     0.0084     0.0084     0.0084     0.0000     0.0000     0.0000     0.0000     0.0000 </r>
        <r>     0.2983     0.0046     0.0006     0.0006     0.0006     0.0000     0.0000     0.0000     0.0000     0.0000 </r>
        <r>     0.3793     0.0641     0.0088     0.0088     0.0088     0.0000     0.0000     0.0000     0.0000     0.0000 </r>
        <r>     0.4603     0.0431     0.0059     0.0059     0.0059     0.0000     0.0000     0.0000     0.0000     0.0000 </r>
        <r>     0.5413     0.0071     0.0010     0.0010     0.0010     0.0000     0.0000     0.0000     0.0000     0.0000 </r>
        <r>     0.6223     0.0772     0.0111     0.0111     0.0111     0.0000     0.0000     0.0000     0.0000     0.0000 </r>
        <r>     0.7033     0.0251     0.0036     0.0036     0.0036     0.0000     0.0000     0.0000     0.0000     0.0000 </r>
        <r>     0.7843     0.0143     0.0022     0.0022     0.0022     0.0000     0.0000     0.0000     0.0000     0.0000 </r>
        <r>     0.8652     0.0804     0.0122     0.0122     0.0122     0.0000     0.0000     0.0000     0.0000     0.0000 </r>
        <r>     0.9462     0.0131     0.0020     0.0020     0.0020     0.0000     0.0000     0.0000     0.0000     0.0000 </r>
        <r>     1.0272     0.0253     0.0040     0.0040     0.0040     0.0000     0.0000     0.0000     0.0000     0.0000 </r>
        <r>     1.1082     0.0746     0.0119     0.0119     0.0119     0.0000     0.0000     0.0000     0.0000     0.0000 </r>
        <r>     1.1892     0.0065     0.0010     0.0010     0.0010     0.0000     0.0000     0.0000     0.0000     0.0000 </r>
        <r>     1.2702     0.0387     0.0065     0.0065     0.0065     0.0000     0.0000     0.0000     0.0000     0.0000 </r>
        <r>     1.3512     0.0628     0.0105     0.0105     0.0105     0.0000     0.0000     0.0000     0.0000     0.0000 </r>
        <r>     1.4322     0.0038     0.0007     0.0007     0.0007     0.0000     0.0000     0.0000     0.0000     0.0000 </r>
        <r>     1.5131     0.0522     0.0092     0.0092     0.0092     0.0000     0.0000     0.0000     0.0000     0.0000 </r>
        <r>     1.5941     0.0483     0.0085     0.0085     0.0085     0.0000     0.0000     0.0000     0.0000     0.0000 </r>
        <r>     1.6751     0.0040     0.0007     0.0007     0.0007     0.0000     0.0000     0.0000     0.0000     0.0000 </r>
        <r>     1.7561     0.0636     0.0119     0.0119     0.0119     0.0000     0.0000     0.0000     0.0000     0.0000 </r>
        <r>     1.8371     0.0340     0.0064     0.0064     0.0064     0.0000     0.0000     0.0000     0.0000     0.0000 </r>
        <r>     1.9181     0.0066     0.0013     0.0013     0.0013     0.0000     0.0000     0.0000     0.0000     0.0000 </r>
        <r>     1.9991     0.0707     0.0140     0.0140     0.0140     0.0000     0.0000     0.0000     0.0000     0.0000 </r>
        <r>     2.0801     0.0219     0.0043     0.0043     0.0043     0.0000     0.0000     0.0000     0.0000     0.0000 </r>
        <r>     2.1610     0.0117     0.0025     0.0025     0.0025     0.0000     0.0000     0.0000     0.0000     0.0000 </r>
        <r>     2.2420     0.0724     0.0152     0.0152     0.0152     0.0000     0.0000     0.0000     0.0000     0.0000 </r>
        <r>     2.3230     0.0129     0.0027     0.0027     0.0027     0.0000     0.0000     0.0000     0.0000     0.0000 </r>
        <r>     2.4040     0.0195     0.0043     0.0043     0.0043     0.0000     0.0000     0.0000     0.0000     0.0000 </r>
        <r>     2.4850     0.0683     0.0152     0.0152     0.0152     0.0000     0.0000     0.0000     0.0000     0.0000 </r>
        <r>     2.5660     0.0069     0.0015     0.0015     0.0015     0.0000     0.0000     0.0000     0.0000     0.0000 </r>
        <r>     2.6470     0.0298     0.0071     0.0071     0.0071     0.0000     0.0000     0.0000     0.0000     0.0000 </r>
        <r>     2.7280     0.0589     0.0140     0.0140     0.0140     0.0000     0.0000     0.0000     0.0000     0.0000 </r>
        <r>     2.8089     0.0038     0.0009     0.0009     0.0009     0.0000     0.0000     0.0000     0.0000     0.0000 </r>
        <r>     2.8899     0.0415     0.0115     0.0115     0.0115     0.0000     0.0000     0.0000     0.0000     0.0000 </r>
        <r>     2.9709     0.0457     0.1148     0.1148     0.1148     0.0000     0.0000     0.0000     0.0000     0.0000 </r>
        <r>     3.0519     0.0034     0.3442     0.3442     0.3442     0.0000     0.0000     0.0000     0.0000     0.0000 </r>
        <r>     3.1329     0.0526     0.2265     0.2265     0.2265     0.0000     0.0000     0.0000     0.0000     0.0000 </r>
        <r>     3.2139     0.0309     0.1603     0.1603     0.1603     0.0000     0.0000     0.0000     0.0000     0.0000 </r>
        <r>     3.2949     0.0060     0.1282     0.1282     0.1282     0.0000     0.0000     0.0000     0.0000     0.0000 </r>
        <r>     3.3758     0.0596     0.1286     0.1286     0.1286     0.0000     0.0000     0.0000     0.0000     0.0000 </r>
        <r>     3.4568     0.0176     0.1054     0.1054     0.1054     0.0000     0.0000     0.0000     0.0000     0.0000 </r>
        <r>     3.5378     0.0126     0.0963     0.0963     0.0963     0.0000     0.0000     0.0000     0.0000     0.0000 </r>
        <r>     3.6188     0.0588     0.1050     0.1050     0.1050     0.0000     0.0000     0.0000     0.0000     0.0000 </r>
        <r>     3.6998     0.0080     0.0836     0.0836     0.0836     0.0000     0.0000     0.0000     0.0000     0.0000 </r>
        <r>     3.7808     0.0242     0.0854     0.0854     0.0854     0.0000     0.0000     0.0000     0.0000     0.0000 </r>
        <r>     3.8618     0.0483     0.0909     0.0909     0.0909     0.0000     0.0000     0.0000     0.0000     0.0000 </r>
        <r>     3.9428     0.0037     0.0733     0.0733     0.0733     0.0000     0.0000     0.0000     0.0000     0.0000 </r>
        <r>     4.0237     0.0391     0.0855     0.0855     0.0855     0.0000     0.0000     0.0000     0.0000     0.0000 </r>
        <r>     4.1047     0.0302     0.0781     0.0781     0.0781     0.0000     0.0000     0.0000     0.0000     0.0000 </r>
        <r>     4.1857     0.0058     0.0637     0.0637     0.0637     0.0000     0.0000     0.0000     0.0000     0.0000 </r>
        <r>     4.2667     0.0485     0.0824     0.0824     0.0824     0.0000     0.0000     0.0000     0.0000     0.0000 </r>
        <r>     4.3477     0.0124     0.0712     0.0712     0.0712     0.0000     0.0000     0.0000     0.0000     0.0000 </r>
        <r>     4.4287     0.0176     0.0705     0.0705     0.0705     0.0000     0.0000     0.0000     0.0000     0.0000 </r>
        <r>     4.5097     0.0408     0.0736     0.0736     0.0736     0.0000     0.0000     0.0000     0.0000     0.0000 </r>
        <r>     4.5907     0.0043     0.0616     0.0616     0.0616     0.0000     0.0000     0.0000     0.0000     0.0000 </r>
        <r>     4.6716     0.0352     0.0842     0.0842     0.0842     0.0000     0.0000     0.0000     0.0000     0.0000 </r>
        <r>     4.7526     0.0181     0.0620     0.0620     0.0620     0.0000     0.0000     0.0000     0.0000     0.0000 </r>
        <r>     4.8336     0.0126     0.0631     0.0631     0.0631     0.0000     0.0000     0.0000     0.0000     0.0000 </r>
        <r>     4.9146     0.0339     0.0876     0.0876     0.0876     0.0000     0.0000     0.0000     0.0000     0.0000 </r>
        <r>     4.9956     0.0053     0.0564     0.0564     0.0564     0.0000     0.0000     0.0000     0.0000     0.0000 </r>
        <r>     5.0766     0.0303     0.0782     0.0782     0.0782     0.0000     0.0000     0.0000     0.0000     0.0000 </r>
        <r>     5.1576     0.0097     0.0737     0.0737     0.0737     0.0000     0.0000     0.0000     0.0000     0.0000 </r>
        <r>     5.2386     0.0205     0.0778     0.0778     0.0778     0.0000     0.0000     0.0000     0.0000     0.0000 </r>
        <r>     5.3195     0.0138     0.0697     0.0697     0.0697     0.0000     0.0000     0.0000     0.0000     0.0000 </r>
        <r>     5.4005     0.0153     0.0884     0.0884     0.0884     0.0000     0.0000     0.0000     0.0000     0.0000 </r>
        <r>     5.4815     0.0123     0.0856     0.0856     0.0856     0.0000     0.0000     0.0000     0.0000     0.0000 </r>
        <r>     5.5625     0.0135     0.0957     0.0957     0.0957     0.0000     0.0000     0.0000     0.0000     0.0000 </r>
        <r>     5.6435     0.0086     0.1003     0.1003     0.1003     0.0000     0.0000     0.0000     0.0000     0.0000 </r>
        <r>     5.7245     0.0090     0.1319     0.1319     0.1319     0.0000     0.0000     0.0000     0.0000     0.0000 </r>
        <r>     5.8055     0.0052     0.2168     0.2168     0.2168     0.0000     0.0000     0.0000     0.0000     0.0000 </r>
        <r>     5.8865     0.0013     0.2037     0.2037     0.2037     0.0000     0.0000     0.0000     0.0000     0.0000 </r>
        <r>     5.9674     0.0000     0.0121     0.0121     0.0121     0.0000     0.0000     0.0000     0.0000     0.0000 </r>
        <r>     6.0484     0.0000     0.0000     0.0000     0.0000     0.0000     0.0000     0.0000     0.0000     0.0000 </r>
        <r>     6.1294     0.0000     0.0000     0.0000     0.0000     0.0000     0.0000     0.0000     0.0000     0.0000 </r>
        <r>     6.2104     0.0000     0.0000     0.0000     0.0000     0.0000     0.0000     0.0000     0.0000     0.0000 </r>
        <r>     6.2914     0.0001     0.0000     0.0000     0.0000     0.0000     0.0000     0.0000     0.0000     0.0000 </r>
        <r>     6.3724     0.0241     0.0066     0.0066     0.0066     0.0000     0.0000     0.0000     0.0000     0.0000 </r>
        <r>     6.4534     0.1994     0.0551     0.0551     0.0551     0.0000     0.0000     0.0000     0.0000     0.0000 </r>
        <r>     6.5344     0.1797     0.0508     0.0508     0.0508     0.0000     0.0000     0.0000     0.0000     0.0000 </r>
        <r>     6.6153     0.1273     0.0375     0.0375     0.0375     0.0000     0.0000     0.0000     0.0000     0.0000 </r>
        <r>     6.6963     0.0868     0.0283     0.0283     0.0283     0.0000     0.0000     0.0000     0.0000     0.0000 </r>
        <r>     6.7773     0.0731     0.0254     0.0254     0.0254     0.0000     0.0000     0.0000     0.0000     0.0000 </r>
        <r>     6.8583     0.0641     0.0237     0.0237     0.0237     0.0000     0.0000     0.0000     0.0000     0.0000 </r>
        <r>     6.9393     0.0572     0.0226     0.0226     0.0226     0.0000     0.0000     0.0000     0.0000     0.0000 </r>
        <r>     7.0203     0.0522     0.0219     0.0219     0.0219     0.0000     0.0000     0.0000     0.0000     0.0000 </r>
        <r>     7.1013     0.0490     0.0216     0.0216     0.0216     0.0000     0.0000     0.0000     0.0000     0.0000 </r>
        <r>     7.1823     0.0445     0.0211     0.0211     0.0211     0.0000     0.0000     0.0000     0.0000     0.0000 </r>
        <r>     7.2632     0.0386     0.0204     0.0204     0.0204     0.0000     0.0000     0.0000     0.0000     0.0000 </r>
        <r>     7.3442     0.0391     0.0210     0.0210     0.0210     0.0000     0.0000     0.0000     0.0000     0.0000 </r>
        <r>     7.4252     0.0375     0.0213     0.0213     0.0213     0.0000     0.0000     0.0000     0.0000     0.0000 </r>
        <r>     7.5062     0.0298     0.0205     0.0205     0.0205     0.0000     0.0000     0.0000     0.0000     0.0000 </r>
        <r>     7.5872     0.0360     0.0231     0.0231     0.0231     0.0000     0.0000     0.0000     0.0000     0.0000 </r>
        <r>     7.6682     0.0270     0.0221     0.0221     0.0221     0.0000     0.0000     0.0000     0.0000     0.0000 </r>
        <r>     7.7492     0.0293     0.0234     0.0234     0.0234     0.0000     0.0000     0.0000     0.0000     0.0000 </r>
        <r>     7.8301     0.0265     0.0238     0.0238     0.0238     0.0000     0.0000     0.0000     0.0000     0.0000 </r>
        <r>     7.9111     0.0234     0.0245     0.0245     0.0245     0.0000     0.0000     0.0000     0.0000     0.0000 </r>
        <r>     7.9921     0.0255     0.0272     0.0272     0.0272     0.0000     0.0000     0.0000     0.0000     0.0000 </r>
        <r>     8.0731     0.0196     0.0284     0.0284     0.0284     0.0000     0.0000     0.0000     0.0000     0.0000 </r>
        <r>     8.1541     0.0226     0.0328     0.0328     0.0328     0.0000     0.0000     0.0000     0.0000     0.0000 </r>
        <r>     8.2351     0.0176     0.0370     0.0370     0.0370     0.0000     0.0000     0.0000     0.0000     0.0000 </r>
        <r>     8.3161     0.0173     0.0495     0.0495     0.0495     0.0000     0.0000     0.0000     0.0000     0.0000 </r>
        <r>     8.3971     0.0166     0.1330     0.1330     0.1330     0.0000     0.0000     0.0000     0.0000     0.0000 </r>
        <r>     8.4780     0.0088     0.1560     0.1560     0.1560     0.0000     0.0000     0.0000     0.0000     0.0000 </r>
        <r>     8.5590     0.0183     0.0727     0.0727     0.0727     0.0000     0.0000     0.0000     0.0000     0.0000 </r>
        <r>     8.6400     0.0045     0.0505     0.0505     0.0505     0.0000     0.0000     0.0000     0.0000     0.0000 </r>
        <r>     8.7210     0.0212     0.0447     0.0447     0.0447     0.0000     0.0000     0.0000     0.0000     0.0000 </r>
        <r>     8.8020     0.0045     0.0504     0.0504     0.0504     0.0000     0.0000     0.0000     0.0000     0.0000 </r>
        <r>     8.8830     0.0177     0.0318     0.0318     0.0318     0.0000     0.0000     0.0000     0.0000     0.0000 </r>
        <r>     8.9640     0.0110     0.0470     0.0470     0.0470     0.0000     0.0000     0.0000     0.0000     0.0000 </r>
        <r>     9.0450     0.0087     0.0284     0.0284     0.0284     0.0000     0.0000     0.0000     0.0000     0.0000 </r>
        <r>     9.1259     0.0235     0.0461     0.0461     0.0461     0.0000     0.0000     0.0000     0.0000     0.0000 </r>
        <r>     9.2069     0.1665     0.0230     0.0230     0.0230     0.0000     0.0000     0.0000     0.0000     0.0000 </r>
        <r>     9.2879     0.4005     0.0507     0.0507     0.0507     0.0000     0.0000     0.0000     0.0000     0.0000 </r>
        <r>     9.3689     0.2100     0.0182     0.0182     0.0182     0.0000     0.0000     0.0000     0.0000     0.0000 </r>
        <r>     9.4499     0.1568     0.0553     0.0553     0.0553     0.0000     0.0000     0.0000     0.0000     0.0000 </r>
        <r>     9.5309     0.1761     0.0186     0.0186     0.0186     0.0000     0.0000     0.0000     0.0000     0.0000 </r>
        <r>     9.6119     0.0968     0.0518     0.0518     0.0518     0.0000     0.0000     0.0000     0.0000     0.0000 </r>
        <r>     9.6929     0.1557     0.0287     0.0287     0.0287     0.0000     0.0000     0.0000     0.0000     0.0000 </r>
        <r>     9.7738     0.1034     0.0348     0.0348     0.0348     0.0000     0.0000     0.0000     0.0000     0.0000 </r>
        <r>     9.8548     0.1267     0.0498     0.0498     0.0498     0.0000     0.0000     0.0000     0.0000     0.0000 </r>
        <r>     9.9358     0.1258     0.0193     0.0193     0.0193     0.0000     0.0000     0.0000     0.0000     0.0000 </r>
        <r>    10.0168     0.1137     0.0637     0.0637     0.0637     0.0000     0.0000     0.0000     0.0000     0.0000 </r>
        <r>    10.0978     0.1500     0.0257     0.0257     0.0257     0.0000     0.0000     0.0000     0.0000     0.0000 </r>
        <r>    10.1788     0.1593     0.0510     0.0510     0.0510     0.0000     0.0000     0.0000     0.0000     0.0000 </r>
        <r>    10.2598     0.2481     0.0683     0.0683     0.0683     0.0000     0.0000     0.0000     0.0000     0.0000 </r>
        <r>    10.3408     0.1528     0.0270     0.0270     0.0270     0.0000     0.0000     0.0000     0.0000     0.0000 </r>
        <r>    10.4217     0.0049     0.0507     0.0507     0.0507     0.0000     0.0000     0.0000     0.0000     0.0000 </r>
        <r>    10.5027     0.0000     0.0131     0.0131     0.0131     0.0000     0.0000     0.0000     0.0000     0.0000 </r>
        <r>    10.5837     0.0000     0.0199     0.0199     0.0199     0.0000     0.0000     0.0000     0.0000     0.0000 </r>
        <r>    10.6647     0.0000     0.0458     0.0458     0.0458     0.0000     0.0000     0.0000     0.0000     0.0000 </r>
        <r>    10.7457     0.0000     0.0041     0.0041     0.0041     0.0000     0.0000     0.0000     0.0000     0.0000 </r>
        <r>    10.8267     0.0000     0.0390     0.0390     0.0390     0.0000     0.0000     0.0000     0.0000     0.0000 </r>
        <r>    10.9077     0.0000     0.0279     0.0279     0.0279     0.0000     0.0000     0.0000     0.0000     0.0000 </r>
        <r>    10.9887     0.0000     0.0061     0.0061     0.0061     0.0000     0.0000     0.0000     0.0000     0.0000 </r>
        <r>    11.0696     0.0000     0.0504     0.0504     0.0504     0.0000     0.0000     0.0000     0.0000     0.0000 </r>
        <r>    11.1506     0.0000     0.0125     0.0125     0.0125     0.0000     0.0000     0.0000     0.0000     0.0000 </r>
        <r>    11.2316     0.0000     0.0153     0.0153     0.0153     0.0000     0.0000     0.0000     0.0000     0.0000 </r>
        <r>    11.3126     0.0000     0.0490     0.0490     0.0490     0.0000     0.0000     0.0000     0.0000     0.0000 </r>
        <r>    11.3936     0.0000     0.0047     0.0047     0.0047     0.0000     0.0000     0.0000     0.0000     0.0000 </r>
        <r>    11.4746     0.0000     0.0279     0.0279     0.0279     0.0000     0.0000     0.0000     0.0000     0.0000 </r>
        <r>    11.5556     0.0000     0.0390     0.0390     0.0390     0.0000     0.0000     0.0000     0.0000     0.0000 </r>
        <r>    11.6366     0.0000     0.0028     0.0028     0.0028     0.0000     0.0000     0.0000     0.0000     0.0000 </r>
        <r>    11.7175     0.0000     0.0398     0.0398     0.0398     0.0000     0.0000     0.0000     0.0000     0.0000 </r>
        <r>    11.7985     0.0000     0.0270     0.0270     0.0270     0.0000     0.0000     0.0000     0.0000     0.0000 </r>
        <r>    11.8795     0.0000     0.0039     0.0039     0.0039     0.0000     0.0000     0.0000     0.0000     0.0000 </r>
        <r>    11.9605     0.0000     0.0475     0.0475     0.0475     0.0000     0.0000     0.0000     0.0000     0.0000 </r>
        <r>    12.0415     0.0000     0.0175     0.0175     0.0175     0.0000     0.0000     0.0000     0.0000     0.0000 </r>
        <r>    12.1225     0.0000     0.0071     0.0071     0.0071     0.0000     0.0000     0.0000     0.0000     0.0000 </r>
        <r>    12.2035     0.0000     0.0509     0.0509     0.0509     0.0000     0.0000     0.0000     0.0000     0.0000 </r>
        <r>    12.2845     0.0000     0.0105     0.0105     0.0105     0.0000     0.0000     0.0000     0.0000     0.0000 </r>
        <r>    12.3654     0.0000     0.0110     0.0110     0.0110     0.0000     0.0000     0.0000     0.0000     0.0000 </r>
        <r>    12.4464     0.0000     0.0508     0.0508     0.0508     0.0000     0.0000     0.0000     0.0000     0.0000 </r>
        <r>    12.5274     0.0000     0.0067     0.0067     0.0067     0.0000     0.0000     0.0000     0.0000     0.0000 </r>
        <r>    12.6084     0.0000     0.0160     0.0160     0.0160     0.0000     0.0000     0.0000     0.0000     0.0000 </r>
        <r>    12.6894     0.0000     0.0483     0.0483     0.0483     0.0000     0.0000     0.0000     0.0000     0.0000 </r>
        <r>    12.7704     0.0000     0.0042     0.0042     0.0042     0.0000     0.0000     0.0000     0.0000     0.0000 </r>
        <r>    12.8514     0.0000     0.0209     0.0209     0.0209     0.0000     0.0000     0.0000     0.0000     0.0000 </r>
        <r>    12.9323     0.0000     0.0446     0.0446     0.0446     0.0000     0.0000     0.0000     0.0000     0.0000 </r>
        <r>    13.0133     0.0000     0.0028     0.0028     0.0028     0.0000     0.0000     0.0000     0.0000     0.0000 </r>
        <r>    13.0943     0.0000     0.0253     0.0253     0.0253     0.0000     0.0000     0.0000     0.0000     0.0000 </r>
        <r>    13.1753     0.0000     0.0408     0.0408     0.0408     0.0000     0.0000     0.0000     0.0000     0.0000 </r>
        <r>    13.2563     0.0000     0.0021     0.0021     0.0021     0.0000     0.0000     0.0000     0.0000     0.0000 </r>
        <r>    13.3373     0.0000     0.0288     0.0288     0.0288     0.0000     0.0000     0.0000     0.0000     0.0000 </r>
        <r>    13.4183     0.0000     0.0375     0.0375     0.0375     0.0000     0.0000     0.0000     0.0000     0.0000 </r>
        <r>    13.4993     0.0000     0.0018     0.0018     0.0018     0.0000     0.0000     0.0000     0.0000     0.0000 </r>
        <r>    13.5802     0.0000     0.0314     0.0314     0.0314     0.0000     0.0000     0.0000     0.0000     0.0000 </r>
        <r>    13.6612     0.0000     0.0350     0.0350     0.0350     0.0000     0.0000     0.0000     0.0000     0.0000 </r>
        <r>    13.7422     0.0000     0.0017     0.0017     0.0017     0.0000     0.0000     0.0000     0.0000     0.0000 </r>
        <r>    13.8232     0.0000     0.0339     0.0339     0.0339     0.0000     0.0000     0.0000     0.0000     0.0000 </r>
        <r>    13.9042     0.0000     0.0326     0.0326     0.0326     0.0000     0.0000     0.0000     0.0000     0.0000 </r>
        <r>    13.9852     0.0000     0.0016     0.0016     0.0016     0.0000     0.0000     0.0000     0.0000     0.0000 </r>
        <r>    14.0662     0.0000     0.0347     0.0347     0.0347     0.0000     0.0000     0.0000     0.0000     0.0000 </r>
        <r>    14.1472     0.0000     0.0319     0.0319     0.0319     0.0000     0.0000     0.0000     0.0000     0.0000 </r>
        <r>    14.2281     0.0000     0.0016     0.0016     0.0016     0.0000     0.0000     0.0000     0.0000     0.0000 </r>
        <r>    14.3091     0.0000     0.0354     0.0354     0.0354     0.0000     0.0000     0.0000     0.0000     0.0000 </r>
        <r>    14.3901     0.0000     0.0315     0.0315     0.0315     0.0000     0.0000     0.0000     0.0000     0.0000 </r>
        <r>    14.4711     0.0000     0.0016     0.0016     0.0016     0.0000     0.0000     0.0000     0.0000     0.0000 </r>
        <r>    14.5521     0.0000     0.0358     0.0358     0.0358     0.0000     0.0000     0.0000     0.0000     0.0000 </r>
        <r>    14.6331     0.0000     0.0316     0.0316     0.0316     0.0000     0.0000     0.0000     0.0000     0.0000 </r>
        <r>    14.7141     0.0000     0.0015     0.0015     0.0015     0.0000     0.0000     0.0000     0.0000     0.0000 </r>
        <r>    14.7951     0.0000     0.0361     0.0361     0.0361     0.0000     0.0000     0.0000     0.0000     0.0000 </r>
        <r>    14.8760     0.0000     0.0323     0.0323     0.0323     0.0000     0.0000     0.0000     0.0000     0.0000 </r>
        <r>    14.9570     0.0000     0.0017     0.0017     0.0017     0.0000     0.0000     0.0000     0.0000     0.0000 </r>
        <r>    15.0380     0.0000     0.0381     0.0381     0.0381     0.0000     0.0000     0.0000     0.0000     0.0000 </r>
        <r>    15.1190     0.0000     0.0316     0.0316     0.0316     0.0000     0.0000     0.0000     0.0000     0.0000 </r>
        <r>    15.2000     0.0000     0.0022     0.0022     0.0022     0.0000     0.0000     0.0000     0.0000     0.0000 </r>
        <r>    15.2810     0.0000     0.0430     0.0430     0.0430     0.0000     0.0000     0.0000     0.0000     0.0000 </r>
        <r>    15.3620     0.0000     0.0286     0.0286     0.0286     0.0000     0.0000     0.0000     0.0000     0.0000 </r>
        <r>    15.4430     0.0000     0.0041     0.0041     0.0041     0.0000     0.0000     0.0000     0.0000     0.0000 </r>
        <r>    15.5239     0.0000     0.0531     0.0531     0.0531     0.0000     0.0000     0.0000     0.0000     0.0000 </r>
        <r>    15.6049     0.0000     0.0204     0.0204     0.0204     0.0000     0.0000     0.0000     0.0000     0.0000 </r>
        <r>    15.6859     0.0000     0.0179     0.0179     0.0179     0.0000     0.0000     0.0000     0.0000     0.0000 </r>
        <r>    15.7669     0.0000     0.0601     0.0601     0.0601     0.0000     0.0000     0.0000     0.0000     0.0000 </r>
        <r>    15.8479     0.0000     0.0193     0.0193     0.0193     0.0000     0.0000     0.0000     0.0000     0.0000 </r>
        <r>    15.9289     0.0000     0.0900     0.0900     0.0900     0.0000     0.0000     0.0000     0.0000     0.0000 </r>
        <r>    16.0099     0.0000     0.0809     0.0809     0.0809     0.0000     0.0000     0.0000     0.0000     0.0000 </r>
        <r>    16.0909     0.0000     0.0066     0.0066     0.0066     0.0000     0.0000     0.0000     0.0000     0.0000 </r>
        <r>    16.1718     0.0000     0.0000     0.0000     0.0000     0.0000     0.0000     0.0000     0.0000     0.0000 </r>
        <r>    16.2528     0.0000     0.0000     0.0000     0.0000     0.0000     0.0000     0.0000     0.0000     0.0000 </r>
        <r>    16.3338     0.0000     0.0000     0.0000     0.0000     0.0000     0.0000     0.0000     0.0000     0.0000 </r>
        <r>    16.4148     0.0000     0.0000     0.0000     0.0000     0.0000     0.0000     0.0000     0.0000     0.0000 </r>
        <r>    16.4958     0.0000     0.0000     0.0000     0.0000     0.0000     0.0000     0.0000     0.0000     0.0000 </r>
        <r>    16.5768     0.0000     0.0000     0.0000     0.0000     0.0000     0.0000     0.0000     0.0000     0.0000 </r>
        <r>    16.6578     0.0000     0.0000     0.0000     0.0000     0.0000     0.0000     0.0000     0.0000     0.0000 </r>
        <r>    16.7388     0.0000     0.0000     0.0000     0.0000     0.0000     0.0000     0.0000     0.0000     0.0000 </r>
        <r>    16.8197     0.0000     0.0000     0.0000     0.0000     0.0000     0.0000     0.0000     0.0000     0.0000 </r>
        <r>    16.9007     0.0000     0.0000     0.0000     0.0000     0.0000     0.0000     0.0000     0.0000     0.0000 </r>
        <r>    16.9817     0.0000     0.0000     0.0000     0.0000     0.0000     0.0000     0.0000     0.0000     0.0000 </r>
        <r>    17.0627     0.0000     0.0000     0.0000     0.0000     0.0000     0.0000     0.0000     0.0000     0.0000 </r>
       </set>
      </set>
      <set comment="ion 2">
       <set comment="spin 1">
        <r>    -7.2335     0.0000     0.0000     0.0000     0.0000     0.0000     0.0000     0.0000     0.0000     0.0000 </r>
        <r>    -7.1525     0.0000     0.0000     0.0000     0.0000     0.0000     0.0000     0.0000     0.0000     0.0000 </r>
        <r>    -7.0715     0.0000     0.0000     0.0000     0.0000     0.0000     0.0000     0.0000     0.0000     0.0000 </r>
        <r>    -6.9905     0.0000     0.0000     0.0000     0.0000     0.0000     0.0000     0.0000     0.0000     0.0000 </r>
        <r>    -6.9095     0.0000     0.0000     0.0000     0.0000     0.0000     0.0000     0.0000     0.0000     0.0000 </r>
        <r>    -6.8286     0.0000     0.0000     0.0000     0.0000     0.0000     0.0000     0.0000     0.0000     0.0000 </r>
        <r>    -6.7476     0.0000     0.0000     0.0000     0.0000     0.0000     0.0000     0.0000     0.0000     0.0000 </r>
        <r>    -6.6666     0.0000     0.0000     0.0000     0.0000     0.0000     0.0000     0.0000     0.0000     0.0000 </r>
        <r>    -6.5856     0.0000     0.0000     0.0000     0.0000     0.0000     0.0000     0.0000     0.0000     0.0000 </r>
        <r>    -6.5046     0.0000     0.0000     0.0000     0.0000     0.0000     0.0000     0.0000     0.0000     0.0000 </r>
        <r>    -6.4236     0.0000     0.0000     0.0000     0.0000     0.0000     0.0000     0.0000     0.0000     0.0000 </r>
        <r>    -6.3426     0.0000     0.0000     0.0000     0.0000     0.0000     0.0000     0.0000     0.0000     0.0000 </r>
        <r>    -6.2616     0.0000     0.0000     0.0000     0.0000     0.0000     0.0000     0.0000     0.0000     0.0000 </r>
        <r>    -6.1807     0.0249     0.0000     0.0000     0.0000     0.0000     0.0000     0.0000     0.0000     0.0000 </r>
        <r>    -6.0997     0.4043     0.0001     0.0001     0.0001     0.0000     0.0000     0.0000     0.0000     0.0000 </r>
        <r>    -6.0187     0.4403     0.0004     0.0004     0.0004     0.0000     0.0000     0.0000     0.0000     0.0000 </r>
        <r>    -5.9377     0.2652     0.0007     0.0007     0.0007     0.0000     0.0000     0.0000     0.0000     0.0000 </r>
        <r>    -5.8567     0.2088     0.0008     0.0008     0.0008     0.0000     0.0000     0.0000     0.0000     0.0000 </r>
        <r>    -5.7757     0.1786     0.0010     0.0010     0.0010     0.0000     0.0000     0.0000     0.0000     0.0000 </r>
        <r>    -5.6947     0.1587     0.0011     0.0011     0.0011     0.0000     0.0000     0.0000     0.0000     0.0000 </r>
        <r>    -5.6137     0.1441     0.0012     0.0012     0.0012     0.0000     0.0000     0.0000     0.0000     0.0000 </r>
        <r>    -5.5328     0.1331     0.0013     0.0013     0.0013     0.0000     0.0000     0.0000     0.0000     0.0000 </r>
        <r>    -5.4518     0.1248     0.0014     0.0014     0.0014     0.0000     0.0000     0.0000     0.0000     0.0000 </r>
        <r>    -5.3708     0.1182     0.0015     0.0015     0.0015     0.0000     0.0000     0.0000     0.0000     0.0000 </r>
        <r>    -5.2898     0.1111     0.0016     0.0016     0.0016     0.0000     0.0000     0.0000     0.0000     0.0000 </r>
        <r>    -5.2088     0.1023     0.0016     0.0016     0.0016     0.0000     0.0000     0.0000     0.0000     0.0000 </r>
        <r>    -5.1278     0.0969     0.0016     0.0016     0.0016     0.0000     0.0000     0.0000     0.0000     0.0000 </r>
        <r>    -5.0468     0.1010     0.0018     0.0018     0.0018     0.0000     0.0000     0.0000     0.0000     0.0000 </r>
        <r>    -4.9658     0.0993     0.0020     0.0020     0.0020     0.0000     0.0000     0.0000     0.0000     0.0000 </r>
        <r>    -4.8849     0.0810     0.0017     0.0017     0.0017     0.0000     0.0000     0.0000     0.0000     0.0000 </r>
        <r>    -4.8039     0.0851     0.0019     0.0019     0.0019     0.0000     0.0000     0.0000     0.0000     0.0000 </r>
        <r>    -4.7229     0.0973     0.0024     0.0024     0.0024     0.0000     0.0000     0.0000     0.0000     0.0000 </r>
        <r>    -4.6419     0.0692     0.0018     0.0018     0.0018     0.0000     0.0000     0.0000     0.0000     0.0000 </r>
        <r>    -4.5609     0.0819     0.0022     0.0022     0.0022     0.0000     0.0000     0.0000     0.0000     0.0000 </r>
        <r>    -4.4799     0.0885     0.0026     0.0026     0.0026     0.0000     0.0000     0.0000     0.0000     0.0000 </r>
        <r>    -4.3989     0.0566     0.0017     0.0017     0.0017     0.0000     0.0000     0.0000     0.0000     0.0000 </r>
        <r>    -4.3179     0.0944     0.0030     0.0030     0.0030     0.0000     0.0000     0.0000     0.0000     0.0000 </r>
        <r>    -4.2370     0.0562     0.0019     0.0019     0.0019     0.0000     0.0000     0.0000     0.0000     0.0000 </r>
        <r>    -4.1560     0.0794     0.0027     0.0027     0.0027     0.0000     0.0000     0.0000     0.0000     0.0000 </r>
        <r>    -4.0750     0.0693     0.0025     0.0025     0.0025     0.0000     0.0000     0.0000     0.0000     0.0000 </r>
        <r>    -3.9940     0.0607     0.0023     0.0023     0.0023     0.0000     0.0000     0.0000     0.0000     0.0000 </r>
        <r>    -3.9130     0.0804     0.0032     0.0032     0.0032     0.0000     0.0000     0.0000     0.0000     0.0000 </r>
        <r>    -3.8320     0.0474     0.0019     0.0019     0.0019     0.0000     0.0000     0.0000     0.0000     0.0000 </r>
        <r>    -3.7510     0.0859     0.0037     0.0037     0.0037     0.0000     0.0000     0.0000     0.0000     0.0000 </r>
        <r>    -3.6700     0.0397     0.0017     0.0017     0.0017     0.0000     0.0000     0.0000     0.0000     0.0000 </r>
        <r>    -3.5891     0.0871     0.0040     0.0040     0.0040     0.0000     0.0000     0.0000     0.0000     0.0000 </r>
        <r>    -3.5081     0.0363     0.0017     0.0017     0.0017     0.0000     0.0000     0.0000     0.0000     0.0000 </r>
        <r>    -3.4271     0.0849     0.0042     0.0042     0.0042     0.0000     0.0000     0.0000     0.0000     0.0000 </r>
        <r>    -3.3461     0.0368     0.0018     0.0018     0.0018     0.0000     0.0000     0.0000     0.0000     0.0000 </r>
        <r>    -3.2651     0.0783     0.0041     0.0041     0.0041     0.0000     0.0000     0.0000     0.0000     0.0000 </r>
        <r>    -3.1841     0.0428     0.0022     0.0022     0.0022     0.0000     0.0000     0.0000     0.0000     0.0000 </r>
        <r>    -3.1031     0.0652     0.0036     0.0036     0.0036     0.0000     0.0000     0.0000     0.0000     0.0000 </r>
        <r>    -3.0221     0.0557     0.0031     0.0031     0.0031     0.0000     0.0000     0.0000     0.0000     0.0000 </r>
        <r>    -2.9412     0.0458     0.0027     0.0027     0.0027     0.0000     0.0000     0.0000     0.0000     0.0000 </r>
        <r>    -2.8602     0.0739     0.0044     0.0044     0.0044     0.0000     0.0000     0.0000     0.0000     0.0000 </r>
        <r>    -2.7792     0.0259     0.0016     0.0016     0.0016     0.0000     0.0000     0.0000     0.0000     0.0000 </r>
        <r>    -2.6982     0.0891     0.0056     0.0056     0.0056     0.0000     0.0000     0.0000     0.0000     0.0000 </r>
        <r>    -2.6172     0.0170     0.0011     0.0011     0.0011     0.0000     0.0000     0.0000     0.0000     0.0000 </r>
        <r>    -2.5362     0.0860     0.0057     0.0057     0.0057     0.0000     0.0000     0.0000     0.0000     0.0000 </r>
        <r>    -2.4552     0.0289     0.0019     0.0019     0.0019     0.0000     0.0000     0.0000     0.0000     0.0000 </r>
        <r>    -2.3742     0.0575     0.0041     0.0041     0.0041     0.0000     0.0000     0.0000     0.0000     0.0000 </r>
        <r>    -2.2933     0.0607     0.0043     0.0043     0.0043     0.0000     0.0000     0.0000     0.0000     0.0000 </r>
        <r>    -2.2123     0.0229     0.0017     0.0017     0.0017     0.0000     0.0000     0.0000     0.0000     0.0000 </r>
        <r>    -2.1313     0.0883     0.0066     0.0066     0.0066     0.0000     0.0000     0.0000     0.0000     0.0000 </r>
        <r>    -2.0503     0.0170     0.0013     0.0013     0.0013     0.0000     0.0000     0.0000     0.0000     0.0000 </r>
        <r>    -1.9693     0.1486     0.0117     0.0117     0.0117     0.0000     0.0000     0.0000     0.0000     0.0000 </r>
        <r>    -1.8883     0.0826     0.0065     0.0065     0.0065     0.0000     0.0000     0.0000     0.0000     0.0000 </r>
        <r>    -1.8073     0.0297     0.0025     0.0025     0.0025     0.0000     0.0000     0.0000     0.0000     0.0000 </r>
        <r>    -1.7264     0.0832     0.0069     0.0069     0.0069     0.0000     0.0000     0.0000     0.0000     0.0000 </r>
        <r>    -1.6454     0.0102     0.0009     0.0009     0.0009     0.0000     0.0000     0.0000     0.0000     0.0000 </r>
        <r>    -1.5644     0.0748     0.0065     0.0065     0.0065     0.0000     0.0000     0.0000     0.0000     0.0000 </r>
        <r>    -1.4834     0.0394     0.0034     0.0034     0.0034     0.0000     0.0000     0.0000     0.0000     0.0000 </r>
        <r>    -1.4024     0.0238     0.0022     0.0022     0.0022     0.0000     0.0000     0.0000     0.0000     0.0000 </r>
        <r>    -1.3214     0.0852     0.0079     0.0079     0.0079     0.0000     0.0000     0.0000     0.0000     0.0000 </r>
        <r>    -1.2404     0.0103     0.0010     0.0010     0.0010     0.0000     0.0000     0.0000     0.0000     0.0000 </r>
        <r>    -1.1594     0.0616     0.0060     0.0060     0.0060     0.0000     0.0000     0.0000     0.0000     0.0000 </r>
        <r>    -1.0785     0.0524     0.0051     0.0051     0.0051     0.0000     0.0000     0.0000     0.0000     0.0000 </r>
        <r>    -0.9975     0.0119     0.0012     0.0012     0.0012     0.0000     0.0000     0.0000     0.0000     0.0000 </r>
        <r>    -0.9165     0.0859     0.0088     0.0088     0.0088     0.0000     0.0000     0.0000     0.0000     0.0000 </r>
        <r>    -0.8355     0.0193     0.0020     0.0020     0.0020     0.0000     0.0000     0.0000     0.0000     0.0000 </r>
        <r>    -0.7545     0.0345     0.0037     0.0037     0.0037     0.0000     0.0000     0.0000     0.0000     0.0000 </r>
        <r>    -0.6735     0.0760     0.0081     0.0081     0.0081     0.0000     0.0000     0.0000     0.0000     0.0000 </r>
        <r>    -0.5925     0.0065     0.0007     0.0007     0.0007     0.0000     0.0000     0.0000     0.0000     0.0000 </r>
        <r>    -0.5115     0.0643     0.0072     0.0072     0.0072     0.0000     0.0000     0.0000     0.0000     0.0000 </r>
        <r>    -0.4306     0.0471     0.0053     0.0053     0.0053     0.0000     0.0000     0.0000     0.0000     0.0000 </r>
        <r>    -0.3496     0.0095     0.0011     0.0011     0.0011     0.0000     0.0000     0.0000     0.0000     0.0000 </r>
        <r>    -0.2686     0.0827     0.0098     0.0098     0.0098     0.0000     0.0000     0.0000     0.0000     0.0000 </r>
        <r>    -0.1876     0.0217     0.0026     0.0026     0.0026     0.0000     0.0000     0.0000     0.0000     0.0000 </r>
        <r>    -0.1066     0.0234     0.0029     0.0029     0.0029     0.0000     0.0000     0.0000     0.0000     0.0000 </r>
        <r>    -0.0256     0.0810     0.0101     0.0101     0.0101     0.0000     0.0000     0.0000     0.0000     0.0000 </r>
        <r>     0.0554     0.0084     0.0010     0.0010     0.0010     0.0000     0.0000     0.0000     0.0000     0.0000 </r>
        <r>     0.1364     0.0440     0.0057     0.0057     0.0057     0.0000     0.0000     0.0000     0.0000     0.0000 </r>
        <r>     0.2173     0.0643     0.0084     0.0084     0.0084     0.0000     0.0000     0.0000     0.0000     0.0000 </r>
        <r>     0.2983     0.0046     0.0006     0.0006     0.0006     0.0000     0.0000     0.0000     0.0000     0.0000 </r>
        <r>     0.3793     0.0641     0.0088     0.0088     0.0088     0.0000     0.0000     0.0000     0.0000     0.0000 </r>
        <r>     0.4603     0.0431     0.0059     0.0059     0.0059     0.0000     0.0000     0.0000     0.0000     0.0000 </r>
        <r>     0.5413     0.0071     0.0010     0.0010     0.0010     0.0000     0.0000     0.0000     0.0000     0.0000 </r>
        <r>     0.6223     0.0772     0.0111     0.0111     0.0111     0.0000     0.0000     0.0000     0.0000     0.0000 </r>
        <r>     0.7033     0.0251     0.0036     0.0036     0.0036     0.0000     0.0000     0.0000     0.0000     0.0000 </r>
        <r>     0.7843     0.0143     0.0022     0.0022     0.0022     0.0000     0.0000     0.0000     0.0000     0.0000 </r>
        <r>     0.8652     0.0804     0.0122     0.0122     0.0122     0.0000     0.0000     0.0000     0.0000     0.0000 </r>
        <r>     0.9462     0.0131     0.0020     0.0020     0.0020     0.0000     0.0000     0.0000     0.0000     0.0000 </r>
        <r>     1.0272     0.0253     0.0040     0.0040     0.0040     0.0000     0.0000     0.0000     0.0000     0.0000 </r>
        <r>     1.1082     0.0746     0.0119     0.0119     0.0119     0.0000     0.0000     0.0000     0.0000     0.0000 </r>
        <r>     1.1892     0.0065     0.0010     0.0010     0.0010     0.0000     0.0000     0.0000     0.0000     0.0000 </r>
        <r>     1.2702     0.0387     0.0065     0.0065     0.0065     0.0000     0.0000     0.0000     0.0000     0.0000 </r>
        <r>     1.3512     0.0628     0.0105     0.0105     0.0105     0.0000     0.0000     0.0000     0.0000     0.0000 </r>
        <r>     1.4322     0.0038     0.0007     0.0007     0.0007     0.0000     0.0000     0.0000     0.0000     0.0000 </r>
        <r>     1.5131     0.0522     0.0092     0.0092     0.0092     0.0000     0.0000     0.0000     0.0000     0.0000 </r>
        <r>     1.5941     0.0483     0.0085     0.0085     0.0085     0.0000     0.0000     0.0000     0.0000     0.0000 </r>
        <r>     1.6751     0.0040     0.0007     0.0007     0.0007     0.0000     0.0000     0.0000     0.0000     0.0000 </r>
        <r>     1.7561     0.0636     0.0119     0.0119     0.0119     0.0000     0.0000     0.0000     0.0000     0.0000 </r>
        <r>     1.8371     0.0340     0.0064     0.0064     0.0064     0.0000     0.0000     0.0000     0.0000     0.0000 </r>
        <r>     1.9181     0.0066     0.0013     0.0013     0.0013     0.0000     0.0000     0.0000     0.0000     0.0000 </r>
        <r>     1.9991     0.0707     0.0140     0.0140     0.0140     0.0000     0.0000     0.0000     0.0000     0.0000 </r>
        <r>     2.0801     0.0219     0.0043     0.0043     0.0043     0.0000     0.0000     0.0000     0.0000     0.0000 </r>
        <r>     2.1610     0.0117     0.0025     0.0025     0.0025     0.0000     0.0000     0.0000     0.0000     0.0000 </r>
        <r>     2.2420     0.0724     0.0152     0.0152     0.0152     0.0000     0.0000     0.0000     0.0000     0.0000 </r>
        <r>     2.3230     0.0129     0.0027     0.0027     0.0027     0.0000     0.0000     0.0000     0.0000     0.0000 </r>
        <r>     2.4040     0.0195     0.0043     0.0043     0.0043     0.0000     0.0000     0.0000     0.0000     0.0000 </r>
        <r>     2.4850     0.0683     0.0152     0.0152     0.0152     0.0000     0.0000     0.0000     0.0000     0.0000 </r>
        <r>     2.5660     0.0069     0.0015     0.0015     0.0015     0.0000     0.0000     0.0000     0.0000     0.0000 </r>
        <r>     2.6470     0.0298     0.0071     0.0071     0.0071     0.0000     0.0000     0.0000     0.0000     0.0000 </r>
        <r>     2.7280     0.0589     0.0140     0.0140     0.0140     0.0000     0.0000     0.0000     0.0000     0.0000 </r>
        <r>     2.8089     0.0038     0.0009     0.0009     0.0009     0.0000     0.0000     0.0000     0.0000     0.0000 </r>
        <r>     2.8899     0.0415     0.0115     0.0115     0.0115     0.0000     0.0000     0.0000     0.0000     0.0000 </r>
        <r>     2.9709     0.0457     0.1148     0.1148     0.1148     0.0000     0.0000     0.0000     0.0000     0.0000 </r>
        <r>     3.0519     0.0034     0.3442     0.3442     0.3442     0.0000     0.0000     0.0000     0.0000     0.0000 </r>
        <r>     3.1329     0.0526     0.2265     0.2265     0.2265     0.0000     0.0000     0.0000     0.0000     0.0000 </r>
        <r>     3.2139     0.0309     0.1603     0.1603     0.1603     0.0000     0.0000     0.0000     0.0000     0.0000 </r>
        <r>     3.2949     0.0060     0.1282     0.1282     0.1282     0.0000     0.0000     0.0000     0.0000     0.0000 </r>
        <r>     3.3758     0.0596     0.1286     0.1286     0.1286     0.0000     0.0000     0.0000     0.0000     0.0000 </r>
        <r>     3.4568     0.0176     0.1054     0.1054     0.1054     0.0000     0.0000     0.0000     0.0000     0.0000 </r>
        <r>     3.5378     0.0126     0.0963     0.0963     0.0963     0.0000     0.0000     0.0000     0.0000     0.0000 </r>
        <r>     3.6188     0.0588     0.1050     0.1050     0.1050     0.0000     0.0000     0.0000     0.0000     0.0000 </r>
        <r>     3.6998     0.0080     0.0836     0.0836     0.0836     0.0000     0.0000     0.0000     0.0000     0.0000 </r>
        <r>     3.7808     0.0242     0.0854     0.0854     0.0854     0.0000     0.0000     0.0000     0.0000     0.0000 </r>
        <r>     3.8618     0.0483     0.0909     0.0909     0.0909     0.0000     0.0000     0.0000     0.0000     0.0000 </r>
        <r>     3.9428     0.0037     0.0733     0.0733     0.0733     0.0000     0.0000     0.0000     0.0000     0.0000 </r>
        <r>     4.0237     0.0391     0.0855     0.0855     0.0855     0.0000     0.0000     0.0000     0.0000     0.0000 </r>
        <r>     4.1047     0.0302     0.0781     0.0781     0.0781     0.0000     0.0000     0.0000     0.0000     0.0000 </r>
        <r>     4.1857     0.0058     0.0637     0.0637     0.0637     0.0000     0.0000     0.0000     0.0000     0.0000 </r>
        <r>     4.2667     0.0485     0.0824     0.0824     0.0824     0.0000     0.0000     0.0000     0.0000     0.0000 </r>
        <r>     4.3477     0.0124     0.0712     0.0712     0.0712     0.0000     0.0000     0.0000     0.0000     0.0000 </r>
        <r>     4.4287     0.0176     0.0705     0.0705     0.0705     0.0000     0.0000     0.0000     0.0000     0.0000 </r>
        <r>     4.5097     0.0408     0.0736     0.0736     0.0736     0.0000     0.0000     0.0000     0.0000     0.0000 </r>
        <r>     4.5907     0.0043     0.0616     0.0616     0.0616     0.0000     0.0000     0.0000     0.0000     0.0000 </r>
        <r>     4.6716     0.0352     0.0842     0.0842     0.0842     0.0000     0.0000     0.0000     0.0000     0.0000 </r>
        <r>     4.7526     0.0181     0.0620     0.0620     0.0620     0.0000     0.0000     0.0000     0.0000     0.0000 </r>
        <r>     4.8336     0.0126     0.0631     0.0631     0.0631     0.0000     0.0000     0.0000     0.0000     0.0000 </r>
        <r>     4.9146     0.0339     0.0876     0.0876     0.0876     0.0000     0.0000     0.0000     0.0000     0.0000 </r>
        <r>     4.9956     0.0053     0.0564     0.0564     0.0564     0.0000     0.0000     0.0000     0.0000     0.0000 </r>
        <r>     5.0766     0.0303     0.0782     0.0782     0.0782     0.0000     0.0000     0.0000     0.0000     0.0000 </r>
        <r>     5.1576     0.0097     0.0737     0.0737     0.0737     0.0000     0.0000     0.0000     0.0000     0.0000 </r>
        <r>     5.2386     0.0205     0.0778     0.0778     0.0778     0.0000     0.0000     0.0000     0.0000     0.0000 </r>
        <r>     5.3195     0.0138     0.0697     0.0697     0.0697     0.0000     0.0000     0.0000     0.0000     0.0000 </r>
        <r>     5.4005     0.0153     0.0884     0.0884     0.0884     0.0000     0.0000     0.0000     0.0000     0.0000 </r>
        <r>     5.4815     0.0123     0.0856     0.0856     0.0856     0.0000     0.0000     0.0000     0.0000     0.0000 </r>
        <r>     5.5625     0.0135     0.0957     0.0957     0.0957     0.0000     0.0000     0.0000     0.0000     0.0000 </r>
        <r>     5.6435     0.0086     0.1003     0.1003     0.1003     0.0000     0.0000     0.0000     0.0000     0.0000 </r>
        <r>     5.7245     0.0090     0.1319     0.1319     0.1319     0.0000     0.0000     0.0000     0.0000     0.0000 </r>
        <r>     5.8055     0.0052     0.2168     0.2168     0.2168     0.0000     0.0000     0.0000     0.0000     0.0000 </r>
        <r>     5.8865     0.0013     0.2037     0.2037     0.2037     0.0000     0.0000     0.0000     0.0000     0.0000 </r>
        <r>     5.9674     0.0000     0.0121     0.0121     0.0121     0.0000     0.0000     0.0000     0.0000     0.0000 </r>
        <r>     6.0484     0.0000     0.0000     0.0000     0.0000     0.0000     0.0000     0.0000     0.0000     0.0000 </r>
        <r>     6.1294     0.0000     0.0000     0.0000     0.0000     0.0000     0.0000     0.0000     0.0000     0.0000 </r>
        <r>     6.2104     0.0000     0.0000     0.0000     0.0000     0.0000     0.0000     0.0000     0.0000     0.0000 </r>
        <r>     6.2914     0.0001     0.0000     0.0000     0.0000     0.0000     0.0000     0.0000     0.0000     0.0000 </r>
        <r>     6.3724     0.0241     0.0066     0.0066     0.0066     0.0000     0.0000     0.0000     0.0000     0.0000 </r>
        <r>     6.4534     0.1994     0.0551     0.0551     0.0551     0.0000     0.0000     0.0000     0.0000     0.0000 </r>
        <r>     6.5344     0.1797     0.0508     0.0508     0.0508     0.0000     0.0000     0.0000     0.0000     0.0000 </r>
        <r>     6.6153     0.1273     0.0375     0.0375     0.0375     0.0000     0.0000     0.0000     0.0000     0.0000 </r>
        <r>     6.6963     0.0868     0.0283     0.0283     0.0283     0.0000     0.0000     0.0000     0.0000     0.0000 </r>
        <r>     6.7773     0.0731     0.0254     0.0254     0.0254     0.0000     0.0000     0.0000     0.0000     0.0000 </r>
        <r>     6.8583     0.0641     0.0237     0.0237     0.0237     0.0000     0.0000     0.0000     0.0000     0.0000 </r>
        <r>     6.9393     0.0572     0.0226     0.0226     0.0226     0.0000     0.0000     0.0000     0.0000     0.0000 </r>
        <r>     7.0203     0.0522     0.0219     0.0219     0.0219     0.0000     0.0000     0.0000     0.0000     0.0000 </r>
        <r>     7.1013     0.0490     0.0216     0.0216     0.0216     0.0000     0.0000     0.0000     0.0000     0.0000 </r>
        <r>     7.1823     0.0445     0.0211     0.0211     0.0211     0.0000     0.0000     0.0000     0.0000     0.0000 </r>
        <r>     7.2632     0.0386     0.0204     0.0204     0.0204     0.0000     0.0000     0.0000     0.0000     0.0000 </r>
        <r>     7.3442     0.0391     0.0210     0.0210     0.0210     0.0000     0.0000     0.0000     0.0000     0.0000 </r>
        <r>     7.4252     0.0375     0.0213     0.0213     0.0213     0.0000     0.0000     0.0000     0.0000     0.0000 </r>
        <r>     7.5062     0.0298     0.0205     0.0205     0.0205     0.0000     0.0000     0.0000     0.0000     0.0000 </r>
        <r>     7.5872     0.0360     0.0231     0.0231     0.0231     0.0000     0.0000     0.0000     0.0000     0.0000 </r>
        <r>     7.6682     0.0270     0.0221     0.0221     0.0221     0.0000     0.0000     0.0000     0.0000     0.0000 </r>
        <r>     7.7492     0.0293     0.0234     0.0234     0.0234     0.0000     0.0000     0.0000     0.0000     0.0000 </r>
        <r>     7.8301     0.0265     0.0238     0.0238     0.0238     0.0000     0.0000     0.0000     0.0000     0.0000 </r>
        <r>     7.9111     0.0234     0.0245     0.0245     0.0245     0.0000     0.0000     0.0000     0.0000     0.0000 </r>
        <r>     7.9921     0.0255     0.0272     0.0272     0.0272     0.0000     0.0000     0.0000     0.0000     0.0000 </r>
        <r>     8.0731     0.0196     0.0284     0.0284     0.0284     0.0000     0.0000     0.0000     0.0000     0.0000 </r>
        <r>     8.1541     0.0226     0.0328     0.0328     0.0328     0.0000     0.0000     0.0000     0.0000     0.0000 </r>
        <r>     8.2351     0.0176     0.0370     0.0370     0.0370     0.0000     0.0000     0.0000     0.0000     0.0000 </r>
        <r>     8.3161     0.0173     0.0495     0.0495     0.0495     0.0000     0.0000     0.0000     0.0000     0.0000 </r>
        <r>     8.3971     0.0166     0.1330     0.1330     0.1330     0.0000     0.0000     0.0000     0.0000     0.0000 </r>
        <r>     8.4780     0.0088     0.1560     0.1560     0.1560     0.0000     0.0000     0.0000     0.0000     0.0000 </r>
        <r>     8.5590     0.0183     0.0727     0.0727     0.0727     0.0000     0.0000     0.0000     0.0000     0.0000 </r>
        <r>     8.6400     0.0045     0.0505     0.0505     0.0505     0.0000     0.0000     0.0000     0.0000     0.0000 </r>
        <r>     8.7210     0.0212     0.0447     0.0447     0.0447     0.0000     0.0000     0.0000     0.0000     0.0000 </r>
        <r>     8.8020     0.0045     0.0504     0.0504     0.0504     0.0000     0.0000     0.0000     0.0000     0.0000 </r>
        <r>     8.8830     0.0177     0.0318     0.0318     0.0318     0.0000     0.0000     0.0000     0.0000     0.0000 </r>
        <r>     8.9640     0.0110     0.0470     0.0470     0.0470     0.0000     0.0000     0.0000     0.0000     0.0000 </r>
        <r>     9.0450     0.0087     0.0284     0.0284     0.0284     0.0000     0.0000     0.0000     0.0000     0.0000 </r>
        <r>     9.1259     0.0235     0.0461     0.0461     0.0461     0.0000     0.0000     0.0000     0.0000     0.0000 </r>
        <r>     9.2069     0.1665     0.0230     0.0230     0.0230     0.0000     0.0000     0.0000     0.0000     0.0000 </r>
        <r>     9.2879     0.4005     0.0507     0.0507     0.0507     0.0000     0.0000     0.0000     0.0000     0.0000 </r>
        <r>     9.3689     0.2100     0.0182     0.0182     0.0182     0.0000     0.0000     0.0000     0.0000     0.0000 </r>
        <r>     9.4499     0.1568     0.0553     0.0553     0.0553     0.0000     0.0000     0.0000     0.0000     0.0000 </r>
        <r>     9.5309     0.1761     0.0186     0.0186     0.0186     0.0000     0.0000     0.0000     0.0000     0.0000 </r>
        <r>     9.6119     0.0968     0.0518     0.0518     0.0518     0.0000     0.0000     0.0000     0.0000     0.0000 </r>
        <r>     9.6929     0.1557     0.0287     0.0287     0.0287     0.0000     0.0000     0.0000     0.0000     0.0000 </r>
        <r>     9.7738     0.1034     0.0348     0.0348     0.0348     0.0000     0.0000     0.0000     0.0000     0.0000 </r>
        <r>     9.8548     0.1267     0.0498     0.0498     0.0498     0.0000     0.0000     0.0000     0.0000     0.0000 </r>
        <r>     9.9358     0.1258     0.0193     0.0193     0.0193     0.0000     0.0000     0.0000     0.0000     0.0000 </r>
        <r>    10.0168     0.1137     0.0637     0.0637     0.0637     0.0000     0.0000     0.0000     0.0000     0.0000 </r>
        <r>    10.0978     0.1500     0.0257     0.0257     0.0257     0.0000     0.0000     0.0000     0.0000     0.0000 </r>
        <r>    10.1788     0.1593     0.0510     0.0510     0.0510     0.0000     0.0000     0.0000     0.0000     0.0000 </r>
        <r>    10.2598     0.2481     0.0683     0.0683     0.0683     0.0000     0.0000     0.0000     0.0000     0.0000 </r>
        <r>    10.3408     0.1528     0.0270     0.0270     0.0270     0.0000     0.0000     0.0000     0.0000     0.0000 </r>
        <r>    10.4217     0.0049     0.0507     0.0507     0.0507     0.0000     0.0000     0.0000     0.0000     0.0000 </r>
        <r>    10.5027     0.0000     0.0131     0.0131     0.0131     0.0000     0.0000     0.0000     0.0000     0.0000 </r>
        <r>    10.5837     0.0000     0.0199     0.0199     0.0199     0.0000     0.0000     0.0000     0.0000     0.0000 </r>
        <r>    10.6647     0.0000     0.0458     0.0458     0.0458     0.0000     0.0000     0.0000     0.0000     0.0000 </r>
        <r>    10.7457     0.0000     0.0041     0.0041     0.0041     0.0000     0.0000     0.0000     0.0000     0.0000 </r>
        <r>    10.8267     0.0000     0.0390     0.0390     0.0390     0.0000     0.0000     0.0000     0.0000     0.0000 </r>
        <r>    10.9077     0.0000     0.0279     0.0279     0.0279     0.0000     0.0000     0.0000     0.0000     0.0000 </r>
        <r>    10.9887     0.0000     0.0061     0.0061     0.0061     0.0000     0.0000     0.0000     0.0000     0.0000 </r>
        <r>    11.0696     0.0000     0.0504     0.0504     0.0504     0.0000     0.0000     0.0000     0.0000     0.0000 </r>
        <r>    11.1506     0.0000     0.0125     0.0125     0.0125     0.0000     0.0000     0.0000     0.0000     0.0000 </r>
        <r>    11.2316     0.0000     0.0153     0.0153     0.0153     0.0000     0.0000     0.0000     0.0000     0.0000 </r>
        <r>    11.3126     0.0000     0.0490     0.0490     0.0490     0.0000     0.0000     0.0000     0.0000     0.0000 </r>
        <r>    11.3936     0.0000     0.0047     0.0047     0.0047     0.0000     0.0000     0.0000     0.0000     0.0000 </r>
        <r>    11.4746     0.0000     0.0279     0.0279     0.0279     0.0000     0.0000     0.0000     0.0000     0.0000 </r>
        <r>    11.5556     0.0000     0.0390     0.0390     0.0390     0.0000     0.0000     0.0000     0.0000     0.0000 </r>
        <r>    11.6366     0.0000     0.0028     0.0028     0.0028     0.0000     0.0000     0.0000     0.0000     0.0000 </r>
        <r>    11.7175     0.0000     0.0398     0.0398     0.0398     0.0000     0.0000     0.0000     0.0000     0.0000 </r>
        <r>    11.7985     0.0000     0.0270     0.0270     0.0270     0.0000     0.0000     0.0000     0.0000     0.0000 </r>
        <r>    11.8795     0.0000     0.0039     0.0039     0.0039     0.0000     0.0000     0.0000     0.0000     0.0000 </r>
        <r>    11.9605     0.0000     0.0475     0.0475     0.0475     0.0000     0.0000     0.0000     0.0000     0.0000 </r>
        <r>    12.0415     0.0000     0.0175     0.0175     0.0175     0.0000     0.0000     0.0000     0.0000     0.0000 </r>
        <r>    12.1225     0.0000     0.0071     0.0071     0.0071     0.0000     0.0000     0.0000     0.0000     0.0000 </r>
        <r>    12.2035     0.0000     0.0509     0.0509     0.0509     0.0000     0.0000     0.0000     0.0000     0.0000 </r>
        <r>    12.2845     0.0000     0.0105     0.0105     0.0105     0.0000     0.0000     0.0000     0.0000     0.0000 </r>
        <r>    12.3654     0.0000     0.0110     0.0110     0.0110     0.0000     0.0000     0.0000     0.0000     0.0000 </r>
        <r>    12.4464     0.0000     0.0508     0.0508     0.0508     0.0000     0.0000     0.0000     0.0000     0.0000 </r>
        <r>    12.5274     0.0000     0.0067     0.0067     0.0067     0.0000     0.0000     0.0000     0.0000     0.0000 </r>
        <r>    12.6084     0.0000     0.0160     0.0160     0.0160     0.0000     0.0000     0.0000     0.0000     0.0000 </r>
        <r>    12.6894     0.0000     0.0483     0.0483     0.0483     0.0000     0.0000     0.0000     0.0000     0.0000 </r>
        <r>    12.7704     0.0000     0.0042     0.0042     0.0042     0.0000     0.0000     0.0000     0.0000     0.0000 </r>
        <r>    12.8514     0.0000     0.0209     0.0209     0.0209     0.0000     0.0000     0.0000     0.0000     0.0000 </r>
        <r>    12.9323     0.0000     0.0446     0.0446     0.0446     0.0000     0.0000     0.0000     0.0000     0.0000 </r>
        <r>    13.0133     0.0000     0.0028     0.0028     0.0028     0.0000     0.0000     0.0000     0.0000     0.0000 </r>
        <r>    13.0943     0.0000     0.0253     0.0253     0.0253     0.0000     0.0000     0.0000     0.0000     0.0000 </r>
        <r>    13.1753     0.0000     0.0408     0.0408     0.0408     0.0000     0.0000     0.0000     0.0000     0.0000 </r>
        <r>    13.2563     0.0000     0.0021     0.0021     0.0021     0.0000     0.0000     0.0000     0.0000     0.0000 </r>
        <r>    13.3373     0.0000     0.0288     0.0288     0.0288     0.0000     0.0000     0.0000     0.0000     0.0000 </r>
        <r>    13.4183     0.0000     0.0375     0.0375     0.0375     0.0000     0.0000     0.0000     0.0000     0.0000 </r>
        <r>    13.4993     0.0000     0.0018     0.0018     0.0018     0.0000     0.0000     0.0000     0.0000     0.0000 </r>
        <r>    13.5802     0.0000     0.0314     0.0314     0.0314     0.0000     0.0000     0.0000     0.0000     0.0000 </r>
        <r>    13.6612     0.0000     0.0350     0.0350     0.0350     0.0000     0.0000     0.0000     0.0000     0.0000 </r>
        <r>    13.7422     0.0000     0.0017     0.0017     0.0017     0.0000     0.0000     0.0000     0.0000     0.0000 </r>
        <r>    13.8232     0.0000     0.0339     0.0339     0.0339     0.0000     0.0000     0.0000     0.0000     0.0000 </r>
        <r>    13.9042     0.0000     0.0326     0.0326     0.0326     0.0000     0.0000     0.0000     0.0000     0.0000 </r>
        <r>    13.9852     0.0000     0.0016     0.0016     0.0016     0.0000     0.0000     0.0000     0.0000     0.0000 </r>
        <r>    14.0662     0.0000     0.0347     0.0347     0.0347     0.0000     0.0000     0.0000     0.0000     0.0000 </r>
        <r>    14.1472     0.0000     0.0319     0.0319     0.0319     0.0000     0.0000     0.0000     0.0000     0.0000 </r>
        <r>    14.2281     0.0000     0.0016     0.0016     0.0016     0.0000     0.0000     0.0000     0.0000     0.0000 </r>
        <r>    14.3091     0.0000     0.0354     0.0354     0.0354     0.0000     0.0000     0.0000     0.0000     0.0000 </r>
        <r>    14.3901     0.0000     0.0315     0.0315     0.0315     0.0000     0.0000     0.0000     0.0000     0.0000 </r>
        <r>    14.4711     0.0000     0.0016     0.0016     0.0016     0.0000     0.0000     0.0000     0.0000     0.0000 </r>
        <r>    14.5521     0.0000     0.0358     0.0358     0.0358     0.0000     0.0000     0.0000     0.0000     0.0000 </r>
        <r>    14.6331     0.0000     0.0316     0.0316     0.0316     0.0000     0.0000     0.0000     0.0000     0.0000 </r>
        <r>    14.7141     0.0000     0.0015     0.0015     0.0015     0.0000     0.0000     0.0000     0.0000     0.0000 </r>
        <r>    14.7951     0.0000     0.0361     0.0361     0.0361     0.0000     0.0000     0.0000     0.0000     0.0000 </r>
        <r>    14.8760     0.0000     0.0323     0.0323     0.0323     0.0000     0.0000     0.0000     0.0000     0.0000 </r>
        <r>    14.9570     0.0000     0.0017     0.0017     0.0017     0.0000     0.0000     0.0000     0.0000     0.0000 </r>
        <r>    15.0380     0.0000     0.0381     0.0381     0.0381     0.0000     0.0000     0.0000     0.0000     0.0000 </r>
        <r>    15.1190     0.0000     0.0316     0.0316     0.0316     0.0000     0.0000     0.0000     0.0000     0.0000 </r>
        <r>    15.2000     0.0000     0.0022     0.0022     0.0022     0.0000     0.0000     0.0000     0.0000     0.0000 </r>
        <r>    15.2810     0.0000     0.0430     0.0430     0.0430     0.0000     0.0000     0.0000     0.0000     0.0000 </r>
        <r>    15.3620     0.0000     0.0286     0.0286     0.0286     0.0000     0.0000     0.0000     0.0000     0.0000 </r>
        <r>    15.4430     0.0000     0.0041     0.0041     0.0041     0.0000     0.0000     0.0000     0.0000     0.0000 </r>
        <r>    15.5239     0.0000     0.0531     0.0531     0.0531     0.0000     0.0000     0.0000     0.0000     0.0000 </r>
        <r>    15.6049     0.0000     0.0204     0.0204     0.0204     0.0000     0.0000     0.0000     0.0000     0.0000 </r>
        <r>    15.6859     0.0000     0.0179     0.0179     0.0179     0.0000     0.0000     0.0000     0.0000     0.0000 </r>
        <r>    15.7669     0.0000     0.0601     0.0601     0.0601     0.0000     0.0000     0.0000     0.0000     0.0000 </r>
        <r>    15.8479     0.0000     0.0193     0.0193     0.0193     0.0000     0.0000     0.0000     0.0000     0.0000 </r>
        <r>    15.9289     0.0000     0.0900     0.0900     0.0900     0.0000     0.0000     0.0000     0.0000     0.0000 </r>
        <r>    16.0099     0.0000     0.0809     0.0809     0.0809     0.0000     0.0000     0.0000     0.0000     0.0000 </r>
        <r>    16.0909     0.0000     0.0066     0.0066     0.0066     0.0000     0.0000     0.0000     0.0000     0.0000 </r>
        <r>    16.1718     0.0000     0.0000     0.0000     0.0000     0.0000     0.0000     0.0000     0.0000     0.0000 </r>
        <r>    16.2528     0.0000     0.0000     0.0000     0.0000     0.0000     0.0000     0.0000     0.0000     0.0000 </r>
        <r>    16.3338     0.0000     0.0000     0.0000     0.0000     0.0000     0.0000     0.0000     0.0000     0.0000 </r>
        <r>    16.4148     0.0000     0.0000     0.0000     0.0000     0.0000     0.0000     0.0000     0.0000     0.0000 </r>
        <r>    16.4958     0.0000     0.0000     0.0000     0.0000     0.0000     0.0000     0.0000     0.0000     0.0000 </r>
        <r>    16.5768     0.0000     0.0000     0.0000     0.0000     0.0000     0.0000     0.0000     0.0000     0.0000 </r>
        <r>    16.6578     0.0000     0.0000     0.0000     0.0000     0.0000     0.0000     0.0000     0.0000     0.0000 </r>
        <r>    16.7388     0.0000     0.0000     0.0000     0.0000     0.0000     0.0000     0.0000     0.0000     0.0000 </r>
        <r>    16.8197     0.0000     0.0000     0.0000     0.0000     0.0000     0.0000     0.0000     0.0000     0.0000 </r>
        <r>    16.9007     0.0000     0.0000     0.0000     0.0000     0.0000     0.0000     0.0000     0.0000     0.0000 </r>
        <r>    16.9817     0.0000     0.0000     0.0000     0.0000     0.0000     0.0000     0.0000     0.0000     0.0000 </r>
        <r>    17.0627     0.0000     0.0000     0.0000     0.0000     0.0000     0.0000     0.0000     0.0000     0.0000 </r>
       </set>
      </set>
     </set>
    </array>
   </partial>
  </dos>
  <projected>
   <eigenvalues>
    <array>
     <dimension dim="1">band</dimension>
     <dimension dim="2">kpoint</dimension>
     <dimension dim="3">spin</dimension>
     <field>eigene</field>
     <field>occ</field>
     <set>
      <set comment="spin 1">
       <set comment="kpoint 1">
        <r>   -1.9830    1.0000 </r>
        <r>   -1.9830    1.0000 </r>
        <r>    2.9813    1.0000 </r>
        <r>    2.9813    1.0000 </r>
        <r>    6.5439    0.0000 </r>
        <r>    6.5440    0.0000 </r>
        <r>   15.9559    0.0000 </r>
        <r>   15.9574    0.0000 </r>
       </set>
       <set comment="kpoint 2">
        <r>   -2.1798    1.0000 </r>
        <r>   -1.7828    1.0000 </r>
        <r>    2.9839    1.0000 </r>
        <r>    2.9839    1.0000 </r>
        <r>    6.5021    0.0000 </r>
        <r>    6.5936    0.0000 </r>
        <r>   15.8840    0.0000 </r>
        <r>   15.8868    0.0000 </r>
       </set>
       <set comment="kpoint 3">
        <r>   -2.3730    1.0000 </r>
        <r>   -1.5794    1.0000 </r>
        <r>    2.9917    1.0000 </r>
        <r>    2.9917    1.0000 </r>
        <r>    6.4680    0.0000 </r>
        <r>    6.6511    0.0000 </r>
        <r>   15.7138    0.0000 </r>
        <r>   15.7142    0.0000 </r>
       </set>
       <set comment="kpoint 4">
        <r>   -2.5624    1.0000 </r>
        <r>   -1.3727    1.0000 </r>
        <r>    3.0047    1.0000 </r>
        <r>    3.0047    1.0000 </r>
        <r>    6.4414    0.0000 </r>
        <r>    6.7168    0.0000 </r>
        <r>   15.5016    0.0000 </r>
        <r>   15.5018    0.0000 </r>
       </set>
       <set comment="kpoint 5">
        <r>   -2.7480    1.0000 </r>
        <r>   -1.1632    1.0000 </r>
        <r>    3.0229    1.0000 </r>
        <r>    3.0229    1.0000 </r>
        <r>    6.4222    0.0000 </r>
        <r>    6.7904    0.0000 </r>
        <r>   15.2714    0.0000 </r>
        <r>   15.2715    0.0000 </r>
       </set>
       <set comment="kpoint 6">
        <r>   -2.9295    1.0000 </r>
        <r>   -0.9509    1.0000 </r>
        <r>    3.0462    1.0000 </r>
        <r>    3.0462    1.0000 </r>
        <r>    6.4103    0.0000 </r>
        <r>    6.8722    0.0000 </r>
        <r>   15.0336    0.0000 </r>
        <r>   15.0338    0.0000 </r>
       </set>
       <set comment="kpoint 7">
        <r>   -3.1069    1.0000 </r>
        <r>   -0.7361    1.0000 </r>
        <r>    3.0747    1.0000 </r>
        <r>    3.0747    1.0000 </r>
        <r>    6.4056    0.0000 </r>
        <r>    6.9623    0.0000 </r>
        <r>   14.7925    0.0000 </r>
        <r>   14.7925    0.0000 </r>
       </set>
       <set comment="kpoint 8">
        <r>   -3.2801    1.0000 </r>
        <r>   -0.5188    1.0000 </r>
        <r>    3.1084    1.0000 </r>
        <r>    3.1084    1.0000 </r>
        <r>    6.4080    0.0000 </r>
        <r>    7.0605    0.0000 </r>
        <r>   14.5491    0.0000 </r>
        <r>   14.5491    0.0000 </r>
       </set>
       <set comment="kpoint 9">
        <r>   -3.4489    1.0000 </r>
        <r>   -0.2994    1.0000 </r>
        <r>    3.1471    1.0000 </r>
        <r>    3.1471    1.0000 </r>
        <r>    6.4172    0.0000 </r>
        <r>    7.1673    0.0000 </r>
        <r>   14.3065    0.0000 </r>
        <r>   14.3065    0.0000 </r>
       </set>
       <set comment="kpoint 10">
        <r>   -3.6133    1.0000 </r>
        <r>   -0.0780    1.0000 </r>
        <r>    3.1909    1.0000 </r>
        <r>    3.1909    1.0000 </r>
        <r>    6.4330    0.0000 </r>
        <r>    7.2822    0.0000 </r>
        <r>   14.0642    0.0000 </r>
        <r>   14.0642    0.0000 </r>
       </set>
       <set comment="kpoint 11">
        <r>   -3.7731    1.0000 </r>
        <r>    0.1452    1.0000 </r>
        <r>    3.2397    1.0000 </r>
        <r>    3.2397    1.0000 </r>
        <r>    6.4556    0.0000 </r>
        <r>    7.4057    0.0000 </r>
        <r>   13.8223    0.0000 </r>
        <r>   13.8223    0.0000 </r>
       </set>
       <set comment="kpoint 12">
        <r>   -3.9281    1.0000 </r>
        <r>    0.3701    1.0000 </r>
        <r>    3.2936    1.0000 </r>
        <r>    3.2936    1.0000 </r>
        <r>    6.4854    0.0000 </r>
        <r>    7.5378    0.0000 </r>
        <r>   13.5827    0.0000 </r>
        <r>   13.5828    0.0000 </r>
       </set>
       <set comment="kpoint 13">
        <r>   -4.0784    1.0000 </r>
        <r>    0.5963    1.0000 </r>
        <r>    3.3524    1.0000 </r>
        <r>    3.3524    1.0000 </r>
        <r>    6.5208    0.0000 </r>
        <r>    7.6780    0.0000 </r>
        <r>   13.3435    0.0000 </r>
        <r>   13.3435    0.0000 </r>
       </set>
       <set comment="kpoint 14">
        <r>   -4.2239    1.0000 </r>
        <r>    0.8238    1.0000 </r>
        <r>    3.4161    1.0000 </r>
        <r>    3.4161    1.0000 </r>
        <r>    6.5622    0.0000 </r>
        <r>    7.8265    0.0000 </r>
        <r>   13.1055    0.0000 </r>
        <r>   13.1055    0.0000 </r>
       </set>
       <set comment="kpoint 15">
        <r>   -4.3645    1.0000 </r>
        <r>    1.0522    1.0000 </r>
        <r>    3.4846    1.0000 </r>
        <r>    3.4846    1.0000 </r>
        <r>    6.6095    0.0000 </r>
        <r>    7.9830    0.0000 </r>
        <r>   12.8690    0.0000 </r>
        <r>   12.8690    0.0000 </r>
       </set>
       <set comment="kpoint 16">
        <r>   -4.5001    1.0000 </r>
        <r>    1.2815    1.0000 </r>
        <r>    3.5578    1.0000 </r>
        <r>    3.5578    1.0000 </r>
        <r>    6.6626    0.0000 </r>
        <r>    8.1472    0.0000 </r>
        <r>   12.6339    0.0000 </r>
        <r>   12.6339    0.0000 </r>
       </set>
       <set comment="kpoint 17">
        <r>   -4.6306    1.0000 </r>
        <r>    1.5113    1.0000 </r>
        <r>    3.6358    1.0000 </r>
        <r>    3.6358    1.0000 </r>
        <r>    6.7212    0.0000 </r>
        <r>    8.3188    0.0000 </r>
        <r>   12.4005    0.0000 </r>
        <r>   12.4005    0.0000 </r>
       </set>
       <set comment="kpoint 18">
        <r>   -4.7560    1.0000 </r>
        <r>    1.7415    1.0000 </r>
        <r>    3.7182    1.0000 </r>
        <r>    3.7182    1.0000 </r>
        <r>    6.7848    0.0000 </r>
        <r>    8.4970    0.0000 </r>
        <r>   12.1674    0.0000 </r>
        <r>   12.1674    0.0000 </r>
       </set>
       <set comment="kpoint 19">
        <r>   -4.8762    1.0000 </r>
        <r>    1.9720    1.0000 </r>
        <r>    3.8052    1.0000 </r>
        <r>    3.8052    1.0000 </r>
        <r>    6.8535    0.0000 </r>
        <r>    8.6818    0.0000 </r>
        <r>   11.9374    0.0000 </r>
        <r>   11.9374    0.0000 </r>
       </set>
       <set comment="kpoint 20">
        <r>   -4.9912    1.0000 </r>
        <r>    2.2026    1.0000 </r>
        <r>    3.8964    1.0000 </r>
        <r>    3.8964    1.0000 </r>
        <r>    6.9268    0.0000 </r>
        <r>    8.8718    0.0000 </r>
        <r>   11.7085    0.0000 </r>
        <r>   11.7085    0.0000 </r>
       </set>
       <set comment="kpoint 21">
        <r>   -5.1008    1.0000 </r>
        <r>    2.4329    1.0000 </r>
        <r>    3.9918    1.0000 </r>
        <r>    3.9918    1.0000 </r>
        <r>    7.0047    0.0000 </r>
        <r>    9.0659    0.0000 </r>
        <r>   11.4824    0.0000 </r>
        <r>   11.4824    0.0000 </r>
       </set>
       <set comment="kpoint 22">
        <r>   -5.2051    1.0000 </r>
        <r>    2.6628    1.0000 </r>
        <r>    4.0913    1.0000 </r>
        <r>    4.0913    1.0000 </r>
        <r>    7.0866    0.0000 </r>
        <r>    9.2623    0.0000 </r>
        <r>   11.2585    0.0000 </r>
        <r>   11.2585    0.0000 </r>
       </set>
       <set comment="kpoint 23">
        <r>   -5.3040    1.0000 </r>
        <r>    2.8922    1.0000 </r>
        <r>    4.1947    1.0000 </r>
        <r>    4.1947    1.0000 </r>
        <r>    7.1724    0.0000 </r>
        <r>    9.4587    0.0000 </r>
        <r>   11.0376    0.0000 </r>
        <r>   11.0376    0.0000 </r>
       </set>
       <set comment="kpoint 24">
        <r>   -5.3974    1.0000 </r>
        <r>    3.1205    1.0000 </r>
        <r>    4.3015    1.0000 </r>
        <r>    4.3015    1.0000 </r>
        <r>    7.2611    0.0000 </r>
        <r>    9.6512    0.0000 </r>
        <r>   10.8188    0.0000 </r>
        <r>   10.8188    0.0000 </r>
       </set>
       <set comment="kpoint 25">
        <r>   -5.4854    1.0000 </r>
        <r>    3.3476    1.0000 </r>
        <r>    4.4117    1.0000 </r>
        <r>    4.4117    1.0000 </r>
        <r>    7.3524    0.0000 </r>
        <r>    9.8347    0.0000 </r>
        <r>   10.6032    0.0000 </r>
        <r>   10.6032    0.0000 </r>
       </set>
       <set comment="kpoint 26">
        <r>   -5.5679    1.0000 </r>
        <r>    3.5731    1.0000 </r>
        <r>    4.5247    1.0000 </r>
        <r>    4.5247    1.0000 </r>
        <r>    7.4457    0.0000 </r>
        <r>   10.0013    0.0000 </r>
        <r>   10.3908    0.0000 </r>
        <r>   10.3908    0.0000 </r>
       </set>
       <set comment="kpoint 27">
        <r>   -5.6448    1.0000 </r>
        <r>    3.7968    1.0000 </r>
        <r>    4.6403    1.0000 </r>
        <r>    4.6403    1.0000 </r>
        <r>    7.5404    0.0000 </r>
        <r>   10.1410    0.0000 </r>
        <r>   10.1826    0.0000 </r>
        <r>   10.1826    0.0000 </r>
       </set>
       <set comment="kpoint 28">
        <r>   -5.7161    1.0000 </r>
        <r>    4.0177    1.0000 </r>
        <r>    4.7579    1.0000 </r>
        <r>    4.7579    1.0000 </r>
        <r>    7.6358    0.0000 </r>
        <r>    9.9791    0.0000 </r>
        <r>    9.9791    0.0000 </r>
        <r>   10.2371    0.0000 </r>
       </set>
       <set comment="kpoint 29">
        <r>   -5.7818    1.0000 </r>
        <r>    4.2351    1.0000 </r>
        <r>    4.8769    1.0000 </r>
        <r>    4.8769    1.0000 </r>
        <r>    7.7308    0.0000 </r>
        <r>    9.7805    0.0000 </r>
        <r>    9.7805    0.0000 </r>
        <r>   10.2766    0.0000 </r>
       </set>
       <set comment="kpoint 30">
        <r>   -5.8419    1.0000 </r>
        <r>    4.4483    1.0000 </r>
        <r>    4.9964    1.0000 </r>
        <r>    4.9964    1.0000 </r>
        <r>    7.8244    0.0000 </r>
        <r>    9.5872    0.0000 </r>
        <r>    9.5872    0.0000 </r>
        <r>   10.2544    0.0000 </r>
       </set>
       <set comment="kpoint 31">
        <r>   -5.8964    1.0000 </r>
        <r>    4.6560    1.0000 </r>
        <r>    5.1156    1.0000 </r>
        <r>    5.1156    1.0000 </r>
        <r>    7.9157    0.0000 </r>
        <r>    9.4018    0.0000 </r>
        <r>    9.4018    0.0000 </r>
        <r>   10.1774    0.0000 </r>
       </set>
       <set comment="kpoint 32">
        <r>   -5.9451    1.0000 </r>
        <r>    4.8568    1.0000 </r>
        <r>    5.2331    1.0000 </r>
        <r>    5.2331    1.0000 </r>
        <r>    8.0034    0.0000 </r>
        <r>    9.2247    0.0000 </r>
        <r>    9.2247    0.0000 </r>
        <r>   10.0611    0.0000 </r>
       </set>
       <set comment="kpoint 33">
        <r>   -5.9882    1.0000 </r>
        <r>    5.0485    1.0000 </r>
        <r>    5.3474    1.0000 </r>
        <r>    5.3474    1.0000 </r>
        <r>    8.0860    0.0000 </r>
        <r>    9.0577    0.0000 </r>
        <r>    9.0577    0.0000 </r>
        <r>    9.9218    0.0000 </r>
       </set>
       <set comment="kpoint 34">
        <r>   -6.0255    1.0000 </r>
        <r>    5.2286    1.0000 </r>
        <r>    5.4565    1.0000 </r>
        <r>    5.4565    1.0000 </r>
        <r>    8.1622    0.0000 </r>
        <r>    8.9028    0.0000 </r>
        <r>    8.9028    0.0000 </r>
        <r>    9.7735    0.0000 </r>
       </set>
       <set comment="kpoint 35">
        <r>   -6.0572    1.0000 </r>
        <r>    5.3938    1.0000 </r>
        <r>    5.5579    1.0000 </r>
        <r>    5.5579    1.0000 </r>
        <r>    8.2302    0.0000 </r>
        <r>    8.7626    0.0000 </r>
        <r>    8.7626    0.0000 </r>
        <r>    9.6271    0.0000 </r>
       </set>
       <set comment="kpoint 36">
        <r>   -6.0831    1.0000 </r>
        <r>    5.5398    1.0000 </r>
        <r>    5.6485    1.0000 </r>
        <r>    5.6485    1.0000 </r>
        <r>    8.2887    0.0000 </r>
        <r>    8.6401    0.0000 </r>
        <r>    8.6401    0.0000 </r>
        <r>    9.4917    0.0000 </r>
       </set>
       <set comment="kpoint 37">
        <r>   -6.1032    1.0000 </r>
        <r>    5.6619    1.0000 </r>
        <r>    5.7249    1.0000 </r>
        <r>    5.7249    1.0000 </r>
        <r>    8.3360    0.0000 </r>
        <r>    8.5390    0.0000 </r>
        <r>    8.5390    0.0000 </r>
        <r>    9.3755    0.0000 </r>
       </set>
       <set comment="kpoint 38">
        <r>   -6.1176    1.0000 </r>
        <r>    5.7545    1.0000 </r>
        <r>    5.7832    1.0000 </r>
        <r>    5.7832    1.0000 </r>
        <r>    8.3709    0.0000 </r>
        <r>    8.4629    0.0000 </r>
        <r>    8.4629    0.0000 </r>
        <r>    9.2858    0.0000 </r>
       </set>
       <set comment="kpoint 39">
        <r>   -6.1262    1.0000 </r>
        <r>    5.8126    1.0000 </r>
        <r>    5.8199    1.0000 </r>
        <r>    5.8199    1.0000 </r>
        <r>    8.3923    0.0000 </r>
        <r>    8.4156    0.0000 </r>
        <r>    8.4156    0.0000 </r>
        <r>    9.2290    0.0000 </r>
       </set>
       <set comment="kpoint 40">
        <r>   -6.1291    1.0000 </r>
        <r>    5.8325    1.0000 </r>
        <r>    5.8325    1.0000 </r>
        <r>    5.8325    1.0000 </r>
        <r>    8.3995    0.0000 </r>
        <r>    8.3995    0.0000 </r>
        <r>    8.3995    0.0000 </r>
        <r>    9.2095    0.0000 </r>
       </set>
       <set comment="kpoint 41">
        <r>   -6.1291    1.0000 </r>
        <r>    5.8325    1.0000 </r>
        <r>    5.8325    1.0000 </r>
        <r>    5.8325    1.0000 </r>
        <r>    8.3995    0.0000 </r>
        <r>    8.3995    0.0000 </r>
        <r>    8.3995    0.0000 </r>
        <r>    9.2095    0.0000 </r>
       </set>
       <set comment="kpoint 42">
        <r>   -6.1262    1.0000 </r>
        <r>    5.8126    1.0000 </r>
        <r>    5.8199    1.0000 </r>
        <r>    5.8199    1.0000 </r>
        <r>    8.3923    0.0000 </r>
        <r>    8.4156    0.0000 </r>
        <r>    8.4156    0.0000 </r>
        <r>    9.2290    0.0000 </r>
       </set>
       <set comment="kpoint 43">
        <r>   -6.1176    1.0000 </r>
        <r>    5.7545    1.0000 </r>
        <r>    5.7832    1.0000 </r>
        <r>    5.7832    1.0000 </r>
        <r>    8.3709    0.0000 </r>
        <r>    8.4629    0.0000 </r>
        <r>    8.4629    0.0000 </r>
        <r>    9.2858    0.0000 </r>
       </set>
       <set comment="kpoint 44">
        <r>   -6.1032    1.0000 </r>
        <r>    5.6619    1.0000 </r>
        <r>    5.7249    1.0000 </r>
        <r>    5.7249    1.0000 </r>
        <r>    8.3360    0.0000 </r>
        <r>    8.5390    0.0000 </r>
        <r>    8.5390    0.0000 </r>
        <r>    9.3755    0.0000 </r>
       </set>
       <set comment="kpoint 45">
        <r>   -6.0831    1.0000 </r>
        <r>    5.5398    1.0000 </r>
        <r>    5.6485    1.0000 </r>
        <r>    5.6485    1.0000 </r>
        <r>    8.2887    0.0000 </r>
        <r>    8.6401    0.0000 </r>
        <r>    8.6401    0.0000 </r>
        <r>    9.4917    0.0000 </r>
       </set>
       <set comment="kpoint 46">
        <r>   -6.0572    1.0000 </r>
        <r>    5.3938    1.0000 </r>
        <r>    5.5579    1.0000 </r>
        <r>    5.5579    1.0000 </r>
        <r>    8.2302    0.0000 </r>
        <r>    8.7626    0.0000 </r>
        <r>    8.7626    0.0000 </r>
        <r>    9.6271    0.0000 </r>
       </set>
       <set comment="kpoint 47">
        <r>   -6.0255    1.0000 </r>
        <r>    5.2286    1.0000 </r>
        <r>    5.4565    1.0000 </r>
        <r>    5.4565    1.0000 </r>
        <r>    8.1622    0.0000 </r>
        <r>    8.9028    0.0000 </r>
        <r>    8.9028    0.0000 </r>
        <r>    9.7735    0.0000 </r>
       </set>
       <set comment="kpoint 48">
        <r>   -5.9882    1.0000 </r>
        <r>    5.0485    1.0000 </r>
        <r>    5.3474    1.0000 </r>
        <r>    5.3474    1.0000 </r>
        <r>    8.0860    0.0000 </r>
        <r>    9.0577    0.0000 </r>
        <r>    9.0577    0.0000 </r>
        <r>    9.9218    0.0000 </r>
       </set>
       <set comment="kpoint 49">
        <r>   -5.9451    1.0000 </r>
        <r>    4.8568    1.0000 </r>
        <r>    5.2331    1.0000 </r>
        <r>    5.2331    1.0000 </r>
        <r>    8.0034    0.0000 </r>
        <r>    9.2247    0.0000 </r>
        <r>    9.2247    0.0000 </r>
        <r>   10.0611    0.0000 </r>
       </set>
       <set comment="kpoint 50">
        <r>   -5.8964    1.0000 </r>
        <r>    4.6560    1.0000 </r>
        <r>    5.1156    1.0000 </r>
        <r>    5.1156    1.0000 </r>
        <r>    7.9157    0.0000 </r>
        <r>    9.4018    0.0000 </r>
        <r>    9.4018    0.0000 </r>
        <r>   10.1774    0.0000 </r>
       </set>
       <set comment="kpoint 51">
        <r>   -5.8419    1.0000 </r>
        <r>    4.4483    1.0000 </r>
        <r>    4.9964    1.0000 </r>
        <r>    4.9964    1.0000 </r>
        <r>    7.8244    0.0000 </r>
        <r>    9.5872    0.0000 </r>
        <r>    9.5872    0.0000 </r>
        <r>   10.2544    0.0000 </r>
       </set>
       <set comment="kpoint 52">
        <r>   -5.7818    1.0000 </r>
        <r>    4.2351    1.0000 </r>
        <r>    4.8769    1.0000 </r>
        <r>    4.8769    1.0000 </r>
        <r>    7.7308    0.0000 </r>
        <r>    9.7805    0.0000 </r>
        <r>    9.7805    0.0000 </r>
        <r>   10.2766    0.0000 </r>
       </set>
       <set comment="kpoint 53">
        <r>   -5.7161    1.0000 </r>
        <r>    4.0177    1.0000 </r>
        <r>    4.7579    1.0000 </r>
        <r>    4.7579    1.0000 </r>
        <r>    7.6358    0.0000 </r>
        <r>    9.9791    0.0000 </r>
        <r>    9.9791    0.0000 </r>
        <r>   10.2371    0.0000 </r>
       </set>
       <set comment="kpoint 54">
        <r>   -5.6448    1.0000 </r>
        <r>    3.7968    1.0000 </r>
        <r>    4.6403    1.0000 </r>
        <r>    4.6403    1.0000 </r>
        <r>    7.5404    0.0000 </r>
        <r>   10.1410    0.0000 </r>
        <r>   10.1826    0.0000 </r>
        <r>   10.1826    0.0000 </r>
       </set>
       <set comment="kpoint 55">
        <r>   -5.5679    1.0000 </r>
        <r>    3.5731    1.0000 </r>
        <r>    4.5247    1.0000 </r>
        <r>    4.5247    1.0000 </r>
        <r>    7.4457    0.0000 </r>
        <r>   10.0013    0.0000 </r>
        <r>   10.3908    0.0000 </r>
        <r>   10.3908    0.0000 </r>
       </set>
       <set comment="kpoint 56">
        <r>   -5.4854    1.0000 </r>
        <r>    3.3476    1.0000 </r>
        <r>    4.4117    1.0000 </r>
        <r>    4.4117    1.0000 </r>
        <r>    7.3524    0.0000 </r>
        <r>    9.8347    0.0000 </r>
        <r>   10.6032    0.0000 </r>
        <r>   10.6032    0.0000 </r>
       </set>
       <set comment="kpoint 57">
        <r>   -5.3974    1.0000 </r>
        <r>    3.1205    1.0000 </r>
        <r>    4.3015    1.0000 </r>
        <r>    4.3015    1.0000 </r>
        <r>    7.2611    0.0000 </r>
        <r>    9.6512    0.0000 </r>
        <r>   10.8188    0.0000 </r>
        <r>   10.8188    0.0000 </r>
       </set>
       <set comment="kpoint 58">
        <r>   -5.3040    1.0000 </r>
        <r>    2.8922    1.0000 </r>
        <r>    4.1947    1.0000 </r>
        <r>    4.1947    1.0000 </r>
        <r>    7.1724    0.0000 </r>
        <r>    9.4587    0.0000 </r>
        <r>   11.0376    0.0000 </r>
        <r>   11.0376    0.0000 </r>
       </set>
       <set comment="kpoint 59">
        <r>   -5.2051    1.0000 </r>
        <r>    2.6628    1.0000 </r>
        <r>    4.0913    1.0000 </r>
        <r>    4.0913    1.0000 </r>
        <r>    7.0866    0.0000 </r>
        <r>    9.2623    0.0000 </r>
        <r>   11.2585    0.0000 </r>
        <r>   11.2585    0.0000 </r>
       </set>
       <set comment="kpoint 60">
        <r>   -5.1008    1.0000 </r>
        <r>    2.4329    1.0000 </r>
        <r>    3.9918    1.0000 </r>
        <r>    3.9918    1.0000 </r>
        <r>    7.0047    0.0000 </r>
        <r>    9.0659    0.0000 </r>
        <r>   11.4824    0.0000 </r>
        <r>   11.4824    0.0000 </r>
       </set>
       <set comment="kpoint 61">
        <r>   -4.9912    1.0000 </r>
        <r>    2.2026    1.0000 </r>
        <r>    3.8964    1.0000 </r>
        <r>    3.8964    1.0000 </r>
        <r>    6.9268    0.0000 </r>
        <r>    8.8718    0.0000 </r>
        <r>   11.7085    0.0000 </r>
        <r>   11.7085    0.0000 </r>
       </set>
       <set comment="kpoint 62">
        <r>   -4.8762    1.0000 </r>
        <r>    1.9720    1.0000 </r>
        <r>    3.8052    1.0000 </r>
        <r>    3.8052    1.0000 </r>
        <r>    6.8535    0.0000 </r>
        <r>    8.6818    0.0000 </r>
        <r>   11.9374    0.0000 </r>
        <r>   11.9374    0.0000 </r>
       </set>
       <set comment="kpoint 63">
        <r>   -4.7560    1.0000 </r>
        <r>    1.7415    1.0000 </r>
        <r>    3.7182    1.0000 </r>
        <r>    3.7182    1.0000 </r>
        <r>    6.7848    0.0000 </r>
        <r>    8.4970    0.0000 </r>
        <r>   12.1674    0.0000 </r>
        <r>   12.1674    0.0000 </r>
       </set>
       <set comment="kpoint 64">
        <r>   -4.6306    1.0000 </r>
        <r>    1.5113    1.0000 </r>
        <r>    3.6358    1.0000 </r>
        <r>    3.6358    1.0000 </r>
        <r>    6.7212    0.0000 </r>
        <r>    8.3188    0.0000 </r>
        <r>   12.4005    0.0000 </r>
        <r>   12.4005    0.0000 </r>
       </set>
       <set comment="kpoint 65">
        <r>   -4.5001    1.0000 </r>
        <r>    1.2815    1.0000 </r>
        <r>    3.5578    1.0000 </r>
        <r>    3.5578    1.0000 </r>
        <r>    6.6626    0.0000 </r>
        <r>    8.1472    0.0000 </r>
        <r>   12.6339    0.0000 </r>
        <r>   12.6339    0.0000 </r>
       </set>
       <set comment="kpoint 66">
        <r>   -4.3645    1.0000 </r>
        <r>    1.0522    1.0000 </r>
        <r>    3.4846    1.0000 </r>
        <r>    3.4846    1.0000 </r>
        <r>    6.6095    0.0000 </r>
        <r>    7.9830    0.0000 </r>
        <r>   12.8690    0.0000 </r>
        <r>   12.8690    0.0000 </r>
       </set>
       <set comment="kpoint 67">
        <r>   -4.2239    1.0000 </r>
        <r>    0.8238    1.0000 </r>
        <r>    3.4161    1.0000 </r>
        <r>    3.4161    1.0000 </r>
        <r>    6.5622    0.0000 </r>
        <r>    7.8265    0.0000 </r>
        <r>   13.1055    0.0000 </r>
        <r>   13.1056    0.0000 </r>
       </set>
       <set comment="kpoint 68">
        <r>   -4.0784    1.0000 </r>
        <r>    0.5963    1.0000 </r>
        <r>    3.3524    1.0000 </r>
        <r>    3.3524    1.0000 </r>
        <r>    6.5208    0.0000 </r>
        <r>    7.6780    0.0000 </r>
        <r>   13.3435    0.0000 </r>
        <r>   13.3435    0.0000 </r>
       </set>
       <set comment="kpoint 69">
        <r>   -3.9281    1.0000 </r>
        <r>    0.3701    1.0000 </r>
        <r>    3.2936    1.0000 </r>
        <r>    3.2936    1.0000 </r>
        <r>    6.4854    0.0000 </r>
        <r>    7.5378    0.0000 </r>
        <r>   13.5827    0.0000 </r>
        <r>   13.5828    0.0000 </r>
       </set>
       <set comment="kpoint 70">
        <r>   -3.7731    1.0000 </r>
        <r>    0.1452    1.0000 </r>
        <r>    3.2397    1.0000 </r>
        <r>    3.2397    1.0000 </r>
        <r>    6.4556    0.0000 </r>
        <r>    7.4057    0.0000 </r>
        <r>   13.8223    0.0000 </r>
        <r>   13.8223    0.0000 </r>
       </set>
       <set comment="kpoint 71">
        <r>   -3.6133    1.0000 </r>
        <r>   -0.0780    1.0000 </r>
        <r>    3.1909    1.0000 </r>
        <r>    3.1909    1.0000 </r>
        <r>    6.4330    0.0000 </r>
        <r>    7.2822    0.0000 </r>
        <r>   14.0642    0.0000 </r>
        <r>   14.0643    0.0000 </r>
       </set>
       <set comment="kpoint 72">
        <r>   -3.4489    1.0000 </r>
        <r>   -0.2994    1.0000 </r>
        <r>    3.1471    1.0000 </r>
        <r>    3.1471    1.0000 </r>
        <r>    6.4172    0.0000 </r>
        <r>    7.1673    0.0000 </r>
        <r>   14.3065    0.0000 </r>
        <r>   14.3065    0.0000 </r>
       </set>
       <set comment="kpoint 73">
        <r>   -3.2801    1.0000 </r>
        <r>   -0.5188    1.0000 </r>
        <r>    3.1084    1.0000 </r>
        <r>    3.1084    1.0000 </r>
        <r>    6.4080    0.0000 </r>
        <r>    7.0605    0.0000 </r>
        <r>   14.5491    0.0000 </r>
        <r>   14.5492    0.0000 </r>
       </set>
       <set comment="kpoint 74">
        <r>   -3.1069    1.0000 </r>
        <r>   -0.7361    1.0000 </r>
        <r>    3.0747    1.0000 </r>
        <r>    3.0747    1.0000 </r>
        <r>    6.4056    0.0000 </r>
        <r>    6.9623    0.0000 </r>
        <r>   14.7925    0.0000 </r>
        <r>   14.7925    0.0000 </r>
       </set>
       <set comment="kpoint 75">
        <r>   -2.9295    1.0000 </r>
        <r>   -0.9509    1.0000 </r>
        <r>    3.0462    1.0000 </r>
        <r>    3.0462    1.0000 </r>
        <r>    6.4103    0.0000 </r>
        <r>    6.8722    0.0000 </r>
        <r>   15.0336    0.0000 </r>
        <r>   15.0336    0.0000 </r>
       </set>
       <set comment="kpoint 76">
        <r>   -2.7480    1.0000 </r>
        <r>   -1.1632    1.0000 </r>
        <r>    3.0229    1.0000 </r>
        <r>    3.0229    1.0000 </r>
        <r>    6.4222    0.0000 </r>
        <r>    6.7904    0.0000 </r>
        <r>   15.2714    0.0000 </r>
        <r>   15.2715    0.0000 </r>
       </set>
       <set comment="kpoint 77">
        <r>   -2.5624    1.0000 </r>
        <r>   -1.3727    1.0000 </r>
        <r>    3.0047    1.0000 </r>
        <r>    3.0047    1.0000 </r>
        <r>    6.4414    0.0000 </r>
        <r>    6.7168    0.0000 </r>
        <r>   15.5016    0.0000 </r>
        <r>   15.5017    0.0000 </r>
       </set>
       <set comment="kpoint 78">
        <r>   -2.3730    1.0000 </r>
        <r>   -1.5794    1.0000 </r>
        <r>    2.9917    1.0000 </r>
        <r>    2.9917    1.0000 </r>
        <r>    6.4680    0.0000 </r>
        <r>    6.6511    0.0000 </r>
        <r>   15.7139    0.0000 </r>
        <r>   15.7142    0.0000 </r>
       </set>
       <set comment="kpoint 79">
        <r>   -2.1798    1.0000 </r>
        <r>   -1.7828    1.0000 </r>
        <r>    2.9839    1.0000 </r>
        <r>    2.9839    1.0000 </r>
        <r>    6.5021    0.0000 </r>
        <r>    6.5936    0.0000 </r>
        <r>   15.8841    0.0000 </r>
        <r>   15.8845    0.0000 </r>
       </set>
       <set comment="kpoint 80">
        <r>   -1.9830    1.0000 </r>
        <r>   -1.9830    1.0000 </r>
        <r>    2.9813    1.0000 </r>
        <r>    2.9813    1.0000 </r>
        <r>    6.5439    0.0000 </r>
        <r>    6.5440    0.0000 </r>
        <r>   15.9558    0.0000 </r>
        <r>   15.9583    0.0000 </r>
       </set>
      </set>
     </set>
    </array>
   </eigenvalues>
   <array>
    <dimension dim="1">ion</dimension>
    <dimension dim="2">band</dimension>
    <dimension dim="3">kpoint</dimension>
    <dimension dim="4">spin</dimension>
    <field>    s</field>
    <field>   py</field>
    <field>   pz</field>
    <field>   px</field>
    <field>  dxy</field>
    <field>  dyz</field>
    <field>  dz2</field>
    <field>  dxz</field>
    <field>x2-y2</field>
    <set>
     <set comment="spin1">
      <set comment="kpoint 1">
       <set comment="band 1">
        <r>  0.1991  0.0000  0.0000  0.0443  0.0000  0.0000  0.0000  0.0000  0.0000 </r>
        <r>  0.1876  0.0000  0.0000  0.0470  0.0000  0.0000  0.0000  0.0000  0.0000 </r>
       </set>
       <set comment="band 2">
        <r>  0.1876  0.0000  0.0000  0.0470  0.0000  0.0000  0.0000  0.0000  0.0000 </r>
        <r>  0.1991  0.0000  0.0000  0.0443  0.0000  0.0000  0.0000  0.0000  0.0000 </r>
       </set>
       <set comment="band 3">
        <r>  0.0000  0.0990  0.0990  0.0000  0.0000  0.0000  0.0000  0.0000  0.0000 </r>
        <r>  0.0000  0.0990  0.0990  0.0000  0.0000  0.0000  0.0000  0.0000  0.0000 </r>
       </set>
       <set comment="band 4">
        <r>  0.0000  0.0990  0.0990  0.0000  0.0000  0.0000  0.0000  0.0000  0.0000 </r>
        <r>  0.0000  0.0990  0.0990  0.0000  0.0000  0.0000  0.0000  0.0000  0.0000 </r>
       </set>
       <set comment="band 5">
        <r>  0.0522  0.0000  0.0000  0.0348  0.0000  0.0000  0.0000  0.0000  0.0000 </r>
        <r>  0.0514  0.0000  0.0000  0.0353  0.0000  0.0000  0.0000  0.0000  0.0000 </r>
       </set>
       <set comment="band 6">
        <r>  0.0514  0.0000  0.0000  0.0353  0.0000  0.0000  0.0000  0.0000  0.0000 </r>
        <r>  0.0522  0.0000  0.0000  0.0348  0.0000  0.0000  0.0000  0.0000  0.0000 </r>
       </set>
       <set comment="band 7">
        <r>  0.0000  0.0047  0.2355  0.0000  0.0000  0.0000  0.0000  0.0000  0.0000 </r>
        <r>  0.0000  0.2356  0.0047  0.0000  0.0000  0.0000  0.0000  0.0000  0.0000 </r>
       </set>
       <set comment="band 8">
        <r>  0.0000  0.2354  0.0046  0.0000  0.0000  0.0000  0.0000  0.0000  0.0000 </r>
        <r>  0.0000  0.0048  0.2356  0.0000  0.0000  0.0000  0.0000  0.0000  0.0000 </r>
       </set>
      </set>
      <set comment="kpoint 2">
       <set comment="band 1">
        <r>  0.1943  0.0000  0.0000  0.0434  0.0000  0.0000  0.0000  0.0000  0.0000 </r>
        <r>  0.1943  0.0000  0.0000  0.0434  0.0000  0.0000  0.0000  0.0000  0.0000 </r>
       </set>
       <set comment="band 2">
        <r>  0.1923  0.0000  0.0000  0.0479  0.0000  0.0000  0.0000  0.0000  0.0000 </r>
        <r>  0.1923  0.0000  0.0000  0.0479  0.0000  0.0000  0.0000  0.0000  0.0000 </r>
       </set>
       <set comment="band 3">
        <r>  0.0000  0.0990  0.0990  0.0000  0.0000  0.0000  0.0000  0.0000  0.0000 </r>
        <r>  0.0000  0.0990  0.0990  0.0000  0.0000  0.0000  0.0000  0.0000  0.0000 </r>
       </set>
       <set comment="band 4">
        <r>  0.0000  0.0990  0.0990  0.0000  0.0000  0.0000  0.0000  0.0000  0.0000 </r>
        <r>  0.0000  0.0990  0.0990  0.0000  0.0000  0.0000  0.0000  0.0000  0.0000 </r>
       </set>
       <set comment="band 5">
        <r>  0.0523  0.0000  0.0000  0.0362  0.0000  0.0000  0.0000  0.0000  0.0000 </r>
        <r>  0.0523  0.0000  0.0000  0.0362  0.0000  0.0000  0.0000  0.0000  0.0000 </r>
       </set>
       <set comment="band 6">
        <r>  0.0513  0.0000  0.0000  0.0341  0.0000  0.0000  0.0000  0.0000  0.0000 </r>
        <r>  0.0513  0.0000  0.0000  0.0341  0.0000  0.0000  0.0000  0.0000  0.0000 </r>
       </set>
       <set comment="band 7">
        <r>  0.0000  0.0392  0.1863  0.0000  0.0000  0.0000  0.0000  0.0000  0.0000 </r>
        <r>  0.0000  0.2033  0.0227  0.0000  0.0000  0.0000  0.0000  0.0000  0.0000 </r>
       </set>
       <set comment="band 8">
        <r>  0.0000  0.1829  0.0400  0.0000  0.0000  0.0000  0.0000  0.0000  0.0000 </r>
        <r>  0.0000  0.0221  0.1990  0.0000  0.0000  0.0000  0.0000  0.0000  0.0000 </r>
       </set>
      </set>
      <set comment="kpoint 3">
       <set comment="band 1">
        <r>  0.1953  0.0000  0.0000  0.0413  0.0000  0.0000  0.0000  0.0000  0.0000 </r>
        <r>  0.1953  0.0000  0.0000  0.0413  0.0000  0.0000  0.0000  0.0000  0.0000 </r>
       </set>
       <set comment="band 2">
        <r>  0.1913  0.0000  0.0000  0.0502  0.0000  0.0000  0.0000  0.0000  0.0000 </r>
        <r>  0.1913  0.0000  0.0000  0.0502  0.0000  0.0000  0.0000  0.0000  0.0000 </r>
       </set>
       <set comment="band 3">
        <r>  0.0000  0.0990  0.0990  0.0000  0.0000  0.0000  0.0000  0.0000  0.0000 </r>
        <r>  0.0000  0.0990  0.0990  0.0000  0.0000  0.0000  0.0000  0.0000  0.0000 </r>
       </set>
       <set comment="band 4">
        <r>  0.0000  0.0990  0.0990  0.0000  0.0000  0.0000  0.0000  0.0000  0.0000 </r>
        <r>  0.0000  0.0990  0.0990  0.0000  0.0000  0.0000  0.0000  0.0000  0.0000 </r>
       </set>
       <set comment="band 5">
        <r>  0.0526  0.0000  0.0000  0.0374  0.0000  0.0000  0.0000  0.0000  0.0000 </r>
        <r>  0.0526  0.0000  0.0000  0.0374  0.0000  0.0000  0.0000  0.0000  0.0000 </r>
       </set>
       <set comment="band 6">
        <r>  0.0507  0.0000  0.0000  0.0332  0.0000  0.0000  0.0000  0.0000  0.0000 </r>
        <r>  0.0507  0.0000  0.0000  0.0332  0.0000  0.0000  0.0000  0.0000  0.0000 </r>
       </set>
       <set comment="band 7">
        <r>  0.0000  0.0538  0.1492  0.0000  0.0000  0.0000  0.0000  0.0000  0.0000 </r>
        <r>  0.0000  0.1473  0.0558  0.0000  0.0000  0.0000  0.0000  0.0000  0.0000 </r>
       </set>
       <set comment="band 8">
        <r>  0.0000  0.1499  0.0543  0.0000  0.0000  0.0000  0.0000  0.0000  0.0000 </r>
        <r>  0.0000  0.0558  0.1468  0.0000  0.0000  0.0000  0.0000  0.0000  0.0000 </r>
       </set>
      </set>
      <set comment="kpoint 4">
       <set comment="band 1">
        <r>  0.1962  0.0000  0.0000  0.0392  0.0000  0.0000  0.0000  0.0000  0.0000 </r>
        <r>  0.1962  0.0000  0.0000  0.0392  0.0000  0.0000  0.0000  0.0000  0.0000 </r>
       </set>
       <set comment="band 2">
        <r>  0.1902  0.0000  0.0000  0.0526  0.0000  0.0000  0.0000  0.0000  0.0000 </r>
        <r>  0.1902  0.0000  0.0000  0.0526  0.0000  0.0000  0.0000  0.0000  0.0000 </r>
       </set>
       <set comment="band 3">
        <r>  0.0000  0.0990  0.0990  0.0000  0.0000  0.0000  0.0000  0.0000  0.0000 </r>
        <r>  0.0000  0.0990  0.0990  0.0000  0.0000  0.0000  0.0000  0.0000  0.0000 </r>
       </set>
       <set comment="band 4">
        <r>  0.0000  0.0990  0.0990  0.0000  0.0000  0.0000  0.0000  0.0000  0.0000 </r>
        <r>  0.0000  0.0990  0.0990  0.0000  0.0000  0.0000  0.0000  0.0000  0.0000 </r>
       </set>
       <set comment="band 5">
        <r>  0.0529  0.0000  0.0000  0.0386  0.0000  0.0000  0.0000  0.0000  0.0000 </r>
        <r>  0.0529  0.0000  0.0000  0.0386  0.0000  0.0000  0.0000  0.0000  0.0000 </r>
       </set>
       <set comment="band 6">
        <r>  0.0500  0.0000  0.0000  0.0325  0.0000  0.0000  0.0000  0.0000  0.0000 </r>
        <r>  0.0500  0.0000  0.0000  0.0325  0.0000  0.0000  0.0000  0.0000  0.0000 </r>
       </set>
       <set comment="band 7">
        <r>  0.0000  0.0706  0.1174  0.0000  0.0000  0.0000  0.0000  0.0000  0.0000 </r>
        <r>  0.0000  0.1243  0.0636  0.0000  0.0000  0.0000  0.0000  0.0000  0.0000 </r>
       </set>
       <set comment="band 8">
        <r>  0.0000  0.1172  0.0706  0.0000  0.0000  0.0000  0.0000  0.0000  0.0000 </r>
        <r>  0.0000  0.0632  0.1237  0.0000  0.0000  0.0000  0.0000  0.0000  0.0000 </r>
       </set>
      </set>
      <set comment="kpoint 5">
       <set comment="band 1">
        <r>  0.1971  0.0000  0.0000  0.0372  0.0000  0.0000  0.0000  0.0000  0.0000 </r>
        <r>  0.1971  0.0000  0.0000  0.0372  0.0000  0.0000  0.0000  0.0000  0.0000 </r>
       </set>
       <set comment="band 2">
        <r>  0.1890  0.0000  0.0000  0.0550  0.0000  0.0000  0.0000  0.0000  0.0000 </r>
        <r>  0.1890  0.0000  0.0000  0.0550  0.0000  0.0000  0.0000  0.0000  0.0000 </r>
       </set>
       <set comment="band 3">
        <r>  0.0000  0.0990  0.0990  0.0000  0.0000  0.0000  0.0000  0.0000  0.0000 </r>
        <r>  0.0000  0.0990  0.0990  0.0000  0.0000  0.0000  0.0000  0.0000  0.0000 </r>
       </set>
       <set comment="band 4">
        <r>  0.0000  0.0990  0.0990  0.0000  0.0000  0.0000  0.0000  0.0000  0.0000 </r>
        <r>  0.0000  0.0990  0.0990  0.0000  0.0000  0.0000  0.0000  0.0000  0.0000 </r>
       </set>
       <set comment="band 5">
        <r>  0.0532  0.0000  0.0000  0.0400  0.0000  0.0000  0.0000  0.0000  0.0000 </r>
        <r>  0.0532  0.0000  0.0000  0.0400  0.0000  0.0000  0.0000  0.0000  0.0000 </r>
       </set>
       <set comment="band 6">
        <r>  0.0493  0.0000  0.0000  0.0318  0.0000  0.0000  0.0000  0.0000  0.0000 </r>
        <r>  0.0493  0.0000  0.0000  0.0318  0.0000  0.0000  0.0000  0.0000  0.0000 </r>
       </set>
       <set comment="band 7">
        <r>  0.0000  0.0755  0.1034  0.0000  0.0000  0.0000  0.0000  0.0000  0.0000 </r>
        <r>  0.0000  0.1274  0.0514  0.0000  0.0000  0.0000  0.0000  0.0000  0.0000 </r>
       </set>
       <set comment="band 8">
        <r>  0.0000  0.1033  0.0756  0.0000  0.0000  0.0000  0.0000  0.0000  0.0000 </r>
        <r>  0.0000  0.0515  0.1273  0.0000  0.0000  0.0000  0.0000  0.0000  0.0000 </r>
       </set>
      </set>
      <set comment="kpoint 6">
       <set comment="band 1">
        <r>  0.1980  0.0000  0.0000  0.0352  0.0000  0.0000  0.0000  0.0000  0.0000 </r>
        <r>  0.1980  0.0000  0.0000  0.0352  0.0000  0.0000  0.0000  0.0000  0.0000 </r>
       </set>
       <set comment="band 2">
        <r>  0.1877  0.0000  0.0000  0.0574  0.0000  0.0000  0.0000  0.0000  0.0000 </r>
        <r>  0.1877  0.0000  0.0000  0.0574  0.0000  0.0000  0.0000  0.0000  0.0000 </r>
       </set>
       <set comment="band 3">
        <r>  0.0000  0.0990  0.0990  0.0000  0.0000  0.0000  0.0000  0.0000  0.0000 </r>
        <r>  0.0000  0.0990  0.0990  0.0000  0.0000  0.0000  0.0000  0.0000  0.0000 </r>
       </set>
       <set comment="band 4">
        <r>  0.0000  0.0990  0.0990  0.0000  0.0000  0.0000  0.0000  0.0000  0.0000 </r>
        <r>  0.0000  0.0990  0.0990  0.0000  0.0000  0.0000  0.0000  0.0000  0.0000 </r>
       </set>
       <set comment="band 5">
        <r>  0.0533  0.0000  0.0000  0.0416  0.0000  0.0000  0.0000  0.0000  0.0000 </r>
        <r>  0.0533  0.0000  0.0000  0.0416  0.0000  0.0000  0.0000  0.0000  0.0000 </r>
       </set>
       <set comment="band 6">
        <r>  0.0486  0.0000  0.0000  0.0312  0.0000  0.0000  0.0000  0.0000  0.0000 </r>
        <r>  0.0486  0.0000  0.0000  0.0312  0.0000  0.0000  0.0000  0.0000  0.0000 </r>
       </set>
       <set comment="band 7">
        <r>  0.0000  0.0541  0.1193  0.0000  0.0000  0.0000  0.0000  0.0000  0.0000 </r>
        <r>  0.0000  0.1238  0.0494  0.0000  0.0000  0.0000  0.0000  0.0000  0.0000 </r>
       </set>
       <set comment="band 8">
        <r>  0.0000  0.1192  0.0542  0.0000  0.0000  0.0000  0.0000  0.0000  0.0000 </r>
        <r>  0.0000  0.0495  0.1238  0.0000  0.0000  0.0000  0.0000  0.0000  0.0000 </r>
       </set>
      </set>
      <set comment="kpoint 7">
       <set comment="band 1">
        <r>  0.1988  0.0000  0.0000  0.0332  0.0000  0.0000  0.0000  0.0000  0.0000 </r>
        <r>  0.1988  0.0000  0.0000  0.0332  0.0000  0.0000  0.0000  0.0000  0.0000 </r>
       </set>
       <set comment="band 2">
        <r>  0.1864  0.0000  0.0000  0.0599  0.0000  0.0000  0.0000  0.0000  0.0000 </r>
        <r>  0.1864  0.0000  0.0000  0.0599  0.0000  0.0000  0.0000  0.0000  0.0000 </r>
       </set>
       <set comment="band 3">
        <r>  0.0000  0.0990  0.0990  0.0000  0.0000  0.0000  0.0000  0.0000  0.0000 </r>
        <r>  0.0000  0.0990  0.0990  0.0000  0.0000  0.0000  0.0000  0.0000  0.0000 </r>
       </set>
       <set comment="band 4">
        <r>  0.0000  0.0990  0.0990  0.0000  0.0000  0.0000  0.0000  0.0000  0.0000 </r>
        <r>  0.0000  0.0990  0.0990  0.0000  0.0000  0.0000  0.0000  0.0000  0.0000 </r>
       </set>
       <set comment="band 5">
        <r>  0.0533  0.0000  0.0000  0.0432  0.0000  0.0000  0.0000  0.0000  0.0000 </r>
        <r>  0.0533  0.0000  0.0000  0.0432  0.0000  0.0000  0.0000  0.0000  0.0000 </r>
       </set>
       <set comment="band 6">
        <r>  0.0479  0.0000  0.0000  0.0307  0.0000  0.0000  0.0000  0.0000  0.0000 </r>
        <r>  0.0479  0.0000  0.0000  0.0307  0.0000  0.0000  0.0000  0.0000  0.0000 </r>
       </set>
       <set comment="band 7">
        <r>  0.0000  0.1195  0.0504  0.0000  0.0000  0.0000  0.0000  0.0000  0.0000 </r>
        <r>  0.0000  0.0644  0.1055  0.0000  0.0000  0.0000  0.0000  0.0000  0.0000 </r>
       </set>
       <set comment="band 8">
        <r>  0.0000  0.0504  0.1195  0.0000  0.0000  0.0000  0.0000  0.0000  0.0000 </r>
        <r>  0.0000  0.1055  0.0644  0.0000  0.0000  0.0000  0.0000  0.0000  0.0000 </r>
       </set>
      </set>
      <set comment="kpoint 8">
       <set comment="band 1">
        <r>  0.1996  0.0000  0.0000  0.0313  0.0000  0.0000  0.0000  0.0000  0.0000 </r>
        <r>  0.1996  0.0000  0.0000  0.0313  0.0000  0.0000  0.0000  0.0000  0.0000 </r>
       </set>
       <set comment="band 2">
        <r>  0.1850  0.0000  0.0000  0.0625  0.0000  0.0000  0.0000  0.0000  0.0000 </r>
        <r>  0.1850  0.0000  0.0000  0.0625  0.0000  0.0000  0.0000  0.0000  0.0000 </r>
       </set>
       <set comment="band 3">
        <r>  0.0000  0.0990  0.0990  0.0000  0.0000  0.0000  0.0000  0.0000  0.0000 </r>
        <r>  0.0000  0.0990  0.0990  0.0000  0.0000  0.0000  0.0000  0.0000  0.0000 </r>
       </set>
       <set comment="band 4">
        <r>  0.0000  0.0990  0.0990  0.0000  0.0000  0.0000  0.0000  0.0000  0.0000 </r>
        <r>  0.0000  0.0990  0.0990  0.0000  0.0000  0.0000  0.0000  0.0000  0.0000 </r>
       </set>
       <set comment="band 5">
        <r>  0.0533  0.0000  0.0000  0.0450  0.0000  0.0000  0.0000  0.0000  0.0000 </r>
        <r>  0.0533  0.0000  0.0000  0.0450  0.0000  0.0000  0.0000  0.0000  0.0000 </r>
       </set>
       <set comment="band 6">
        <r>  0.0472  0.0000  0.0000  0.0305  0.0000  0.0000  0.0000  0.0000  0.0000 </r>
        <r>  0.0472  0.0000  0.0000  0.0305  0.0000  0.0000  0.0000  0.0000  0.0000 </r>
       </set>
       <set comment="band 7">
        <r>  0.0000  0.0280  0.1395  0.0000  0.0000  0.0000  0.0000  0.0000  0.0000 </r>
        <r>  0.0000  0.1580  0.0095  0.0000  0.0000  0.0000  0.0000  0.0000  0.0000 </r>
       </set>
       <set comment="band 8">
        <r>  0.0000  0.1395  0.0280  0.0000  0.0000  0.0000  0.0000  0.0000  0.0000 </r>
        <r>  0.0000  0.0095  0.1580  0.0000  0.0000  0.0000  0.0000  0.0000  0.0000 </r>
       </set>
      </set>
      <set comment="kpoint 9">
       <set comment="band 1">
        <r>  0.2004  0.0000  0.0000  0.0295  0.0000  0.0000  0.0000  0.0000  0.0000 </r>
        <r>  0.2004  0.0000  0.0000  0.0295  0.0000  0.0000  0.0000  0.0000  0.0000 </r>
       </set>
       <set comment="band 2">
        <r>  0.1835  0.0000  0.0000  0.0651  0.0000  0.0000  0.0000  0.0000  0.0000 </r>
        <r>  0.1835  0.0000  0.0000  0.0651  0.0000  0.0000  0.0000  0.0000  0.0000 </r>
       </set>
       <set comment="band 3">
        <r>  0.0000  0.0991  0.0990  0.0000  0.0000  0.0000  0.0000  0.0000  0.0000 </r>
        <r>  0.0000  0.0991  0.0990  0.0000  0.0000  0.0000  0.0000  0.0000  0.0000 </r>
       </set>
       <set comment="band 4">
        <r>  0.0000  0.0990  0.0991  0.0000  0.0000  0.0000  0.0000  0.0000  0.0000 </r>
        <r>  0.0000  0.0990  0.0991  0.0000  0.0000  0.0000  0.0000  0.0000  0.0000 </r>
       </set>
       <set comment="band 5">
        <r>  0.0531  0.0000  0.0000  0.0468  0.0000  0.0000  0.0000  0.0000  0.0000 </r>
        <r>  0.0531  0.0000  0.0000  0.0468  0.0000  0.0000  0.0000  0.0000  0.0000 </r>
       </set>
       <set comment="band 6">
        <r>  0.0464  0.0000  0.0000  0.0302  0.0000  0.0000  0.0000  0.0000  0.0000 </r>
        <r>  0.0464  0.0000  0.0000  0.0302  0.0000  0.0000  0.0000  0.0000  0.0000 </r>
       </set>
       <set comment="band 7">
        <r>  0.0000  0.1154  0.0509  0.0000  0.0000  0.0000  0.0000  0.0000  0.0000 </r>
        <r>  0.0000  0.0699  0.0964  0.0000  0.0000  0.0000  0.0000  0.0000  0.0000 </r>
       </set>
       <set comment="band 8">
        <r>  0.0000  0.0509  0.1154  0.0000  0.0000  0.0000  0.0000  0.0000  0.0000 </r>
        <r>  0.0000  0.0963  0.0699  0.0000  0.0000  0.0000  0.0000  0.0000  0.0000 </r>
       </set>
      </set>
      <set comment="kpoint 10">
       <set comment="band 1">
        <r>  0.2012  0.0000  0.0000  0.0276  0.0000  0.0000  0.0000  0.0000  0.0000 </r>
        <r>  0.2012  0.0000  0.0000  0.0276  0.0000  0.0000  0.0000  0.0000  0.0000 </r>
       </set>
       <set comment="band 2">
        <r>  0.1819  0.0000  0.0000  0.0678  0.0000  0.0000  0.0000  0.0000  0.0000 </r>
        <r>  0.1819  0.0000  0.0000  0.0678  0.0000  0.0000  0.0000  0.0000  0.0000 </r>
       </set>
       <set comment="band 3">
        <r>  0.0000  0.0991  0.0991  0.0000  0.0000  0.0000  0.0000  0.0000  0.0000 </r>
        <r>  0.0000  0.0991  0.0991  0.0000  0.0000  0.0000  0.0000  0.0000  0.0000 </r>
       </set>
       <set comment="band 4">
        <r>  0.0000  0.0991  0.0991  0.0000  0.0000  0.0000  0.0000  0.0000  0.0000 </r>
        <r>  0.0000  0.0991  0.0991  0.0000  0.0000  0.0000  0.0000  0.0000  0.0000 </r>
       </set>
       <set comment="band 5">
        <r>  0.0528  0.0000  0.0000  0.0487  0.0000  0.0000  0.0000  0.0000  0.0000 </r>
        <r>  0.0528  0.0000  0.0000  0.0487  0.0000  0.0000  0.0000  0.0000  0.0000 </r>
       </set>
       <set comment="band 6">
        <r>  0.0458  0.0000  0.0000  0.0301  0.0000  0.0000  0.0000  0.0000  0.0000 </r>
        <r>  0.0458  0.0000  0.0000  0.0301  0.0000  0.0000  0.0000  0.0000  0.0000 </r>
       </set>
       <set comment="band 7">
        <r>  0.0000  0.1340  0.0317  0.0000  0.0000  0.0000  0.0000  0.0000  0.0000 </r>
        <r>  0.0000  0.0748  0.0908  0.0000  0.0000  0.0000  0.0000  0.0000  0.0000 </r>
       </set>
       <set comment="band 8">
        <r>  0.0000  0.0317  0.1339  0.0000  0.0000  0.0000  0.0000  0.0000  0.0000 </r>
        <r>  0.0000  0.0909  0.0749  0.0000  0.0000  0.0000  0.0000  0.0000  0.0000 </r>
       </set>
      </set>
      <set comment="kpoint 11">
       <set comment="band 1">
        <r>  0.2019  0.0000  0.0000  0.0259  0.0000  0.0000  0.0000  0.0000  0.0000 </r>
        <r>  0.2019  0.0000  0.0000  0.0259  0.0000  0.0000  0.0000  0.0000  0.0000 </r>
       </set>
       <set comment="band 2">
        <r>  0.1801  0.0000  0.0000  0.0705  0.0000  0.0000  0.0000  0.0000  0.0000 </r>
        <r>  0.1801  0.0000  0.0000  0.0705  0.0000  0.0000  0.0000  0.0000  0.0000 </r>
       </set>
       <set comment="band 3">
        <r>  0.0000  0.0991  0.0991  0.0000  0.0000  0.0000  0.0000  0.0000  0.0000 </r>
        <r>  0.0000  0.0991  0.0991  0.0000  0.0000  0.0000  0.0000  0.0000  0.0000 </r>
       </set>
       <set comment="band 4">
        <r>  0.0000  0.0991  0.0991  0.0000  0.0000  0.0000  0.0000  0.0000  0.0000 </r>
        <r>  0.0000  0.0991  0.0991  0.0000  0.0000  0.0000  0.0000  0.0000  0.0000 </r>
       </set>
       <set comment="band 5">
        <r>  0.0525  0.0000  0.0000  0.0508  0.0000  0.0000  0.0000  0.0000  0.0000 </r>
        <r>  0.0525  0.0000  0.0000  0.0508  0.0000  0.0000  0.0000  0.0000  0.0000 </r>
       </set>
       <set comment="band 6">
        <r>  0.0451  0.0000  0.0000  0.0301  0.0000  0.0000  0.0000  0.0000  0.0000 </r>
        <r>  0.0451  0.0000  0.0000  0.0301  0.0000  0.0000  0.0000  0.0000  0.0000 </r>
       </set>
       <set comment="band 7">
        <r>  0.0000  0.1191  0.0460  0.0000  0.0000  0.0000  0.0000  0.0000  0.0000 </r>
        <r>  0.0000  0.0609  0.1043  0.0000  0.0000  0.0000  0.0000  0.0000  0.0000 </r>
       </set>
       <set comment="band 8">
        <r>  0.0000  0.0460  0.1192  0.0000  0.0000  0.0000  0.0000  0.0000  0.0000 </r>
        <r>  0.0000  0.1043  0.0609  0.0000  0.0000  0.0000  0.0000  0.0000  0.0000 </r>
       </set>
      </set>
      <set comment="kpoint 12">
       <set comment="band 1">
        <r>  0.2026  0.0000  0.0000  0.0242  0.0000  0.0000  0.0000  0.0000  0.0000 </r>
        <r>  0.2026  0.0000  0.0000  0.0242  0.0000  0.0000  0.0000  0.0000  0.0000 </r>
       </set>
       <set comment="band 2">
        <r>  0.1783  0.0000  0.0000  0.0733  0.0000  0.0000  0.0000  0.0000  0.0000 </r>
        <r>  0.1783  0.0000  0.0000  0.0733  0.0000  0.0000  0.0000  0.0000  0.0000 </r>
       </set>
       <set comment="band 3">
        <r>  0.0000  0.0991  0.0991  0.0000  0.0000  0.0000  0.0000  0.0000  0.0000 </r>
        <r>  0.0000  0.0991  0.0991  0.0000  0.0000  0.0000  0.0000  0.0000  0.0000 </r>
       </set>
       <set comment="band 4">
        <r>  0.0000  0.0991  0.0991  0.0000  0.0000  0.0000  0.0000  0.0000  0.0000 </r>
        <r>  0.0000  0.0991  0.0991  0.0000  0.0000  0.0000  0.0000  0.0000  0.0000 </r>
       </set>
       <set comment="band 5">
        <r>  0.0520  0.0000  0.0000  0.0530  0.0000  0.0000  0.0000  0.0000  0.0000 </r>
        <r>  0.0520  0.0000  0.0000  0.0530  0.0000  0.0000  0.0000  0.0000  0.0000 </r>
       </set>
       <set comment="band 6">
        <r>  0.0446  0.0000  0.0000  0.0302  0.0000  0.0000  0.0000  0.0000  0.0000 </r>
        <r>  0.0446  0.0000  0.0000  0.0302  0.0000  0.0000  0.0000  0.0000  0.0000 </r>
       </set>
       <set comment="band 7">
        <r>  0.0000  0.0877  0.0772  0.0000  0.0000  0.0000  0.0000  0.0000  0.0000 </r>
        <r>  0.0000  0.1037  0.0612  0.0000  0.0000  0.0000  0.0000  0.0000  0.0000 </r>
       </set>
       <set comment="band 8">
        <r>  0.0000  0.0772  0.0877  0.0000  0.0000  0.0000  0.0000  0.0000  0.0000 </r>
        <r>  0.0000  0.0612  0.1037  0.0000  0.0000  0.0000  0.0000  0.0000  0.0000 </r>
       </set>
      </set>
      <set comment="kpoint 13">
       <set comment="band 1">
        <r>  0.2033  0.0000  0.0000  0.0225  0.0000  0.0000  0.0000  0.0000  0.0000 </r>
        <r>  0.2033  0.0000  0.0000  0.0225  0.0000  0.0000  0.0000  0.0000  0.0000 </r>
       </set>
       <set comment="band 2">
        <r>  0.1763  0.0000  0.0000  0.0762  0.0000  0.0000  0.0000  0.0000  0.0000 </r>
        <r>  0.1763  0.0000  0.0000  0.0762  0.0000  0.0000  0.0000  0.0000  0.0000 </r>
       </set>
       <set comment="band 3">
        <r>  0.0000  0.0992  0.0992  0.0000  0.0000  0.0000  0.0000  0.0000  0.0000 </r>
        <r>  0.0000  0.0992  0.0992  0.0000  0.0000  0.0000  0.0000  0.0000  0.0000 </r>
       </set>
       <set comment="band 4">
        <r>  0.0000  0.0992  0.0992  0.0000  0.0000  0.0000  0.0000  0.0000  0.0000 </r>
        <r>  0.0000  0.0992  0.0992  0.0000  0.0000  0.0000  0.0000  0.0000  0.0000 </r>
       </set>
       <set comment="band 5">
        <r>  0.0514  0.0000  0.0000  0.0553  0.0000  0.0000  0.0000  0.0000  0.0000 </r>
        <r>  0.0514  0.0000  0.0000  0.0553  0.0000  0.0000  0.0000  0.0000  0.0000 </r>
       </set>
       <set comment="band 6">
        <r>  0.0441  0.0000  0.0000  0.0304  0.0000  0.0000  0.0000  0.0000  0.0000 </r>
        <r>  0.0441  0.0000  0.0000  0.0304  0.0000  0.0000  0.0000  0.0000  0.0000 </r>
       </set>
       <set comment="band 7">
        <r>  0.0000  0.0882  0.0768  0.0000  0.0000  0.0000  0.0000  0.0000  0.0000 </r>
        <r>  0.0000  0.0724  0.0927  0.0000  0.0000  0.0000  0.0000  0.0000  0.0000 </r>
       </set>
       <set comment="band 8">
        <r>  0.0000  0.0768  0.0882  0.0000  0.0000  0.0000  0.0000  0.0000  0.0000 </r>
        <r>  0.0000  0.0927  0.0724  0.0000  0.0000  0.0000  0.0000  0.0000  0.0000 </r>
       </set>
      </set>
      <set comment="kpoint 14">
       <set comment="band 1">
        <r>  0.2040  0.0000  0.0000  0.0209  0.0000  0.0000  0.0000  0.0000  0.0000 </r>
        <r>  0.2040  0.0000  0.0000  0.0209  0.0000  0.0000  0.0000  0.0000  0.0000 </r>
       </set>
       <set comment="band 2">
        <r>  0.1742  0.0000  0.0000  0.0791  0.0000  0.0000  0.0000  0.0000  0.0000 </r>
        <r>  0.1742  0.0000  0.0000  0.0791  0.0000  0.0000  0.0000  0.0000  0.0000 </r>
       </set>
       <set comment="band 3">
        <r>  0.0000  0.0992  0.0992  0.0000  0.0000  0.0000  0.0000  0.0000  0.0000 </r>
        <r>  0.0000  0.0992  0.0992  0.0000  0.0000  0.0000  0.0000  0.0000  0.0000 </r>
       </set>
       <set comment="band 4">
        <r>  0.0000  0.0992  0.0992  0.0000  0.0000  0.0000  0.0000  0.0000  0.0000 </r>
        <r>  0.0000  0.0992  0.0992  0.0000  0.0000  0.0000  0.0000  0.0000  0.0000 </r>
       </set>
       <set comment="band 5">
        <r>  0.0507  0.0000  0.0000  0.0578  0.0000  0.0000  0.0000  0.0000  0.0000 </r>
        <r>  0.0507  0.0000  0.0000  0.0578  0.0000  0.0000  0.0000  0.0000  0.0000 </r>
       </set>
       <set comment="band 6">
        <r>  0.0438  0.0000  0.0000  0.0308  0.0000  0.0000  0.0000  0.0000  0.0000 </r>
        <r>  0.0438  0.0000  0.0000  0.0308  0.0000  0.0000  0.0000  0.0000  0.0000 </r>
       </set>
       <set comment="band 7">
        <r>  0.0000  0.0483  0.1171  0.0000  0.0000  0.0000  0.0000  0.0000  0.0000 </r>
        <r>  0.0000  0.0973  0.0680  0.0000  0.0000  0.0000  0.0000  0.0000  0.0000 </r>
       </set>
       <set comment="band 8">
        <r>  0.0000  0.1171  0.0483  0.0000  0.0000  0.0000  0.0000  0.0000  0.0000 </r>
        <r>  0.0000  0.0680  0.0973  0.0000  0.0000  0.0000  0.0000  0.0000  0.0000 </r>
       </set>
      </set>
      <set comment="kpoint 15">
       <set comment="band 1">
        <r>  0.2047  0.0000  0.0000  0.0194  0.0000  0.0000  0.0000  0.0000  0.0000 </r>
        <r>  0.2047  0.0000  0.0000  0.0194  0.0000  0.0000  0.0000  0.0000  0.0000 </r>
       </set>
       <set comment="band 2">
        <r>  0.1718  0.0000  0.0000  0.0821  0.0000  0.0000  0.0000  0.0000  0.0000 </r>
        <r>  0.1718  0.0000  0.0000  0.0821  0.0000  0.0000  0.0000  0.0000  0.0000 </r>
       </set>
       <set comment="band 3">
        <r>  0.0000  0.0992  0.0992  0.0000  0.0000  0.0000  0.0000  0.0000  0.0000 </r>
        <r>  0.0000  0.0992  0.0992  0.0000  0.0000  0.0000  0.0000  0.0000  0.0000 </r>
       </set>
       <set comment="band 4">
        <r>  0.0000  0.0992  0.0992  0.0000  0.0000  0.0000  0.0000  0.0000  0.0000 </r>
        <r>  0.0000  0.0992  0.0992  0.0000  0.0000  0.0000  0.0000  0.0000  0.0000 </r>
       </set>
       <set comment="band 5">
        <r>  0.0498  0.0000  0.0000  0.0604  0.0000  0.0000  0.0000  0.0000  0.0000 </r>
        <r>  0.0498  0.0000  0.0000  0.0604  0.0000  0.0000  0.0000  0.0000  0.0000 </r>
       </set>
       <set comment="band 6">
        <r>  0.0436  0.0000  0.0000  0.0314  0.0000  0.0000  0.0000  0.0000  0.0000 </r>
        <r>  0.0436  0.0000  0.0000  0.0314  0.0000  0.0000  0.0000  0.0000  0.0000 </r>
       </set>
       <set comment="band 7">
        <r>  0.0000  0.0319  0.1337  0.0000  0.0000  0.0000  0.0000  0.0000  0.0000 </r>
        <r>  0.0000  0.1097  0.0560  0.0000  0.0000  0.0000  0.0000  0.0000  0.0000 </r>
       </set>
       <set comment="band 8">
        <r>  0.0000  0.1337  0.0320  0.0000  0.0000  0.0000  0.0000  0.0000  0.0000 </r>
        <r>  0.0000  0.0560  0.1097  0.0000  0.0000  0.0000  0.0000  0.0000  0.0000 </r>
       </set>
      </set>
      <set comment="kpoint 16">
       <set comment="band 1">
        <r>  0.2053  0.0000  0.0000  0.0179  0.0000  0.0000  0.0000  0.0000  0.0000 </r>
        <r>  0.2053  0.0000  0.0000  0.0179  0.0000  0.0000  0.0000  0.0000  0.0000 </r>
       </set>
       <set comment="band 2">
        <r>  0.1693  0.0000  0.0000  0.0852  0.0000  0.0000  0.0000  0.0000  0.0000 </r>
        <r>  0.1693  0.0000  0.0000  0.0852  0.0000  0.0000  0.0000  0.0000  0.0000 </r>
       </set>
       <set comment="band 3">
        <r>  0.0000  0.0992  0.0992  0.0000  0.0000  0.0000  0.0000  0.0000  0.0000 </r>
        <r>  0.0000  0.0992  0.0992  0.0000  0.0000  0.0000  0.0000  0.0000  0.0000 </r>
       </set>
       <set comment="band 4">
        <r>  0.0000  0.0992  0.0992  0.0000  0.0000  0.0000  0.0000  0.0000  0.0000 </r>
        <r>  0.0000  0.0992  0.0992  0.0000  0.0000  0.0000  0.0000  0.0000  0.0000 </r>
       </set>
       <set comment="band 5">
        <r>  0.0488  0.0000  0.0000  0.0631  0.0000  0.0000  0.0000  0.0000  0.0000 </r>
        <r>  0.0488  0.0000  0.0000  0.0631  0.0000  0.0000  0.0000  0.0000  0.0000 </r>
       </set>
       <set comment="band 6">
        <r>  0.0437  0.0000  0.0000  0.0321  0.0000  0.0000  0.0000  0.0000  0.0000 </r>
        <r>  0.0437  0.0000  0.0000  0.0321  0.0000  0.0000  0.0000  0.0000  0.0000 </r>
       </set>
       <set comment="band 7">
        <r>  0.0000  0.0915  0.0746  0.0000  0.0000  0.0000  0.0000  0.0000  0.0000 </r>
        <r>  0.0000  0.0767  0.0894  0.0000  0.0000  0.0000  0.0000  0.0000  0.0000 </r>
       </set>
       <set comment="band 8">
        <r>  0.0000  0.0746  0.0915  0.0000  0.0000  0.0000  0.0000  0.0000  0.0000 </r>
        <r>  0.0000  0.0893  0.0767  0.0000  0.0000  0.0000  0.0000  0.0000  0.0000 </r>
       </set>
      </set>
      <set comment="kpoint 17">
       <set comment="band 1">
        <r>  0.2060  0.0000  0.0000  0.0165  0.0000  0.0000  0.0000  0.0000  0.0000 </r>
        <r>  0.2060  0.0000  0.0000  0.0165  0.0000  0.0000  0.0000  0.0000  0.0000 </r>
       </set>
       <set comment="band 2">
        <r>  0.1666  0.0000  0.0000  0.0884  0.0000  0.0000  0.0000  0.0000  0.0000 </r>
        <r>  0.1666  0.0000  0.0000  0.0884  0.0000  0.0000  0.0000  0.0000  0.0000 </r>
       </set>
       <set comment="band 3">
        <r>  0.0000  0.0993  0.0993  0.0000  0.0000  0.0000  0.0000  0.0000  0.0000 </r>
        <r>  0.0000  0.0993  0.0993  0.0000  0.0000  0.0000  0.0000  0.0000  0.0000 </r>
       </set>
       <set comment="band 4">
        <r>  0.0000  0.0993  0.0993  0.0000  0.0000  0.0000  0.0000  0.0000  0.0000 </r>
        <r>  0.0000  0.0993  0.0993  0.0000  0.0000  0.0000  0.0000  0.0000  0.0000 </r>
       </set>
       <set comment="band 5">
        <r>  0.0477  0.0000  0.0000  0.0659  0.0000  0.0000  0.0000  0.0000  0.0000 </r>
        <r>  0.0477  0.0000  0.0000  0.0659  0.0000  0.0000  0.0000  0.0000  0.0000 </r>
       </set>
       <set comment="band 6">
        <r>  0.0440  0.0000  0.0000  0.0329  0.0000  0.0000  0.0000  0.0000  0.0000 </r>
        <r>  0.0440  0.0000  0.0000  0.0329  0.0000  0.0000  0.0000  0.0000  0.0000 </r>
       </set>
       <set comment="band 7">
        <r>  0.0000  0.0274  0.1389  0.0000  0.0000  0.0000  0.0000  0.0000  0.0000 </r>
        <r>  0.0000  0.1446  0.0218  0.0000  0.0000  0.0000  0.0000  0.0000  0.0000 </r>
       </set>
       <set comment="band 8">
        <r>  0.0000  0.1389  0.0275  0.0000  0.0000  0.0000  0.0000  0.0000  0.0000 </r>
        <r>  0.0000  0.0218  0.1446  0.0000  0.0000  0.0000  0.0000  0.0000  0.0000 </r>
       </set>
      </set>
      <set comment="kpoint 18">
       <set comment="band 1">
        <r>  0.2066  0.0000  0.0000  0.0151  0.0000  0.0000  0.0000  0.0000  0.0000 </r>
        <r>  0.2066  0.0000  0.0000  0.0151  0.0000  0.0000  0.0000  0.0000  0.0000 </r>
       </set>
       <set comment="band 2">
        <r>  0.1636  0.0000  0.0000  0.0917  0.0000  0.0000  0.0000  0.0000  0.0000 </r>
        <r>  0.1636  0.0000  0.0000  0.0917  0.0000  0.0000  0.0000  0.0000  0.0000 </r>
       </set>
       <set comment="band 3">
        <r>  0.0000  0.0994  0.0993  0.0000  0.0000  0.0000  0.0000  0.0000  0.0000 </r>
        <r>  0.0000  0.0994  0.0993  0.0000  0.0000  0.0000  0.0000  0.0000  0.0000 </r>
       </set>
       <set comment="band 4">
        <r>  0.0000  0.0993  0.0994  0.0000  0.0000  0.0000  0.0000  0.0000  0.0000 </r>
        <r>  0.0000  0.0993  0.0994  0.0000  0.0000  0.0000  0.0000  0.0000  0.0000 </r>
       </set>
       <set comment="band 5">
        <r>  0.0465  0.0000  0.0000  0.0690  0.0000  0.0000  0.0000  0.0000  0.0000 </r>
        <r>  0.0465  0.0000  0.0000  0.0690  0.0000  0.0000  0.0000  0.0000  0.0000 </r>
       </set>
       <set comment="band 6">
        <r>  0.0447  0.0000  0.0000  0.0340  0.0000  0.0000  0.0000  0.0000  0.0000 </r>
        <r>  0.0447  0.0000  0.0000  0.0340  0.0000  0.0000  0.0000  0.0000  0.0000 </r>
       </set>
       <set comment="band 7">
        <r>  0.0000  0.1342  0.0321  0.0000  0.0000  0.0000  0.0000  0.0000  0.0000 </r>
        <r>  0.0000  0.0516  0.1147  0.0000  0.0000  0.0000  0.0000  0.0000  0.0000 </r>
       </set>
       <set comment="band 8">
        <r>  0.0000  0.0321  0.1342  0.0000  0.0000  0.0000  0.0000  0.0000  0.0000 </r>
        <r>  0.0000  0.1148  0.0515  0.0000  0.0000  0.0000  0.0000  0.0000  0.0000 </r>
       </set>
      </set>
      <set comment="kpoint 19">
       <set comment="band 1">
        <r>  0.2071  0.0000  0.0000  0.0138  0.0000  0.0000  0.0000  0.0000  0.0000 </r>
        <r>  0.2071  0.0000  0.0000  0.0138  0.0000  0.0000  0.0000  0.0000  0.0000 </r>
       </set>
       <set comment="band 2">
        <r>  0.1604  0.0000  0.0000  0.0951  0.0000  0.0000  0.0000  0.0000  0.0000 </r>
        <r>  0.1604  0.0000  0.0000  0.0951  0.0000  0.0000  0.0000  0.0000  0.0000 </r>
       </set>
       <set comment="band 3">
        <r>  0.0000  0.0994  0.0994  0.0000  0.0000  0.0000  0.0000  0.0000  0.0000 </r>
        <r>  0.0000  0.0994  0.0994  0.0000  0.0000  0.0000  0.0000  0.0000  0.0000 </r>
       </set>
       <set comment="band 4">
        <r>  0.0000  0.0994  0.0994  0.0000  0.0000  0.0000  0.0000  0.0000  0.0000 </r>
        <r>  0.0000  0.0994  0.0994  0.0000  0.0000  0.0000  0.0000  0.0000  0.0000 </r>
       </set>
       <set comment="band 5">
        <r>  0.0451  0.0000  0.0000  0.0721  0.0000  0.0000  0.0000  0.0000  0.0000 </r>
        <r>  0.0451  0.0000  0.0000  0.0721  0.0000  0.0000  0.0000  0.0000  0.0000 </r>
       </set>
       <set comment="band 6">
        <r>  0.0459  0.0000  0.0000  0.0353  0.0000  0.0000  0.0000  0.0000  0.0000 </r>
        <r>  0.0459  0.0000  0.0000  0.0353  0.0000  0.0000  0.0000  0.0000  0.0000 </r>
       </set>
       <set comment="band 7">
        <r>  0.0000  0.1120  0.0546  0.0000  0.0000  0.0000  0.0000  0.0000  0.0000 </r>
        <r>  0.0000  0.0467  0.1199  0.0000  0.0000  0.0000  0.0000  0.0000  0.0000 </r>
       </set>
       <set comment="band 8">
        <r>  0.0000  0.0546  0.1120  0.0000  0.0000  0.0000  0.0000  0.0000  0.0000 </r>
        <r>  0.0000  0.1199  0.0467  0.0000  0.0000  0.0000  0.0000  0.0000  0.0000 </r>
       </set>
      </set>
      <set comment="kpoint 20">
       <set comment="band 1">
        <r>  0.2077  0.0000  0.0000  0.0125  0.0000  0.0000  0.0000  0.0000  0.0000 </r>
        <r>  0.2077  0.0000  0.0000  0.0125  0.0000  0.0000  0.0000  0.0000  0.0000 </r>
       </set>
       <set comment="band 2">
        <r>  0.1569  0.0000  0.0000  0.0986  0.0000  0.0000  0.0000  0.0000  0.0000 </r>
        <r>  0.1569  0.0000  0.0000  0.0986  0.0000  0.0000  0.0000  0.0000  0.0000 </r>
       </set>
       <set comment="band 3">
        <r>  0.0000  0.0995  0.0995  0.0000  0.0000  0.0000  0.0000  0.0000  0.0000 </r>
        <r>  0.0000  0.0995  0.0995  0.0000  0.0000  0.0000  0.0000  0.0000  0.0000 </r>
       </set>
       <set comment="band 4">
        <r>  0.0000  0.0995  0.0995  0.0000  0.0000  0.0000  0.0000  0.0000  0.0000 </r>
        <r>  0.0000  0.0995  0.0995  0.0000  0.0000  0.0000  0.0000  0.0000  0.0000 </r>
       </set>
       <set comment="band 5">
        <r>  0.0437  0.0000  0.0000  0.0753  0.0000  0.0000  0.0000  0.0000  0.0000 </r>
        <r>  0.0437  0.0000  0.0000  0.0753  0.0000  0.0000  0.0000  0.0000  0.0000 </r>
       </set>
       <set comment="band 6">
        <r>  0.0477  0.0000  0.0000  0.0369  0.0000  0.0000  0.0000  0.0000  0.0000 </r>
        <r>  0.0477  0.0000  0.0000  0.0369  0.0000  0.0000  0.0000  0.0000  0.0000 </r>
       </set>
       <set comment="band 7">
        <r>  0.0000  0.0019  0.1648  0.0000  0.0000  0.0000  0.0000  0.0000  0.0000 </r>
        <r>  0.0000  0.1600  0.0067  0.0000  0.0000  0.0000  0.0000  0.0000  0.0000 </r>
       </set>
       <set comment="band 8">
        <r>  0.0000  0.1648  0.0019  0.0000  0.0000  0.0000  0.0000  0.0000  0.0000 </r>
        <r>  0.0000  0.0067  0.1600  0.0000  0.0000  0.0000  0.0000  0.0000  0.0000 </r>
       </set>
      </set>
      <set comment="kpoint 21">
       <set comment="band 1">
        <r>  0.2082  0.0000  0.0000  0.0113  0.0000  0.0000  0.0000  0.0000  0.0000 </r>
        <r>  0.2082  0.0000  0.0000  0.0113  0.0000  0.0000  0.0000  0.0000  0.0000 </r>
       </set>
       <set comment="band 2">
        <r>  0.1531  0.0000  0.0000  0.1023  0.0000  0.0000  0.0000  0.0000  0.0000 </r>
        <r>  0.1531  0.0000  0.0000  0.1023  0.0000  0.0000  0.0000  0.0000  0.0000 </r>
       </set>
       <set comment="band 3">
        <r>  0.0000  0.0996  0.0996  0.0000  0.0000  0.0000  0.0000  0.0000  0.0000 </r>
        <r>  0.0000  0.0996  0.0996  0.0000  0.0000  0.0000  0.0000  0.0000  0.0000 </r>
       </set>
       <set comment="band 4">
        <r>  0.0000  0.0996  0.0996  0.0000  0.0000  0.0000  0.0000  0.0000  0.0000 </r>
        <r>  0.0000  0.0996  0.0996  0.0000  0.0000  0.0000  0.0000  0.0000  0.0000 </r>
       </set>
       <set comment="band 5">
        <r>  0.0421  0.0000  0.0000  0.0788  0.0000  0.0000  0.0000  0.0000  0.0000 </r>
        <r>  0.0421  0.0000  0.0000  0.0788  0.0000  0.0000  0.0000  0.0000  0.0000 </r>
       </set>
       <set comment="band 6">
        <r>  0.0504  0.0000  0.0000  0.0389  0.0000  0.0000  0.0000  0.0000  0.0000 </r>
        <r>  0.0504  0.0000  0.0000  0.0389  0.0000  0.0000  0.0000  0.0000  0.0000 </r>
       </set>
       <set comment="band 7">
        <r>  0.0000  0.0460  0.1208  0.0000  0.0000  0.0000  0.0000  0.0000  0.0000 </r>
        <r>  0.0000  0.1213  0.0455  0.0000  0.0000  0.0000  0.0000  0.0000  0.0000 </r>
       </set>
       <set comment="band 8">
        <r>  0.0000  0.1208  0.0460  0.0000  0.0000  0.0000  0.0000  0.0000  0.0000 </r>
        <r>  0.0000  0.0455  0.1213  0.0000  0.0000  0.0000  0.0000  0.0000  0.0000 </r>
       </set>
      </set>
      <set comment="kpoint 22">
       <set comment="band 1">
        <r>  0.2087  0.0000  0.0000  0.0102  0.0000  0.0000  0.0000  0.0000  0.0000 </r>
        <r>  0.2087  0.0000  0.0000  0.0102  0.0000  0.0000  0.0000  0.0000  0.0000 </r>
       </set>
       <set comment="band 2">
        <r>  0.1489  0.0000  0.0000  0.1061  0.0000  0.0000  0.0000  0.0000  0.0000 </r>
        <r>  0.1489  0.0000  0.0000  0.1061  0.0000  0.0000  0.0000  0.0000  0.0000 </r>
       </set>
       <set comment="band 3">
        <r>  0.0000  0.0998  0.0998  0.0000  0.0000  0.0000  0.0000  0.0000  0.0000 </r>
        <r>  0.0000  0.0998  0.0998  0.0000  0.0000  0.0000  0.0000  0.0000  0.0000 </r>
       </set>
       <set comment="band 4">
        <r>  0.0000  0.0998  0.0998  0.0000  0.0000  0.0000  0.0000  0.0000  0.0000 </r>
        <r>  0.0000  0.0998  0.0998  0.0000  0.0000  0.0000  0.0000  0.0000  0.0000 </r>
       </set>
       <set comment="band 5">
        <r>  0.0403  0.0000  0.0000  0.0824  0.0000  0.0000  0.0000  0.0000  0.0000 </r>
        <r>  0.0403  0.0000  0.0000  0.0824  0.0000  0.0000  0.0000  0.0000  0.0000 </r>
       </set>
       <set comment="band 6">
        <r>  0.0543  0.0000  0.0000  0.0413  0.0000  0.0000  0.0000  0.0000  0.0000 </r>
        <r>  0.0543  0.0000  0.0000  0.0413  0.0000  0.0000  0.0000  0.0000  0.0000 </r>
       </set>
       <set comment="band 7">
        <r>  0.0000  0.0779  0.0890  0.0000  0.0000  0.0000  0.0000  0.0000  0.0000 </r>
        <r>  0.0000  0.0911  0.0758  0.0000  0.0000  0.0000  0.0000  0.0000  0.0000 </r>
       </set>
       <set comment="band 8">
        <r>  0.0000  0.0890  0.0779  0.0000  0.0000  0.0000  0.0000  0.0000  0.0000 </r>
        <r>  0.0000  0.0758  0.0911  0.0000  0.0000  0.0000  0.0000  0.0000  0.0000 </r>
       </set>
      </set>
      <set comment="kpoint 23">
       <set comment="band 1">
        <r>  0.2092  0.0000  0.0000  0.0091  0.0000  0.0000  0.0000  0.0000  0.0000 </r>
        <r>  0.2092  0.0000  0.0000  0.0091  0.0000  0.0000  0.0000  0.0000  0.0000 </r>
       </set>
       <set comment="band 2">
        <r>  0.1444  0.0000  0.0000  0.1102  0.0000  0.0000  0.0000  0.0000  0.0000 </r>
        <r>  0.1444  0.0000  0.0000  0.1102  0.0000  0.0000  0.0000  0.0000  0.0000 </r>
       </set>
       <set comment="band 3">
        <r>  0.0000  0.0999  0.0999  0.0000  0.0000  0.0000  0.0000  0.0000  0.0000 </r>
        <r>  0.0000  0.0999  0.0999  0.0000  0.0000  0.0000  0.0000  0.0000  0.0000 </r>
       </set>
       <set comment="band 4">
        <r>  0.0000  0.0999  0.0999  0.0000  0.0000  0.0000  0.0000  0.0000  0.0000 </r>
        <r>  0.0000  0.0999  0.0999  0.0000  0.0000  0.0000  0.0000  0.0000  0.0000 </r>
       </set>
       <set comment="band 5">
        <r>  0.0384  0.0000  0.0000  0.0862  0.0000  0.0000  0.0000  0.0000  0.0000 </r>
        <r>  0.0384  0.0000  0.0000  0.0862  0.0000  0.0000  0.0000  0.0000  0.0000 </r>
       </set>
       <set comment="band 6">
        <r>  0.0598  0.0000  0.0000  0.0444  0.0000  0.0000  0.0000  0.0000  0.0000 </r>
        <r>  0.0598  0.0000  0.0000  0.0444  0.0000  0.0000  0.0000  0.0000  0.0000 </r>
       </set>
       <set comment="band 7">
        <r>  0.0000  0.0680  0.0988  0.0000  0.0000  0.0000  0.0000  0.0000  0.0000 </r>
        <r>  0.0000  0.0986  0.0682  0.0000  0.0000  0.0000  0.0000  0.0000  0.0000 </r>
       </set>
       <set comment="band 8">
        <r>  0.0000  0.0988  0.0680  0.0000  0.0000  0.0000  0.0000  0.0000  0.0000 </r>
        <r>  0.0000  0.0683  0.0986  0.0000  0.0000  0.0000  0.0000  0.0000  0.0000 </r>
       </set>
      </set>
      <set comment="kpoint 24">
       <set comment="band 1">
        <r>  0.2097  0.0000  0.0000  0.0081  0.0000  0.0000  0.0000  0.0000  0.0000 </r>
        <r>  0.2097  0.0000  0.0000  0.0081  0.0000  0.0000  0.0000  0.0000  0.0000 </r>
       </set>
       <set comment="band 2">
        <r>  0.1395  0.0000  0.0000  0.1144  0.0000  0.0000  0.0000  0.0000  0.0000 </r>
        <r>  0.1395  0.0000  0.0000  0.1144  0.0000  0.0000  0.0000  0.0000  0.0000 </r>
       </set>
       <set comment="band 3">
        <r>  0.0000  0.1001  0.1001  0.0000  0.0000  0.0000  0.0000  0.0000  0.0000 </r>
        <r>  0.0000  0.1001  0.1001  0.0000  0.0000  0.0000  0.0000  0.0000  0.0000 </r>
       </set>
       <set comment="band 4">
        <r>  0.0000  0.1001  0.1001  0.0000  0.0000  0.0000  0.0000  0.0000  0.0000 </r>
        <r>  0.0000  0.1001  0.1001  0.0000  0.0000  0.0000  0.0000  0.0000  0.0000 </r>
       </set>
       <set comment="band 5">
        <r>  0.0363  0.0000  0.0000  0.0901  0.0000  0.0000  0.0000  0.0000  0.0000 </r>
        <r>  0.0363  0.0000  0.0000  0.0901  0.0000  0.0000  0.0000  0.0000  0.0000 </r>
       </set>
       <set comment="band 6">
        <r>  0.0676  0.0000  0.0000  0.0481  0.0000  0.0000  0.0000  0.0000  0.0000 </r>
        <r>  0.0676  0.0000  0.0000  0.0481  0.0000  0.0000  0.0000  0.0000  0.0000 </r>
       </set>
       <set comment="band 7">
        <r>  0.0000  0.0850  0.0818  0.0000  0.0000  0.0000  0.0000  0.0000  0.0000 </r>
        <r>  0.0000  0.0817  0.0851  0.0000  0.0000  0.0000  0.0000  0.0000  0.0000 </r>
       </set>
       <set comment="band 8">
        <r>  0.0000  0.0818  0.0850  0.0000  0.0000  0.0000  0.0000  0.0000  0.0000 </r>
        <r>  0.0000  0.0850  0.0817  0.0000  0.0000  0.0000  0.0000  0.0000  0.0000 </r>
       </set>
      </set>
      <set comment="kpoint 25">
       <set comment="band 1">
        <r>  0.2101  0.0000  0.0000  0.0071  0.0000  0.0000  0.0000  0.0000  0.0000 </r>
        <r>  0.2101  0.0000  0.0000  0.0071  0.0000  0.0000  0.0000  0.0000  0.0000 </r>
       </set>
       <set comment="band 2">
        <r>  0.1342  0.0000  0.0000  0.1189  0.0000  0.0000  0.0000  0.0000  0.0000 </r>
        <r>  0.1342  0.0000  0.0000  0.1189  0.0000  0.0000  0.0000  0.0000  0.0000 </r>
       </set>
       <set comment="band 3">
        <r>  0.0000  0.1003  0.1003  0.0000  0.0000  0.0000  0.0000  0.0000  0.0000 </r>
        <r>  0.0000  0.1003  0.1003  0.0000  0.0000  0.0000  0.0000  0.0000  0.0000 </r>
       </set>
       <set comment="band 4">
        <r>  0.0000  0.1003  0.1003  0.0000  0.0000  0.0000  0.0000  0.0000  0.0000 </r>
        <r>  0.0000  0.1003  0.1003  0.0000  0.0000  0.0000  0.0000  0.0000  0.0000 </r>
       </set>
       <set comment="band 5">
        <r>  0.0341  0.0000  0.0000  0.0943  0.0000  0.0000  0.0000  0.0000  0.0000 </r>
        <r>  0.0341  0.0000  0.0000  0.0943  0.0000  0.0000  0.0000  0.0000  0.0000 </r>
       </set>
       <set comment="band 6">
        <r>  0.0787  0.0000  0.0000  0.0527  0.0000  0.0000  0.0000  0.0000  0.0000 </r>
        <r>  0.0787  0.0000  0.0000  0.0527  0.0000  0.0000  0.0000  0.0000  0.0000 </r>
       </set>
       <set comment="band 7">
        <r>  0.0000  0.1176  0.0489  0.0000  0.0000  0.0000  0.0000  0.0000  0.0000 </r>
        <r>  0.0000  0.0411  0.1254  0.0000  0.0000  0.0000  0.0000  0.0000  0.0000 </r>
       </set>
       <set comment="band 8">
        <r>  0.0000  0.0489  0.1176  0.0000  0.0000  0.0000  0.0000  0.0000  0.0000 </r>
        <r>  0.0000  0.1255  0.0411  0.0000  0.0000  0.0000  0.0000  0.0000  0.0000 </r>
       </set>
      </set>
      <set comment="kpoint 26">
       <set comment="band 1">
        <r>  0.2105  0.0000  0.0000  0.0062  0.0000  0.0000  0.0000  0.0000  0.0000 </r>
        <r>  0.2105  0.0000  0.0000  0.0062  0.0000  0.0000  0.0000  0.0000  0.0000 </r>
       </set>
       <set comment="band 2">
        <r>  0.1283  0.0000  0.0000  0.1237  0.0000  0.0000  0.0000  0.0000  0.0000 </r>
        <r>  0.1283  0.0000  0.0000  0.1237  0.0000  0.0000  0.0000  0.0000  0.0000 </r>
       </set>
       <set comment="band 3">
        <r>  0.0000  0.1006  0.1006  0.0000  0.0000  0.0000  0.0000  0.0000  0.0000 </r>
        <r>  0.0000  0.1006  0.1006  0.0000  0.0000  0.0000  0.0000  0.0000  0.0000 </r>
       </set>
       <set comment="band 4">
        <r>  0.0000  0.1006  0.1006  0.0000  0.0000  0.0000  0.0000  0.0000  0.0000 </r>
        <r>  0.0000  0.1006  0.1006  0.0000  0.0000  0.0000  0.0000  0.0000  0.0000 </r>
       </set>
       <set comment="band 5">
        <r>  0.0317  0.0000  0.0000  0.0986  0.0000  0.0000  0.0000  0.0000  0.0000 </r>
        <r>  0.0317  0.0000  0.0000  0.0986  0.0000  0.0000  0.0000  0.0000  0.0000 </r>
       </set>
       <set comment="band 6">
        <r>  0.0946  0.0000  0.0000  0.0582  0.0000  0.0000  0.0000  0.0000  0.0000 </r>
        <r>  0.0946  0.0000  0.0000  0.0582  0.0000  0.0000  0.0000  0.0000  0.0000 </r>
       </set>
       <set comment="band 7">
        <r>  0.0000  0.0897  0.0766  0.0000  0.0000  0.0000  0.0000  0.0000  0.0000 </r>
        <r>  0.0000  0.0770  0.0892  0.0000  0.0000  0.0000  0.0000  0.0000  0.0000 </r>
       </set>
       <set comment="band 8">
        <r>  0.0000  0.0766  0.0897  0.0000  0.0000  0.0000  0.0000  0.0000  0.0000 </r>
        <r>  0.0000  0.0892  0.0770  0.0000  0.0000  0.0000  0.0000  0.0000  0.0000 </r>
       </set>
      </set>
      <set comment="kpoint 27">
       <set comment="band 1">
        <r>  0.2109  0.0000  0.0000  0.0053  0.0000  0.0000  0.0000  0.0000  0.0000 </r>
        <r>  0.2109  0.0000  0.0000  0.0053  0.0000  0.0000  0.0000  0.0000  0.0000 </r>
       </set>
       <set comment="band 2">
        <r>  0.1219  0.0000  0.0000  0.1290  0.0000  0.0000  0.0000  0.0000  0.0000 </r>
        <r>  0.1219  0.0000  0.0000  0.1290  0.0000  0.0000  0.0000  0.0000  0.0000 </r>
       </set>
       <set comment="band 3">
        <r>  0.0000  0.1009  0.1009  0.0000  0.0000  0.0000  0.0000  0.0000  0.0000 </r>
        <r>  0.0000  0.1009  0.1009  0.0000  0.0000  0.0000  0.0000  0.0000  0.0000 </r>
       </set>
       <set comment="band 4">
        <r>  0.0000  0.1009  0.1009  0.0000  0.0000  0.0000  0.0000  0.0000  0.0000 </r>
        <r>  0.0000  0.1009  0.1009  0.0000  0.0000  0.0000  0.0000  0.0000  0.0000 </r>
       </set>
       <set comment="band 5">
        <r>  0.0293  0.0000  0.0000  0.1030  0.0000  0.0000  0.0000  0.0000  0.0000 </r>
        <r>  0.0293  0.0000  0.0000  0.1030  0.0000  0.0000  0.0000  0.0000  0.0000 </r>
       </set>
       <set comment="band 6">
        <r>  0.1167  0.0000  0.0000  0.0649  0.0000  0.0000  0.0000  0.0000  0.0000 </r>
        <r>  0.1167  0.0000  0.0000  0.0649  0.0000  0.0000  0.0000  0.0000  0.0000 </r>
       </set>
       <set comment="band 7">
        <r>  0.0000  0.0827  0.0831  0.0000  0.0000  0.0000  0.0000  0.0000  0.0000 </r>
        <r>  0.0000  0.0831  0.0828  0.0000  0.0000  0.0000  0.0000  0.0000  0.0000 </r>
       </set>
       <set comment="band 8">
        <r>  0.0000  0.0831  0.0827  0.0000  0.0000  0.0000  0.0000  0.0000  0.0000 </r>
        <r>  0.0000  0.0827  0.0831  0.0000  0.0000  0.0000  0.0000  0.0000  0.0000 </r>
       </set>
      </set>
      <set comment="kpoint 28">
       <set comment="band 1">
        <r>  0.2113  0.0000  0.0000  0.0046  0.0000  0.0000  0.0000  0.0000  0.0000 </r>
        <r>  0.2113  0.0000  0.0000  0.0046  0.0000  0.0000  0.0000  0.0000  0.0000 </r>
       </set>
       <set comment="band 2">
        <r>  0.1149  0.0000  0.0000  0.1345  0.0000  0.0000  0.0000  0.0000  0.0000 </r>
        <r>  0.1149  0.0000  0.0000  0.1345  0.0000  0.0000  0.0000  0.0000  0.0000 </r>
       </set>
       <set comment="band 3">
        <r>  0.0000  0.1012  0.1012  0.0000  0.0000  0.0000  0.0000  0.0000  0.0000 </r>
        <r>  0.0000  0.1012  0.1012  0.0000  0.0000  0.0000  0.0000  0.0000  0.0000 </r>
       </set>
       <set comment="band 4">
        <r>  0.0000  0.1012  0.1012  0.0000  0.0000  0.0000  0.0000  0.0000  0.0000 </r>
        <r>  0.0000  0.1012  0.1012  0.0000  0.0000  0.0000  0.0000  0.0000  0.0000 </r>
       </set>
       <set comment="band 5">
        <r>  0.0266  0.0000  0.0000  0.1076  0.0000  0.0000  0.0000  0.0000  0.0000 </r>
        <r>  0.0266  0.0000  0.0000  0.1076  0.0000  0.0000  0.0000  0.0000  0.0000 </r>
       </set>
       <set comment="band 6">
        <r>  0.0000  0.1009  0.0644  0.0000  0.0000  0.0000  0.0000  0.0000  0.0000 </r>
        <r>  0.0000  0.0618  0.1034  0.0000  0.0000  0.0000  0.0000  0.0000  0.0000 </r>
       </set>
       <set comment="band 7">
        <r>  0.0000  0.0644  0.1009  0.0000  0.0000  0.0000  0.0000  0.0000  0.0000 </r>
        <r>  0.0000  0.1034  0.0618  0.0000  0.0000  0.0000  0.0000  0.0000  0.0000 </r>
       </set>
       <set comment="band 8">
        <r>  0.1455  0.0000  0.0000  0.0711  0.0000  0.0000  0.0000  0.0000  0.0000 </r>
        <r>  0.1455  0.0000  0.0000  0.0711  0.0000  0.0000  0.0000  0.0000  0.0000 </r>
       </set>
      </set>
      <set comment="kpoint 29">
       <set comment="band 1">
        <r>  0.2116  0.0000  0.0000  0.0038  0.0000  0.0000  0.0000  0.0000  0.0000 </r>
        <r>  0.2116  0.0000  0.0000  0.0038  0.0000  0.0000  0.0000  0.0000  0.0000 </r>
       </set>
       <set comment="band 2">
        <r>  0.1072  0.0000  0.0000  0.1404  0.0000  0.0000  0.0000  0.0000  0.0000 </r>
        <r>  0.1072  0.0000  0.0000  0.1404  0.0000  0.0000  0.0000  0.0000  0.0000 </r>
       </set>
       <set comment="band 3">
        <r>  0.0000  0.1016  0.1016  0.0000  0.0000  0.0000  0.0000  0.0000  0.0000 </r>
        <r>  0.0000  0.1016  0.1016  0.0000  0.0000  0.0000  0.0000  0.0000  0.0000 </r>
       </set>
       <set comment="band 4">
        <r>  0.0000  0.1016  0.1016  0.0000  0.0000  0.0000  0.0000  0.0000  0.0000 </r>
        <r>  0.0000  0.1016  0.1016  0.0000  0.0000  0.0000  0.0000  0.0000  0.0000 </r>
       </set>
       <set comment="band 5">
        <r>  0.0239  0.0000  0.0000  0.1123  0.0000  0.0000  0.0000  0.0000  0.0000 </r>
        <r>  0.0239  0.0000  0.0000  0.1123  0.0000  0.0000  0.0000  0.0000  0.0000 </r>
       </set>
       <set comment="band 6">
        <r>  0.0000  0.1078  0.0568  0.0000  0.0000  0.0000  0.0000  0.0000  0.0000 </r>
        <r>  0.0000  0.0495  0.1151  0.0000  0.0000  0.0000  0.0000  0.0000  0.0000 </r>
       </set>
       <set comment="band 7">
        <r>  0.0000  0.0568  0.1078  0.0000  0.0000  0.0000  0.0000  0.0000  0.0000 </r>
        <r>  0.0000  0.1151  0.0495  0.0000  0.0000  0.0000  0.0000  0.0000  0.0000 </r>
       </set>
       <set comment="band 8">
        <r>  0.1788  0.0000  0.0000  0.0751  0.0000  0.0000  0.0000  0.0000  0.0000 </r>
        <r>  0.1788  0.0000  0.0000  0.0751  0.0000  0.0000  0.0000  0.0000  0.0000 </r>
       </set>
      </set>
      <set comment="kpoint 30">
       <set comment="band 1">
        <r>  0.2119  0.0000  0.0000  0.0032  0.0000  0.0000  0.0000  0.0000  0.0000 </r>
        <r>  0.2119  0.0000  0.0000  0.0032  0.0000  0.0000  0.0000  0.0000  0.0000 </r>
       </set>
       <set comment="band 2">
        <r>  0.0987  0.0000  0.0000  0.1466  0.0000  0.0000  0.0000  0.0000  0.0000 </r>
        <r>  0.0987  0.0000  0.0000  0.1466  0.0000  0.0000  0.0000  0.0000  0.0000 </r>
       </set>
       <set comment="band 3">
        <r>  0.0000  0.1021  0.1021  0.0000  0.0000  0.0000  0.0000  0.0000  0.0000 </r>
        <r>  0.0000  0.1021  0.1020  0.0000  0.0000  0.0000  0.0000  0.0000  0.0000 </r>
       </set>
       <set comment="band 4">
        <r>  0.0000  0.1021  0.1021  0.0000  0.0000  0.0000  0.0000  0.0000  0.0000 </r>
        <r>  0.0000  0.1020  0.1021  0.0000  0.0000  0.0000  0.0000  0.0000  0.0000 </r>
       </set>
       <set comment="band 5">
        <r>  0.0211  0.0000  0.0000  0.1170  0.0000  0.0000  0.0000  0.0000  0.0000 </r>
        <r>  0.0211  0.0000  0.0000  0.1170  0.0000  0.0000  0.0000  0.0000  0.0000 </r>
       </set>
       <set comment="band 6">
        <r>  0.0000  0.0393  0.1243  0.0000  0.0000  0.0000  0.0000  0.0000  0.0000 </r>
        <r>  0.0000  0.0910  0.0727  0.0000  0.0000  0.0000  0.0000  0.0000  0.0000 </r>
       </set>
       <set comment="band 7">
        <r>  0.0000  0.1243  0.0393  0.0000  0.0000  0.0000  0.0000  0.0000  0.0000 </r>
        <r>  0.0000  0.0727  0.0910  0.0000  0.0000  0.0000  0.0000  0.0000  0.0000 </r>
       </set>
       <set comment="band 8">
        <r>  0.2114  0.0000  0.0000  0.0752  0.0000  0.0000  0.0000  0.0000  0.0000 </r>
        <r>  0.2114  0.0000  0.0000  0.0752  0.0000  0.0000  0.0000  0.0000  0.0000 </r>
       </set>
      </set>
      <set comment="kpoint 31">
       <set comment="band 1">
        <r>  0.2122  0.0000  0.0000  0.0026  0.0000  0.0000  0.0000  0.0000  0.0000 </r>
        <r>  0.2122  0.0000  0.0000  0.0026  0.0000  0.0000  0.0000  0.0000  0.0000 </r>
       </set>
       <set comment="band 2">
        <r>  0.0894  0.0000  0.0000  0.1534  0.0000  0.0000  0.0000  0.0000  0.0000 </r>
        <r>  0.0894  0.0000  0.0000  0.1534  0.0000  0.0000  0.0000  0.0000  0.0000 </r>
       </set>
       <set comment="band 3">
        <r>  0.0000  0.1026  0.1026  0.0000  0.0000  0.0000  0.0000  0.0000  0.0000 </r>
        <r>  0.0000  0.1026  0.1026  0.0000  0.0000  0.0000  0.0000  0.0000  0.0000 </r>
       </set>
       <set comment="band 4">
        <r>  0.0000  0.1026  0.1026  0.0000  0.0000  0.0000  0.0000  0.0000  0.0000 </r>
        <r>  0.0000  0.1026  0.1026  0.0000  0.0000  0.0000  0.0000  0.0000  0.0000 </r>
       </set>
       <set comment="band 5">
        <r>  0.0182  0.0000  0.0000  0.1218  0.0000  0.0000  0.0000  0.0000  0.0000 </r>
        <r>  0.0182  0.0000  0.0000  0.1218  0.0000  0.0000  0.0000  0.0000  0.0000 </r>
       </set>
       <set comment="band 6">
        <r>  0.0000  0.0778  0.0849  0.0000  0.0000  0.0000  0.0000  0.0000  0.0000 </r>
        <r>  0.0000  0.0749  0.0878  0.0000  0.0000  0.0000  0.0000  0.0000  0.0000 </r>
       </set>
       <set comment="band 7">
        <r>  0.0000  0.0849  0.0778  0.0000  0.0000  0.0000  0.0000  0.0000  0.0000 </r>
        <r>  0.0000  0.0878  0.0749  0.0000  0.0000  0.0000  0.0000  0.0000  0.0000 </r>
       </set>
       <set comment="band 8">
        <r>  0.2394  0.0000  0.0000  0.0710  0.0000  0.0000  0.0000  0.0000  0.0000 </r>
        <r>  0.2394  0.0000  0.0000  0.0710  0.0000  0.0000  0.0000  0.0000  0.0000 </r>
       </set>
      </set>
      <set comment="kpoint 32">
       <set comment="band 1">
        <r>  0.2125  0.0000  0.0000  0.0020  0.0000  0.0000  0.0000  0.0000  0.0000 </r>
        <r>  0.2125  0.0000  0.0000  0.0020  0.0000  0.0000  0.0000  0.0000  0.0000 </r>
       </set>
       <set comment="band 2">
        <r>  0.0793  0.0000  0.0000  0.1608  0.0000  0.0000  0.0000  0.0000  0.0000 </r>
        <r>  0.0793  0.0000  0.0000  0.1608  0.0000  0.0000  0.0000  0.0000  0.0000 </r>
       </set>
       <set comment="band 3">
        <r>  0.0000  0.1032  0.1031  0.0000  0.0000  0.0000  0.0000  0.0000  0.0000 </r>
        <r>  0.0000  0.1032  0.1031  0.0000  0.0000  0.0000  0.0000  0.0000  0.0000 </r>
       </set>
       <set comment="band 4">
        <r>  0.0000  0.1031  0.1032  0.0000  0.0000  0.0000  0.0000  0.0000  0.0000 </r>
        <r>  0.0000  0.1031  0.1032  0.0000  0.0000  0.0000  0.0000  0.0000  0.0000 </r>
       </set>
       <set comment="band 5">
        <r>  0.0153  0.0000  0.0000  0.1267  0.0000  0.0000  0.0000  0.0000  0.0000 </r>
        <r>  0.0153  0.0000  0.0000  0.1267  0.0000  0.0000  0.0000  0.0000  0.0000 </r>
       </set>
       <set comment="band 6">
        <r>  0.0000  0.0809  0.0806  0.0000  0.0000  0.0000  0.0000  0.0000  0.0000 </r>
        <r>  0.0000  0.0815  0.0801  0.0000  0.0000  0.0000  0.0000  0.0000  0.0000 </r>
       </set>
       <set comment="band 7">
        <r>  0.0000  0.0806  0.0809  0.0000  0.0000  0.0000  0.0000  0.0000  0.0000 </r>
        <r>  0.0000  0.0801  0.0815  0.0000  0.0000  0.0000  0.0000  0.0000  0.0000 </r>
       </set>
       <set comment="band 8">
        <r>  0.2620  0.0000  0.0000  0.0637  0.0000  0.0000  0.0000  0.0000  0.0000 </r>
        <r>  0.2620  0.0000  0.0000  0.0637  0.0000  0.0000  0.0000  0.0000  0.0000 </r>
       </set>
      </set>
      <set comment="kpoint 33">
       <set comment="band 1">
        <r>  0.2127  0.0000  0.0000  0.0016  0.0000  0.0000  0.0000  0.0000  0.0000 </r>
        <r>  0.2127  0.0000  0.0000  0.0016  0.0000  0.0000  0.0000  0.0000  0.0000 </r>
       </set>
       <set comment="band 2">
        <r>  0.0682  0.0000  0.0000  0.1688  0.0000  0.0000  0.0000  0.0000  0.0000 </r>
        <r>  0.0682  0.0000  0.0000  0.1688  0.0000  0.0000  0.0000  0.0000  0.0000 </r>
       </set>
       <set comment="band 3">
        <r>  0.0000  0.1039  0.1038  0.0000  0.0000  0.0000  0.0000  0.0000  0.0000 </r>
        <r>  0.0000  0.1039  0.1038  0.0000  0.0000  0.0000  0.0000  0.0000  0.0000 </r>
       </set>
       <set comment="band 4">
        <r>  0.0000  0.1038  0.1039  0.0000  0.0000  0.0000  0.0000  0.0000  0.0000 </r>
        <r>  0.0000  0.1038  0.1039  0.0000  0.0000  0.0000  0.0000  0.0000  0.0000 </r>
       </set>
       <set comment="band 5">
        <r>  0.0124  0.0000  0.0000  0.1314  0.0000  0.0000  0.0000  0.0000  0.0000 </r>
        <r>  0.0124  0.0000  0.0000  0.1314  0.0000  0.0000  0.0000  0.0000  0.0000 </r>
       </set>
       <set comment="band 6">
        <r>  0.0000  0.0720  0.0883  0.0000  0.0000  0.0000  0.0000  0.0000  0.0000 </r>
        <r>  0.0000  0.0870  0.0733  0.0000  0.0000  0.0000  0.0000  0.0000  0.0000 </r>
       </set>
       <set comment="band 7">
        <r>  0.0000  0.0883  0.0720  0.0000  0.0000  0.0000  0.0000  0.0000  0.0000 </r>
        <r>  0.0000  0.0733  0.0870  0.0000  0.0000  0.0000  0.0000  0.0000  0.0000 </r>
       </set>
       <set comment="band 8">
        <r>  0.2805  0.0000  0.0000  0.0546  0.0000  0.0000  0.0000  0.0000  0.0000 </r>
        <r>  0.2805  0.0000  0.0000  0.0546  0.0000  0.0000  0.0000  0.0000  0.0000 </r>
       </set>
      </set>
      <set comment="kpoint 34">
       <set comment="band 1">
        <r>  0.2129  0.0000  0.0000  0.0011  0.0000  0.0000  0.0000  0.0000  0.0000 </r>
        <r>  0.2129  0.0000  0.0000  0.0011  0.0000  0.0000  0.0000  0.0000  0.0000 </r>
       </set>
       <set comment="band 2">
        <r>  0.0563  0.0000  0.0000  0.1772  0.0000  0.0000  0.0000  0.0000  0.0000 </r>
        <r>  0.0563  0.0000  0.0000  0.1772  0.0000  0.0000  0.0000  0.0000  0.0000 </r>
       </set>
       <set comment="band 3">
        <r>  0.0000  0.1046  0.1045  0.0000  0.0000  0.0000  0.0000  0.0000  0.0000 </r>
        <r>  0.0000  0.1045  0.1046  0.0000  0.0000  0.0000  0.0000  0.0000  0.0000 </r>
       </set>
       <set comment="band 4">
        <r>  0.0000  0.1045  0.1046  0.0000  0.0000  0.0000  0.0000  0.0000  0.0000 </r>
        <r>  0.0000  0.1046  0.1045  0.0000  0.0000  0.0000  0.0000  0.0000  0.0000 </r>
       </set>
       <set comment="band 5">
        <r>  0.0096  0.0000  0.0000  0.1360  0.0000  0.0000  0.0000  0.0000  0.0000 </r>
        <r>  0.0096  0.0000  0.0000  0.1360  0.0000  0.0000  0.0000  0.0000  0.0000 </r>
       </set>
       <set comment="band 6">
        <r>  0.0000  0.0716  0.0872  0.0000  0.0000  0.0000  0.0000  0.0000  0.0000 </r>
        <r>  0.0000  0.0854  0.0734  0.0000  0.0000  0.0000  0.0000  0.0000  0.0000 </r>
       </set>
       <set comment="band 7">
        <r>  0.0000  0.0872  0.0716  0.0000  0.0000  0.0000  0.0000  0.0000  0.0000 </r>
        <r>  0.0000  0.0734  0.0854  0.0000  0.0000  0.0000  0.0000  0.0000  0.0000 </r>
       </set>
       <set comment="band 8">
        <r>  0.2969  0.0000  0.0000  0.0445  0.0000  0.0000  0.0000  0.0000  0.0000 </r>
        <r>  0.2969  0.0000  0.0000  0.0445  0.0000  0.0000  0.0000  0.0000  0.0000 </r>
       </set>
      </set>
      <set comment="kpoint 35">
       <set comment="band 1">
        <r>  0.2131  0.0000  0.0000  0.0008  0.0000  0.0000  0.0000  0.0000  0.0000 </r>
        <r>  0.2131  0.0000  0.0000  0.0008  0.0000  0.0000  0.0000  0.0000  0.0000 </r>
       </set>
       <set comment="band 2">
        <r>  0.0439  0.0000  0.0000  0.1860  0.0000  0.0000  0.0000  0.0000  0.0000 </r>
        <r>  0.0439  0.0000  0.0000  0.1860  0.0000  0.0000  0.0000  0.0000  0.0000 </r>
       </set>
       <set comment="band 3">
        <r>  0.0000  0.1054  0.1054  0.0000  0.0000  0.0000  0.0000  0.0000  0.0000 </r>
        <r>  0.0000  0.1054  0.1053  0.0000  0.0000  0.0000  0.0000  0.0000  0.0000 </r>
       </set>
       <set comment="band 4">
        <r>  0.0000  0.1054  0.1054  0.0000  0.0000  0.0000  0.0000  0.0000  0.0000 </r>
        <r>  0.0000  0.1053  0.1054  0.0000  0.0000  0.0000  0.0000  0.0000  0.0000 </r>
       </set>
       <set comment="band 5">
        <r>  0.0070  0.0000  0.0000  0.1402  0.0000  0.0000  0.0000  0.0000  0.0000 </r>
        <r>  0.0070  0.0000  0.0000  0.1402  0.0000  0.0000  0.0000  0.0000  0.0000 </r>
       </set>
       <set comment="band 6">
        <r>  0.0000  0.0797  0.0775  0.0000  0.0000  0.0000  0.0000  0.0000  0.0000 </r>
        <r>  0.0000  0.0757  0.0816  0.0000  0.0000  0.0000  0.0000  0.0000  0.0000 </r>
       </set>
       <set comment="band 7">
        <r>  0.0000  0.0775  0.0797  0.0000  0.0000  0.0000  0.0000  0.0000  0.0000 </r>
        <r>  0.0000  0.0816  0.0757  0.0000  0.0000  0.0000  0.0000  0.0000  0.0000 </r>
       </set>
       <set comment="band 8">
        <r>  0.3119  0.0000  0.0000  0.0342  0.0000  0.0000  0.0000  0.0000  0.0000 </r>
        <r>  0.3119  0.0000  0.0000  0.0342  0.0000  0.0000  0.0000  0.0000  0.0000 </r>
       </set>
      </set>
      <set comment="kpoint 36">
       <set comment="band 1">
        <r>  0.2132  0.0000  0.0000  0.0005  0.0000  0.0000  0.0000  0.0000  0.0000 </r>
        <r>  0.2132  0.0000  0.0000  0.0005  0.0000  0.0000  0.0000  0.0000  0.0000 </r>
       </set>
       <set comment="band 2">
        <r>  0.0313  0.0000  0.0000  0.1949  0.0000  0.0000  0.0000  0.0000  0.0000 </r>
        <r>  0.0313  0.0000  0.0000  0.1949  0.0000  0.0000  0.0000  0.0000  0.0000 </r>
       </set>
       <set comment="band 3">
        <r>  0.0000  0.1062  0.1062  0.0000  0.0000  0.0000  0.0000  0.0000  0.0000 </r>
        <r>  0.0000  0.1062  0.1062  0.0000  0.0000  0.0000  0.0000  0.0000  0.0000 </r>
       </set>
       <set comment="band 4">
        <r>  0.0000  0.1062  0.1062  0.0000  0.0000  0.0000  0.0000  0.0000  0.0000 </r>
        <r>  0.0000  0.1061  0.1062  0.0000  0.0000  0.0000  0.0000  0.0000  0.0000 </r>
       </set>
       <set comment="band 5">
        <r>  0.0047  0.0000  0.0000  0.1439  0.0000  0.0000  0.0000  0.0000  0.0000 </r>
        <r>  0.0047  0.0000  0.0000  0.1439  0.0000  0.0000  0.0000  0.0000  0.0000 </r>
       </set>
       <set comment="band 6">
        <r>  0.0000  0.0770  0.0786  0.0000  0.0000  0.0000  0.0000  0.0000  0.0000 </r>
        <r>  0.0000  0.0768  0.0788  0.0000  0.0000  0.0000  0.0000  0.0000  0.0000 </r>
       </set>
       <set comment="band 7">
        <r>  0.0000  0.0786  0.0770  0.0000  0.0000  0.0000  0.0000  0.0000  0.0000 </r>
        <r>  0.0000  0.0788  0.0768  0.0000  0.0000  0.0000  0.0000  0.0000  0.0000 </r>
       </set>
       <set comment="band 8">
        <r>  0.3260  0.0000  0.0000  0.0241  0.0000  0.0000  0.0000  0.0000  0.0000 </r>
        <r>  0.3260  0.0000  0.0000  0.0241  0.0000  0.0000  0.0000  0.0000  0.0000 </r>
       </set>
      </set>
      <set comment="kpoint 37">
       <set comment="band 1">
        <r>  0.2133  0.0000  0.0000  0.0003  0.0000  0.0000  0.0000  0.0000  0.0000 </r>
        <r>  0.2133  0.0000  0.0000  0.0003  0.0000  0.0000  0.0000  0.0000  0.0000 </r>
       </set>
       <set comment="band 2">
        <r>  0.0193  0.0000  0.0000  0.2032  0.0000  0.0000  0.0000  0.0000  0.0000 </r>
        <r>  0.0193  0.0000  0.0000  0.2032  0.0000  0.0000  0.0000  0.0000  0.0000 </r>
       </set>
       <set comment="band 3">
        <r>  0.0000  0.1075  0.1065  0.0000  0.0000  0.0000  0.0000  0.0000  0.0000 </r>
        <r>  0.0000  0.1071  0.1068  0.0000  0.0000  0.0000  0.0000  0.0000  0.0000 </r>
       </set>
       <set comment="band 4">
        <r>  0.0000  0.1065  0.1075  0.0000  0.0000  0.0000  0.0000  0.0000  0.0000 </r>
        <r>  0.0000  0.1068  0.1071  0.0000  0.0000  0.0000  0.0000  0.0000  0.0000 </r>
       </set>
       <set comment="band 5">
        <r>  0.0027  0.0000  0.0000  0.1471  0.0000  0.0000  0.0000  0.0000  0.0000 </r>
        <r>  0.0027  0.0000  0.0000  0.1471  0.0000  0.0000  0.0000  0.0000  0.0000 </r>
       </set>
       <set comment="band 6">
        <r>  0.0000  0.0746  0.0794  0.0000  0.0000  0.0000  0.0000  0.0000  0.0000 </r>
        <r>  0.0000  0.0799  0.0741  0.0000  0.0000  0.0000  0.0000  0.0000  0.0000 </r>
       </set>
       <set comment="band 7">
        <r>  0.0000  0.0794  0.0746  0.0000  0.0000  0.0000  0.0000  0.0000  0.0000 </r>
        <r>  0.0000  0.0741  0.0799  0.0000  0.0000  0.0000  0.0000  0.0000  0.0000 </r>
       </set>
       <set comment="band 8">
        <r>  0.3388  0.0000  0.0000  0.0147  0.0000  0.0000  0.0000  0.0000  0.0000 </r>
        <r>  0.3388  0.0000  0.0000  0.0147  0.0000  0.0000  0.0000  0.0000  0.0000 </r>
       </set>
      </set>
      <set comment="kpoint 38">
       <set comment="band 1">
        <r>  0.2134  0.0000  0.0000  0.0001  0.0000  0.0000  0.0000  0.0000  0.0000 </r>
        <r>  0.2134  0.0000  0.0000  0.0001  0.0000  0.0000  0.0000  0.0000  0.0000 </r>
       </set>
       <set comment="band 2">
        <r>  0.0093  0.0000  0.0000  0.2101  0.0000  0.0000  0.0000  0.0000  0.0000 </r>
        <r>  0.0093  0.0000  0.0000  0.2101  0.0000  0.0000  0.0000  0.0000  0.0000 </r>
       </set>
       <set comment="band 3">
        <r>  0.0000  0.1075  0.1078  0.0000  0.0000  0.0000  0.0000  0.0000  0.0000 </r>
        <r>  0.0000  0.1075  0.1078  0.0000  0.0000  0.0000  0.0000  0.0000  0.0000 </r>
       </set>
       <set comment="band 4">
        <r>  0.0000  0.1078  0.1075  0.0000  0.0000  0.0000  0.0000  0.0000  0.0000 </r>
        <r>  0.0000  0.1078  0.1075  0.0000  0.0000  0.0000  0.0000  0.0000  0.0000 </r>
       </set>
       <set comment="band 5">
        <r>  0.0012  0.0000  0.0000  0.1495  0.0000  0.0000  0.0000  0.0000  0.0000 </r>
        <r>  0.0012  0.0000  0.0000  0.1495  0.0000  0.0000  0.0000  0.0000  0.0000 </r>
       </set>
       <set comment="band 6">
        <r>  0.0000  0.0726  0.0801  0.0000  0.0000  0.0000  0.0000  0.0000  0.0000 </r>
        <r>  0.0000  0.0729  0.0798  0.0000  0.0000  0.0000  0.0000  0.0000  0.0000 </r>
       </set>
       <set comment="band 7">
        <r>  0.0000  0.0801  0.0726  0.0000  0.0000  0.0000  0.0000  0.0000  0.0000 </r>
        <r>  0.0000  0.0798  0.0729  0.0000  0.0000  0.0000  0.0000  0.0000  0.0000 </r>
       </set>
       <set comment="band 8">
        <r>  0.3493  0.0000  0.0000  0.0070  0.0000  0.0000  0.0000  0.0000  0.0000 </r>
        <r>  0.3493  0.0000  0.0000  0.0070  0.0000  0.0000  0.0000  0.0000  0.0000 </r>
       </set>
      </set>
      <set comment="kpoint 39">
       <set comment="band 1">
        <r>  0.2134  0.0000  0.0000  0.0000  0.0000  0.0000  0.0000  0.0000  0.0000 </r>
        <r>  0.2134  0.0000  0.0000  0.0000  0.0000  0.0000  0.0000  0.0000  0.0000 </r>
       </set>
       <set comment="band 2">
        <r>  0.0024  0.0000  0.0000  0.2149  0.0000  0.0000  0.0000  0.0000  0.0000 </r>
        <r>  0.0024  0.0000  0.0000  0.2149  0.0000  0.0000  0.0000  0.0000  0.0000 </r>
       </set>
       <set comment="band 3">
        <r>  0.0000  0.1080  0.1082  0.0000  0.0000  0.0000  0.0000  0.0000  0.0000 </r>
        <r>  0.0000  0.1079  0.1083  0.0000  0.0000  0.0000  0.0000  0.0000  0.0000 </r>
       </set>
       <set comment="band 4">
        <r>  0.0000  0.1082  0.1080  0.0000  0.0000  0.0000  0.0000  0.0000  0.0000 </r>
        <r>  0.0000  0.1083  0.1079  0.0000  0.0000  0.0000  0.0000  0.0000  0.0000 </r>
       </set>
       <set comment="band 5">
        <r>  0.0003  0.0000  0.0000  0.1509  0.0000  0.0000  0.0000  0.0000  0.0000 </r>
        <r>  0.0003  0.0000  0.0000  0.1509  0.0000  0.0000  0.0000  0.0000  0.0000 </r>
       </set>
       <set comment="band 6">
        <r>  0.0000  0.0780  0.0738  0.0000  0.0000  0.0000  0.0000  0.0000  0.0000 </r>
        <r>  0.0000  0.0763  0.0755  0.0000  0.0000  0.0000  0.0000  0.0000  0.0000 </r>
       </set>
       <set comment="band 7">
        <r>  0.0000  0.0738  0.0780  0.0000  0.0000  0.0000  0.0000  0.0000  0.0000 </r>
        <r>  0.0000  0.0755  0.0763  0.0000  0.0000  0.0000  0.0000  0.0000  0.0000 </r>
       </set>
       <set comment="band 8">
        <r>  0.3564  0.0000  0.0000  0.0018  0.0000  0.0000  0.0000  0.0000  0.0000 </r>
        <r>  0.3564  0.0000  0.0000  0.0018  0.0000  0.0000  0.0000  0.0000  0.0000 </r>
       </set>
      </set>
      <set comment="kpoint 40">
       <set comment="band 1">
        <r>  0.2134  0.0000  0.0000  0.0000  0.0000  0.0000  0.0000  0.0000  0.0000 </r>
        <r>  0.2134  0.0000  0.0000  0.0000  0.0000  0.0000  0.0000  0.0000  0.0000 </r>
       </set>
       <set comment="band 2">
        <r>  0.0000  0.0722  0.0721  0.0722  0.0000  0.0000  0.0000  0.0000  0.0000 </r>
        <r>  0.0000  0.0722  0.0721  0.0722  0.0000  0.0000  0.0000  0.0000  0.0000 </r>
       </set>
       <set comment="band 3">
        <r>  0.0000  0.0050  0.0987  0.1129  0.0000  0.0000  0.0000  0.0000  0.0000 </r>
        <r>  0.0000  0.0050  0.0987  0.1129  0.0000  0.0000  0.0000  0.0000  0.0000 </r>
       </set>
       <set comment="band 4">
        <r>  0.0000  0.1394  0.0457  0.0315  0.0000  0.0000  0.0000  0.0000  0.0000 </r>
        <r>  0.0000  0.1394  0.0457  0.0315  0.0000  0.0000  0.0000  0.0000  0.0000 </r>
       </set>
       <set comment="band 5">
        <r>  0.0000  0.0496  0.0509  0.0509  0.0000  0.0000  0.0000  0.0000  0.0000 </r>
        <r>  0.0000  0.0496  0.0509  0.0509  0.0000  0.0000  0.0000  0.0000  0.0000 </r>
       </set>
       <set comment="band 6">
        <r>  0.0000  0.0311  0.0578  0.0625  0.0000  0.0000  0.0000  0.0000  0.0000 </r>
        <r>  0.0000  0.0311  0.0578  0.0625  0.0000  0.0000  0.0000  0.0000  0.0000 </r>
       </set>
       <set comment="band 7">
        <r>  0.0000  0.0707  0.0427  0.0380  0.0000  0.0000  0.0000  0.0000  0.0000 </r>
        <r>  0.0000  0.0707  0.0427  0.0380  0.0000  0.0000  0.0000  0.0000  0.0000 </r>
       </set>
       <set comment="band 8">
        <r>  0.3589  0.0000  0.0000  0.0000  0.0000  0.0000  0.0000  0.0000  0.0000 </r>
        <r>  0.3589  0.0000  0.0000  0.0000  0.0000  0.0000  0.0000  0.0000  0.0000 </r>
       </set>
      </set>
      <set comment="kpoint 41">
       <set comment="band 1">
        <r>  0.2134  0.0000  0.0000  0.0000  0.0000  0.0000  0.0000  0.0000  0.0000 </r>
        <r>  0.2134  0.0000  0.0000  0.0000  0.0000  0.0000  0.0000  0.0000  0.0000 </r>
       </set>
       <set comment="band 2">
        <r>  0.0000  0.0722  0.0722  0.0721  0.0000  0.0000  0.0000  0.0000  0.0000 </r>
        <r>  0.0000  0.0722  0.0722  0.0721  0.0000  0.0000  0.0000  0.0000  0.0000 </r>
       </set>
       <set comment="band 3">
        <r>  0.0000  0.0426  0.0560  0.1180  0.0000  0.0000  0.0000  0.0000  0.0000 </r>
        <r>  0.0000  0.0426  0.0560  0.1180  0.0000  0.0000  0.0000  0.0000  0.0000 </r>
       </set>
       <set comment="band 4">
        <r>  0.0000  0.1017  0.0884  0.0265  0.0000  0.0000  0.0000  0.0000  0.0000 </r>
        <r>  0.0000  0.1017  0.0884  0.0265  0.0000  0.0000  0.0000  0.0000  0.0000 </r>
       </set>
       <set comment="band 5">
        <r>  0.0000  0.0535  0.0539  0.0440  0.0000  0.0000  0.0000  0.0000  0.0000 </r>
        <r>  0.0000  0.0535  0.0539  0.0440  0.0000  0.0000  0.0000  0.0000  0.0000 </r>
       </set>
       <set comment="band 6">
        <r>  0.0000  0.0690  0.0531  0.0293  0.0000  0.0000  0.0000  0.0000  0.0000 </r>
        <r>  0.0000  0.0690  0.0531  0.0293  0.0000  0.0000  0.0000  0.0000  0.0000 </r>
       </set>
       <set comment="band 7">
        <r>  0.0000  0.0289  0.0444  0.0780  0.0000  0.0000  0.0000  0.0000  0.0000 </r>
        <r>  0.0000  0.0289  0.0444  0.0780  0.0000  0.0000  0.0000  0.0000  0.0000 </r>
       </set>
       <set comment="band 8">
        <r>  0.3589  0.0000  0.0000  0.0000  0.0000  0.0000  0.0000  0.0000  0.0000 </r>
        <r>  0.3589  0.0000  0.0000  0.0000  0.0000  0.0000  0.0000  0.0000  0.0000 </r>
       </set>
      </set>
      <set comment="kpoint 42">
       <set comment="band 1">
        <r>  0.2134  0.0000  0.0000  0.0000  0.0000  0.0000  0.0000  0.0000  0.0000 </r>
        <r>  0.2134  0.0000  0.0000  0.0000  0.0000  0.0000  0.0000  0.0000  0.0000 </r>
       </set>
       <set comment="band 2">
        <r>  0.0024  0.2149  0.0000  0.0000  0.0000  0.0000  0.0000  0.0000  0.0000 </r>
        <r>  0.0024  0.2149  0.0000  0.0000  0.0000  0.0000  0.0000  0.0000  0.0000 </r>
       </set>
       <set comment="band 3">
        <r>  0.0000  0.0000  0.1080  0.1082  0.0000  0.0000  0.0000  0.0000  0.0000 </r>
        <r>  0.0000  0.0000  0.1080  0.1082  0.0000  0.0000  0.0000  0.0000  0.0000 </r>
       </set>
       <set comment="band 4">
        <r>  0.0000  0.0000  0.1082  0.1080  0.0000  0.0000  0.0000  0.0000  0.0000 </r>
        <r>  0.0000  0.0000  0.1082  0.1080  0.0000  0.0000  0.0000  0.0000  0.0000 </r>
       </set>
       <set comment="band 5">
        <r>  0.0003  0.1509  0.0000  0.0000  0.0000  0.0000  0.0000  0.0000  0.0000 </r>
        <r>  0.0003  0.1509  0.0000  0.0000  0.0000  0.0000  0.0000  0.0000  0.0000 </r>
       </set>
       <set comment="band 6">
        <r>  0.0000  0.0000  0.0768  0.0749  0.0000  0.0000  0.0000  0.0000  0.0000 </r>
        <r>  0.0000  0.0000  0.0768  0.0749  0.0000  0.0000  0.0000  0.0000  0.0000 </r>
       </set>
       <set comment="band 7">
        <r>  0.0000  0.0000  0.0749  0.0768  0.0000  0.0000  0.0000  0.0000  0.0000 </r>
        <r>  0.0000  0.0000  0.0749  0.0768  0.0000  0.0000  0.0000  0.0000  0.0000 </r>
       </set>
       <set comment="band 8">
        <r>  0.3564  0.0018  0.0000  0.0000  0.0000  0.0000  0.0000  0.0000  0.0000 </r>
        <r>  0.3564  0.0018  0.0000  0.0000  0.0000  0.0000  0.0000  0.0000  0.0000 </r>
       </set>
      </set>
      <set comment="kpoint 43">
       <set comment="band 1">
        <r>  0.2134  0.0001  0.0000  0.0000  0.0000  0.0000  0.0000  0.0000  0.0000 </r>
        <r>  0.2134  0.0001  0.0000  0.0000  0.0000  0.0000  0.0000  0.0000  0.0000 </r>
       </set>
       <set comment="band 2">
        <r>  0.0093  0.2101  0.0000  0.0000  0.0000  0.0000  0.0000  0.0000  0.0000 </r>
        <r>  0.0093  0.2101  0.0000  0.0000  0.0000  0.0000  0.0000  0.0000  0.0000 </r>
       </set>
       <set comment="band 3">
        <r>  0.0000  0.0000  0.1076  0.1077  0.0000  0.0000  0.0000  0.0000  0.0000 </r>
        <r>  0.0000  0.0000  0.1076  0.1077  0.0000  0.0000  0.0000  0.0000  0.0000 </r>
       </set>
       <set comment="band 4">
        <r>  0.0000  0.0000  0.1077  0.1076  0.0000  0.0000  0.0000  0.0000  0.0000 </r>
        <r>  0.0000  0.0000  0.1077  0.1076  0.0000  0.0000  0.0000  0.0000  0.0000 </r>
       </set>
       <set comment="band 5">
        <r>  0.0012  0.1495  0.0000  0.0000  0.0000  0.0000  0.0000  0.0000  0.0000 </r>
        <r>  0.0012  0.1495  0.0000  0.0000  0.0000  0.0000  0.0000  0.0000  0.0000 </r>
       </set>
       <set comment="band 6">
        <r>  0.0000  0.0000  0.0743  0.0784  0.0000  0.0000  0.0000  0.0000  0.0000 </r>
        <r>  0.0000  0.0000  0.0753  0.0774  0.0000  0.0000  0.0000  0.0000  0.0000 </r>
       </set>
       <set comment="band 7">
        <r>  0.0000  0.0000  0.0784  0.0743  0.0000  0.0000  0.0000  0.0000  0.0000 </r>
        <r>  0.0000  0.0000  0.0774  0.0753  0.0000  0.0000  0.0000  0.0000  0.0000 </r>
       </set>
       <set comment="band 8">
        <r>  0.3493  0.0070  0.0000  0.0000  0.0000  0.0000  0.0000  0.0000  0.0000 </r>
        <r>  0.3493  0.0070  0.0000  0.0000  0.0000  0.0000  0.0000  0.0000  0.0000 </r>
       </set>
      </set>
      <set comment="kpoint 44">
       <set comment="band 1">
        <r>  0.2133  0.0003  0.0000  0.0000  0.0000  0.0000  0.0000  0.0000  0.0000 </r>
        <r>  0.2133  0.0003  0.0000  0.0000  0.0000  0.0000  0.0000  0.0000  0.0000 </r>
       </set>
       <set comment="band 2">
        <r>  0.0193  0.2032  0.0000  0.0000  0.0000  0.0000  0.0000  0.0000  0.0000 </r>
        <r>  0.0193  0.2032  0.0000  0.0000  0.0000  0.0000  0.0000  0.0000  0.0000 </r>
       </set>
       <set comment="band 3">
        <r>  0.0000  0.0000  0.1080  0.1059  0.0000  0.0000  0.0000  0.0000  0.0000 </r>
        <r>  0.0000  0.0000  0.1087  0.1053  0.0000  0.0000  0.0000  0.0000  0.0000 </r>
       </set>
       <set comment="band 4">
        <r>  0.0000  0.0000  0.1059  0.1080  0.0000  0.0000  0.0000  0.0000  0.0000 </r>
        <r>  0.0000  0.0000  0.1053  0.1087  0.0000  0.0000  0.0000  0.0000  0.0000 </r>
       </set>
       <set comment="band 5">
        <r>  0.0027  0.1471  0.0000  0.0000  0.0000  0.0000  0.0000  0.0000  0.0000 </r>
        <r>  0.0027  0.1471  0.0000  0.0000  0.0000  0.0000  0.0000  0.0000  0.0000 </r>
       </set>
       <set comment="band 6">
        <r>  0.0000  0.0000  0.0925  0.0615  0.0000  0.0000  0.0000  0.0000  0.0000 </r>
        <r>  0.0000  0.0000  0.0927  0.0613  0.0000  0.0000  0.0000  0.0000  0.0000 </r>
       </set>
       <set comment="band 7">
        <r>  0.0000  0.0000  0.0615  0.0925  0.0000  0.0000  0.0000  0.0000  0.0000 </r>
        <r>  0.0000  0.0000  0.0613  0.0927  0.0000  0.0000  0.0000  0.0000  0.0000 </r>
       </set>
       <set comment="band 8">
        <r>  0.3388  0.0147  0.0000  0.0000  0.0000  0.0000  0.0000  0.0000  0.0000 </r>
        <r>  0.3388  0.0147  0.0000  0.0000  0.0000  0.0000  0.0000  0.0000  0.0000 </r>
       </set>
      </set>
      <set comment="kpoint 45">
       <set comment="band 1">
        <r>  0.2132  0.0005  0.0000  0.0000  0.0000  0.0000  0.0000  0.0000  0.0000 </r>
        <r>  0.2132  0.0005  0.0000  0.0000  0.0000  0.0000  0.0000  0.0000  0.0000 </r>
       </set>
       <set comment="band 2">
        <r>  0.0313  0.1949  0.0000  0.0000  0.0000  0.0000  0.0000  0.0000  0.0000 </r>
        <r>  0.0313  0.1949  0.0000  0.0000  0.0000  0.0000  0.0000  0.0000  0.0000 </r>
       </set>
       <set comment="band 3">
        <r>  0.0000  0.0000  0.1062  0.1062  0.0000  0.0000  0.0000  0.0000  0.0000 </r>
        <r>  0.0000  0.0000  0.1062  0.1062  0.0000  0.0000  0.0000  0.0000  0.0000 </r>
       </set>
       <set comment="band 4">
        <r>  0.0000  0.0000  0.1062  0.1062  0.0000  0.0000  0.0000  0.0000  0.0000 </r>
        <r>  0.0000  0.0000  0.1062  0.1062  0.0000  0.0000  0.0000  0.0000  0.0000 </r>
       </set>
       <set comment="band 5">
        <r>  0.0047  0.1439  0.0000  0.0000  0.0000  0.0000  0.0000  0.0000  0.0000 </r>
        <r>  0.0047  0.1439  0.0000  0.0000  0.0000  0.0000  0.0000  0.0000  0.0000 </r>
       </set>
       <set comment="band 6">
        <r>  0.0000  0.0000  0.0726  0.0829  0.0000  0.0000  0.0000  0.0000  0.0000 </r>
        <r>  0.0000  0.0000  0.0738  0.0818  0.0000  0.0000  0.0000  0.0000  0.0000 </r>
       </set>
       <set comment="band 7">
        <r>  0.0000  0.0000  0.0829  0.0726  0.0000  0.0000  0.0000  0.0000  0.0000 </r>
        <r>  0.0000  0.0000  0.0818  0.0738  0.0000  0.0000  0.0000  0.0000  0.0000 </r>
       </set>
       <set comment="band 8">
        <r>  0.3260  0.0241  0.0000  0.0000  0.0000  0.0000  0.0000  0.0000  0.0000 </r>
        <r>  0.3260  0.0241  0.0000  0.0000  0.0000  0.0000  0.0000  0.0000  0.0000 </r>
       </set>
      </set>
      <set comment="kpoint 46">
       <set comment="band 1">
        <r>  0.2131  0.0008  0.0000  0.0000  0.0000  0.0000  0.0000  0.0000  0.0000 </r>
        <r>  0.2131  0.0008  0.0000  0.0000  0.0000  0.0000  0.0000  0.0000  0.0000 </r>
       </set>
       <set comment="band 2">
        <r>  0.0439  0.1860  0.0000  0.0000  0.0000  0.0000  0.0000  0.0000  0.0000 </r>
        <r>  0.0439  0.1860  0.0000  0.0000  0.0000  0.0000  0.0000  0.0000  0.0000 </r>
       </set>
       <set comment="band 3">
        <r>  0.0000  0.0000  0.1054  0.1054  0.0000  0.0000  0.0000  0.0000  0.0000 </r>
        <r>  0.0000  0.0000  0.1053  0.1054  0.0000  0.0000  0.0000  0.0000  0.0000 </r>
       </set>
       <set comment="band 4">
        <r>  0.0000  0.0000  0.1054  0.1054  0.0000  0.0000  0.0000  0.0000  0.0000 </r>
        <r>  0.0000  0.0000  0.1054  0.1053  0.0000  0.0000  0.0000  0.0000  0.0000 </r>
       </set>
       <set comment="band 5">
        <r>  0.0070  0.1402  0.0000  0.0000  0.0000  0.0000  0.0000  0.0000  0.0000 </r>
        <r>  0.0070  0.1402  0.0000  0.0000  0.0000  0.0000  0.0000  0.0000  0.0000 </r>
       </set>
       <set comment="band 6">
        <r>  0.0000  0.0000  0.0990  0.0582  0.0000  0.0000  0.0000  0.0000  0.0000 </r>
        <r>  0.0000  0.0000  0.0864  0.0708  0.0000  0.0000  0.0000  0.0000  0.0000 </r>
       </set>
       <set comment="band 7">
        <r>  0.0000  0.0000  0.0582  0.0990  0.0000  0.0000  0.0000  0.0000  0.0000 </r>
        <r>  0.0000  0.0000  0.0708  0.0864  0.0000  0.0000  0.0000  0.0000  0.0000 </r>
       </set>
       <set comment="band 8">
        <r>  0.3119  0.0342  0.0000  0.0000  0.0000  0.0000  0.0000  0.0000  0.0000 </r>
        <r>  0.3119  0.0342  0.0000  0.0000  0.0000  0.0000  0.0000  0.0000  0.0000 </r>
       </set>
      </set>
      <set comment="kpoint 47">
       <set comment="band 1">
        <r>  0.2129  0.0011  0.0000  0.0000  0.0000  0.0000  0.0000  0.0000  0.0000 </r>
        <r>  0.2129  0.0011  0.0000  0.0000  0.0000  0.0000  0.0000  0.0000  0.0000 </r>
       </set>
       <set comment="band 2">
        <r>  0.0563  0.1772  0.0000  0.0000  0.0000  0.0000  0.0000  0.0000  0.0000 </r>
        <r>  0.0563  0.1772  0.0000  0.0000  0.0000  0.0000  0.0000  0.0000  0.0000 </r>
       </set>
       <set comment="band 3">
        <r>  0.0000  0.0000  0.1045  0.1047  0.0000  0.0000  0.0000  0.0000  0.0000 </r>
        <r>  0.0000  0.0000  0.1053  0.1038  0.0000  0.0000  0.0000  0.0000  0.0000 </r>
       </set>
       <set comment="band 4">
        <r>  0.0000  0.0000  0.1047  0.1045  0.0000  0.0000  0.0000  0.0000  0.0000 </r>
        <r>  0.0000  0.0000  0.1038  0.1053  0.0000  0.0000  0.0000  0.0000  0.0000 </r>
       </set>
       <set comment="band 5">
        <r>  0.0096  0.1360  0.0000  0.0000  0.0000  0.0000  0.0000  0.0000  0.0000 </r>
        <r>  0.0096  0.1360  0.0000  0.0000  0.0000  0.0000  0.0000  0.0000  0.0000 </r>
       </set>
       <set comment="band 6">
        <r>  0.0000  0.0000  0.0906  0.0682  0.0000  0.0000  0.0000  0.0000  0.0000 </r>
        <r>  0.0000  0.0000  0.0836  0.0752  0.0000  0.0000  0.0000  0.0000  0.0000 </r>
       </set>
       <set comment="band 7">
        <r>  0.0000  0.0000  0.0682  0.0906  0.0000  0.0000  0.0000  0.0000  0.0000 </r>
        <r>  0.0000  0.0000  0.0752  0.0836  0.0000  0.0000  0.0000  0.0000  0.0000 </r>
       </set>
       <set comment="band 8">
        <r>  0.2969  0.0445  0.0000  0.0000  0.0000  0.0000  0.0000  0.0000  0.0000 </r>
        <r>  0.2969  0.0445  0.0000  0.0000  0.0000  0.0000  0.0000  0.0000  0.0000 </r>
       </set>
      </set>
      <set comment="kpoint 48">
       <set comment="band 1">
        <r>  0.2127  0.0016  0.0000  0.0000  0.0000  0.0000  0.0000  0.0000  0.0000 </r>
        <r>  0.2127  0.0016  0.0000  0.0000  0.0000  0.0000  0.0000  0.0000  0.0000 </r>
       </set>
       <set comment="band 2">
        <r>  0.0682  0.1688  0.0000  0.0000  0.0000  0.0000  0.0000  0.0000  0.0000 </r>
        <r>  0.0682  0.1688  0.0000  0.0000  0.0000  0.0000  0.0000  0.0000  0.0000 </r>
       </set>
       <set comment="band 3">
        <r>  0.0000  0.0000  0.1038  0.1039  0.0000  0.0000  0.0000  0.0000  0.0000 </r>
        <r>  0.0000  0.0000  0.1039  0.1038  0.0000  0.0000  0.0000  0.0000  0.0000 </r>
       </set>
       <set comment="band 4">
        <r>  0.0000  0.0000  0.1039  0.1038  0.0000  0.0000  0.0000  0.0000  0.0000 </r>
        <r>  0.0000  0.0000  0.1038  0.1039  0.0000  0.0000  0.0000  0.0000  0.0000 </r>
       </set>
       <set comment="band 5">
        <r>  0.0124  0.1314  0.0000  0.0000  0.0000  0.0000  0.0000  0.0000  0.0000 </r>
        <r>  0.0124  0.1314  0.0000  0.0000  0.0000  0.0000  0.0000  0.0000  0.0000 </r>
       </set>
       <set comment="band 6">
        <r>  0.0000  0.0000  0.1146  0.0457  0.0000  0.0000  0.0000  0.0000  0.0000 </r>
        <r>  0.0000  0.0000  0.0957  0.0646  0.0000  0.0000  0.0000  0.0000  0.0000 </r>
       </set>
       <set comment="band 7">
        <r>  0.0000  0.0000  0.0457  0.1146  0.0000  0.0000  0.0000  0.0000  0.0000 </r>
        <r>  0.0000  0.0000  0.0646  0.0957  0.0000  0.0000  0.0000  0.0000  0.0000 </r>
       </set>
       <set comment="band 8">
        <r>  0.2805  0.0546  0.0000  0.0000  0.0000  0.0000  0.0000  0.0000  0.0000 </r>
        <r>  0.2805  0.0546  0.0000  0.0000  0.0000  0.0000  0.0000  0.0000  0.0000 </r>
       </set>
      </set>
      <set comment="kpoint 49">
       <set comment="band 1">
        <r>  0.2125  0.0020  0.0000  0.0000  0.0000  0.0000  0.0000  0.0000  0.0000 </r>
        <r>  0.2125  0.0020  0.0000  0.0000  0.0000  0.0000  0.0000  0.0000  0.0000 </r>
       </set>
       <set comment="band 2">
        <r>  0.0793  0.1608  0.0000  0.0000  0.0000  0.0000  0.0000  0.0000  0.0000 </r>
        <r>  0.0793  0.1608  0.0000  0.0000  0.0000  0.0000  0.0000  0.0000  0.0000 </r>
       </set>
       <set comment="band 3">
        <r>  0.0000  0.0000  0.1032  0.1032  0.0000  0.0000  0.0000  0.0000  0.0000 </r>
        <r>  0.0000  0.0000  0.1032  0.1032  0.0000  0.0000  0.0000  0.0000  0.0000 </r>
       </set>
       <set comment="band 4">
        <r>  0.0000  0.0000  0.1032  0.1032  0.0000  0.0000  0.0000  0.0000  0.0000 </r>
        <r>  0.0000  0.0000  0.1032  0.1032  0.0000  0.0000  0.0000  0.0000  0.0000 </r>
       </set>
       <set comment="band 5">
        <r>  0.0153  0.1267  0.0000  0.0000  0.0000  0.0000  0.0000  0.0000  0.0000 </r>
        <r>  0.0153  0.1267  0.0000  0.0000  0.0000  0.0000  0.0000  0.0000  0.0000 </r>
       </set>
       <set comment="band 6">
        <r>  0.0000  0.0000  0.0749  0.0867  0.0000  0.0000  0.0000  0.0000  0.0000 </r>
        <r>  0.0000  0.0000  0.0929  0.0686  0.0000  0.0000  0.0000  0.0000  0.0000 </r>
       </set>
       <set comment="band 7">
        <r>  0.0000  0.0000  0.0867  0.0749  0.0000  0.0000  0.0000  0.0000  0.0000 </r>
        <r>  0.0000  0.0000  0.0686  0.0929  0.0000  0.0000  0.0000  0.0000  0.0000 </r>
       </set>
       <set comment="band 8">
        <r>  0.2620  0.0637  0.0000  0.0000  0.0000  0.0000  0.0000  0.0000  0.0000 </r>
        <r>  0.2620  0.0637  0.0000  0.0000  0.0000  0.0000  0.0000  0.0000  0.0000 </r>
       </set>
      </set>
      <set comment="kpoint 50">
       <set comment="band 1">
        <r>  0.2122  0.0026  0.0000  0.0000  0.0000  0.0000  0.0000  0.0000  0.0000 </r>
        <r>  0.2122  0.0026  0.0000  0.0000  0.0000  0.0000  0.0000  0.0000  0.0000 </r>
       </set>
       <set comment="band 2">
        <r>  0.0894  0.1534  0.0000  0.0000  0.0000  0.0000  0.0000  0.0000  0.0000 </r>
        <r>  0.0894  0.1534  0.0000  0.0000  0.0000  0.0000  0.0000  0.0000  0.0000 </r>
       </set>
       <set comment="band 3">
        <r>  0.0000  0.0000  0.1026  0.1026  0.0000  0.0000  0.0000  0.0000  0.0000 </r>
        <r>  0.0000  0.0000  0.1026  0.1026  0.0000  0.0000  0.0000  0.0000  0.0000 </r>
       </set>
       <set comment="band 4">
        <r>  0.0000  0.0000  0.1026  0.1026  0.0000  0.0000  0.0000  0.0000  0.0000 </r>
        <r>  0.0000  0.0000  0.1026  0.1026  0.0000  0.0000  0.0000  0.0000  0.0000 </r>
       </set>
       <set comment="band 5">
        <r>  0.0182  0.1218  0.0000  0.0000  0.0000  0.0000  0.0000  0.0000  0.0000 </r>
        <r>  0.0182  0.1218  0.0000  0.0000  0.0000  0.0000  0.0000  0.0000  0.0000 </r>
       </set>
       <set comment="band 6">
        <r>  0.0000  0.0000  0.0791  0.0835  0.0000  0.0000  0.0000  0.0000  0.0000 </r>
        <r>  0.0000  0.0000  0.0838  0.0789  0.0000  0.0000  0.0000  0.0000  0.0000 </r>
       </set>
       <set comment="band 7">
        <r>  0.0000  0.0000  0.0835  0.0791  0.0000  0.0000  0.0000  0.0000  0.0000 </r>
        <r>  0.0000  0.0000  0.0789  0.0838  0.0000  0.0000  0.0000  0.0000  0.0000 </r>
       </set>
       <set comment="band 8">
        <r>  0.2394  0.0710  0.0000  0.0000  0.0000  0.0000  0.0000  0.0000  0.0000 </r>
        <r>  0.2394  0.0710  0.0000  0.0000  0.0000  0.0000  0.0000  0.0000  0.0000 </r>
       </set>
      </set>
      <set comment="kpoint 51">
       <set comment="band 1">
        <r>  0.2119  0.0032  0.0000  0.0000  0.0000  0.0000  0.0000  0.0000  0.0000 </r>
        <r>  0.2119  0.0032  0.0000  0.0000  0.0000  0.0000  0.0000  0.0000  0.0000 </r>
       </set>
       <set comment="band 2">
        <r>  0.0987  0.1466  0.0000  0.0000  0.0000  0.0000  0.0000  0.0000  0.0000 </r>
        <r>  0.0987  0.1466  0.0000  0.0000  0.0000  0.0000  0.0000  0.0000  0.0000 </r>
       </set>
       <set comment="band 3">
        <r>  0.0000  0.0000  0.1020  0.1021  0.0000  0.0000  0.0000  0.0000  0.0000 </r>
        <r>  0.0000  0.0000  0.1020  0.1021  0.0000  0.0000  0.0000  0.0000  0.0000 </r>
       </set>
       <set comment="band 4">
        <r>  0.0000  0.0000  0.1021  0.1020  0.0000  0.0000  0.0000  0.0000  0.0000 </r>
        <r>  0.0000  0.0000  0.1021  0.1020  0.0000  0.0000  0.0000  0.0000  0.0000 </r>
       </set>
       <set comment="band 5">
        <r>  0.0211  0.1170  0.0000  0.0000  0.0000  0.0000  0.0000  0.0000  0.0000 </r>
        <r>  0.0211  0.1170  0.0000  0.0000  0.0000  0.0000  0.0000  0.0000  0.0000 </r>
       </set>
       <set comment="band 6">
        <r>  0.0000  0.0000  0.0657  0.0980  0.0000  0.0000  0.0000  0.0000  0.0000 </r>
        <r>  0.0000  0.0000  0.0911  0.0726  0.0000  0.0000  0.0000  0.0000  0.0000 </r>
       </set>
       <set comment="band 7">
        <r>  0.0000  0.0000  0.0980  0.0656  0.0000  0.0000  0.0000  0.0000  0.0000 </r>
        <r>  0.0000  0.0000  0.0726  0.0911  0.0000  0.0000  0.0000  0.0000  0.0000 </r>
       </set>
       <set comment="band 8">
        <r>  0.2113  0.0752  0.0000  0.0000  0.0000  0.0000  0.0000  0.0000  0.0000 </r>
        <r>  0.2113  0.0752  0.0000  0.0000  0.0000  0.0000  0.0000  0.0000  0.0000 </r>
       </set>
      </set>
      <set comment="kpoint 52">
       <set comment="band 1">
        <r>  0.2116  0.0038  0.0000  0.0000  0.0000  0.0000  0.0000  0.0000  0.0000 </r>
        <r>  0.2116  0.0038  0.0000  0.0000  0.0000  0.0000  0.0000  0.0000  0.0000 </r>
       </set>
       <set comment="band 2">
        <r>  0.1072  0.1404  0.0000  0.0000  0.0000  0.0000  0.0000  0.0000  0.0000 </r>
        <r>  0.1072  0.1404  0.0000  0.0000  0.0000  0.0000  0.0000  0.0000  0.0000 </r>
       </set>
       <set comment="band 3">
        <r>  0.0000  0.0000  0.1016  0.1016  0.0000  0.0000  0.0000  0.0000  0.0000 </r>
        <r>  0.0000  0.0000  0.1016  0.1016  0.0000  0.0000  0.0000  0.0000  0.0000 </r>
       </set>
       <set comment="band 4">
        <r>  0.0000  0.0000  0.1016  0.1016  0.0000  0.0000  0.0000  0.0000  0.0000 </r>
        <r>  0.0000  0.0000  0.1016  0.1016  0.0000  0.0000  0.0000  0.0000  0.0000 </r>
       </set>
       <set comment="band 5">
        <r>  0.0239  0.1123  0.0000  0.0000  0.0000  0.0000  0.0000  0.0000  0.0000 </r>
        <r>  0.0239  0.1123  0.0000  0.0000  0.0000  0.0000  0.0000  0.0000  0.0000 </r>
       </set>
       <set comment="band 6">
        <r>  0.0000  0.0000  0.0833  0.0813  0.0000  0.0000  0.0000  0.0000  0.0000 </r>
        <r>  0.0000  0.0000  0.0816  0.0830  0.0000  0.0000  0.0000  0.0000  0.0000 </r>
       </set>
       <set comment="band 7">
        <r>  0.0000  0.0000  0.0813  0.0833  0.0000  0.0000  0.0000  0.0000  0.0000 </r>
        <r>  0.0000  0.0000  0.0830  0.0816  0.0000  0.0000  0.0000  0.0000  0.0000 </r>
       </set>
       <set comment="band 8">
        <r>  0.1788  0.0751  0.0000  0.0000  0.0000  0.0000  0.0000  0.0000  0.0000 </r>
        <r>  0.1788  0.0751  0.0000  0.0000  0.0000  0.0000  0.0000  0.0000  0.0000 </r>
       </set>
      </set>
      <set comment="kpoint 53">
       <set comment="band 1">
        <r>  0.2113  0.0046  0.0000  0.0000  0.0000  0.0000  0.0000  0.0000  0.0000 </r>
        <r>  0.2113  0.0046  0.0000  0.0000  0.0000  0.0000  0.0000  0.0000  0.0000 </r>
       </set>
       <set comment="band 2">
        <r>  0.1149  0.1345  0.0000  0.0000  0.0000  0.0000  0.0000  0.0000  0.0000 </r>
        <r>  0.1149  0.1345  0.0000  0.0000  0.0000  0.0000  0.0000  0.0000  0.0000 </r>
       </set>
       <set comment="band 3">
        <r>  0.0000  0.0000  0.1012  0.1012  0.0000  0.0000  0.0000  0.0000  0.0000 </r>
        <r>  0.0000  0.0000  0.1012  0.1012  0.0000  0.0000  0.0000  0.0000  0.0000 </r>
       </set>
       <set comment="band 4">
        <r>  0.0000  0.0000  0.1012  0.1012  0.0000  0.0000  0.0000  0.0000  0.0000 </r>
        <r>  0.0000  0.0000  0.1012  0.1012  0.0000  0.0000  0.0000  0.0000  0.0000 </r>
       </set>
       <set comment="band 5">
        <r>  0.0266  0.1076  0.0000  0.0000  0.0000  0.0000  0.0000  0.0000  0.0000 </r>
        <r>  0.0266  0.1076  0.0000  0.0000  0.0000  0.0000  0.0000  0.0000  0.0000 </r>
       </set>
       <set comment="band 6">
        <r>  0.0000  0.0000  0.0425  0.1228  0.0000  0.0000  0.0000  0.0000  0.0000 </r>
        <r>  0.0000  0.0000  0.1136  0.0516  0.0000  0.0000  0.0000  0.0000  0.0000 </r>
       </set>
       <set comment="band 7">
        <r>  0.0000  0.0000  0.1228  0.0425  0.0000  0.0000  0.0000  0.0000  0.0000 </r>
        <r>  0.0000  0.0000  0.0516  0.1136  0.0000  0.0000  0.0000  0.0000  0.0000 </r>
       </set>
       <set comment="band 8">
        <r>  0.1455  0.0711  0.0000  0.0000  0.0000  0.0000  0.0000  0.0000  0.0000 </r>
        <r>  0.1455  0.0711  0.0000  0.0000  0.0000  0.0000  0.0000  0.0000  0.0000 </r>
       </set>
      </set>
      <set comment="kpoint 54">
       <set comment="band 1">
        <r>  0.2109  0.0053  0.0000  0.0000  0.0000  0.0000  0.0000  0.0000  0.0000 </r>
        <r>  0.2109  0.0053  0.0000  0.0000  0.0000  0.0000  0.0000  0.0000  0.0000 </r>
       </set>
       <set comment="band 2">
        <r>  0.1219  0.1290  0.0000  0.0000  0.0000  0.0000  0.0000  0.0000  0.0000 </r>
        <r>  0.1219  0.1290  0.0000  0.0000  0.0000  0.0000  0.0000  0.0000  0.0000 </r>
       </set>
       <set comment="band 3">
        <r>  0.0000  0.0000  0.1009  0.1009  0.0000  0.0000  0.0000  0.0000  0.0000 </r>
        <r>  0.0000  0.0000  0.1009  0.1009  0.0000  0.0000  0.0000  0.0000  0.0000 </r>
       </set>
       <set comment="band 4">
        <r>  0.0000  0.0000  0.1009  0.1009  0.0000  0.0000  0.0000  0.0000  0.0000 </r>
        <r>  0.0000  0.0000  0.1009  0.1009  0.0000  0.0000  0.0000  0.0000  0.0000 </r>
       </set>
       <set comment="band 5">
        <r>  0.0293  0.1030  0.0000  0.0000  0.0000  0.0000  0.0000  0.0000  0.0000 </r>
        <r>  0.0293  0.1030  0.0000  0.0000  0.0000  0.0000  0.0000  0.0000  0.0000 </r>
       </set>
       <set comment="band 6">
        <r>  0.1167  0.0649  0.0000  0.0000  0.0000  0.0000  0.0000  0.0000  0.0000 </r>
        <r>  0.1167  0.0649  0.0000  0.0000  0.0000  0.0000  0.0000  0.0000  0.0000 </r>
       </set>
       <set comment="band 7">
        <r>  0.0000  0.0000  0.0919  0.0740  0.0000  0.0000  0.0000  0.0000  0.0000 </r>
        <r>  0.0000  0.0000  0.0749  0.0910  0.0000  0.0000  0.0000  0.0000  0.0000 </r>
       </set>
       <set comment="band 8">
        <r>  0.0000  0.0000  0.0740  0.0919  0.0000  0.0000  0.0000  0.0000  0.0000 </r>
        <r>  0.0000  0.0000  0.0910  0.0749  0.0000  0.0000  0.0000  0.0000  0.0000 </r>
       </set>
      </set>
      <set comment="kpoint 55">
       <set comment="band 1">
        <r>  0.2105  0.0062  0.0000  0.0000  0.0000  0.0000  0.0000  0.0000  0.0000 </r>
        <r>  0.2105  0.0062  0.0000  0.0000  0.0000  0.0000  0.0000  0.0000  0.0000 </r>
       </set>
       <set comment="band 2">
        <r>  0.1283  0.1237  0.0000  0.0000  0.0000  0.0000  0.0000  0.0000  0.0000 </r>
        <r>  0.1283  0.1237  0.0000  0.0000  0.0000  0.0000  0.0000  0.0000  0.0000 </r>
       </set>
       <set comment="band 3">
        <r>  0.0000  0.0000  0.1006  0.1006  0.0000  0.0000  0.0000  0.0000  0.0000 </r>
        <r>  0.0000  0.0000  0.1006  0.1006  0.0000  0.0000  0.0000  0.0000  0.0000 </r>
       </set>
       <set comment="band 4">
        <r>  0.0000  0.0000  0.1006  0.1006  0.0000  0.0000  0.0000  0.0000  0.0000 </r>
        <r>  0.0000  0.0000  0.1006  0.1006  0.0000  0.0000  0.0000  0.0000  0.0000 </r>
       </set>
       <set comment="band 5">
        <r>  0.0317  0.0986  0.0000  0.0000  0.0000  0.0000  0.0000  0.0000  0.0000 </r>
        <r>  0.0317  0.0986  0.0000  0.0000  0.0000  0.0000  0.0000  0.0000  0.0000 </r>
       </set>
       <set comment="band 6">
        <r>  0.0946  0.0582  0.0000  0.0000  0.0000  0.0000  0.0000  0.0000  0.0000 </r>
        <r>  0.0946  0.0582  0.0000  0.0000  0.0000  0.0000  0.0000  0.0000  0.0000 </r>
       </set>
       <set comment="band 7">
        <r>  0.0000  0.0000  0.0773  0.0890  0.0000  0.0000  0.0000  0.0000  0.0000 </r>
        <r>  0.0000  0.0000  0.0903  0.0759  0.0000  0.0000  0.0000  0.0000  0.0000 </r>
       </set>
       <set comment="band 8">
        <r>  0.0000  0.0000  0.0890  0.0773  0.0000  0.0000  0.0000  0.0000  0.0000 </r>
        <r>  0.0000  0.0000  0.0759  0.0903  0.0000  0.0000  0.0000  0.0000  0.0000 </r>
       </set>
      </set>
      <set comment="kpoint 56">
       <set comment="band 1">
        <r>  0.2101  0.0071  0.0000  0.0000  0.0000  0.0000  0.0000  0.0000  0.0000 </r>
        <r>  0.2101  0.0071  0.0000  0.0000  0.0000  0.0000  0.0000  0.0000  0.0000 </r>
       </set>
       <set comment="band 2">
        <r>  0.1342  0.1189  0.0000  0.0000  0.0000  0.0000  0.0000  0.0000  0.0000 </r>
        <r>  0.1342  0.1189  0.0000  0.0000  0.0000  0.0000  0.0000  0.0000  0.0000 </r>
       </set>
       <set comment="band 3">
        <r>  0.0000  0.0000  0.1003  0.1003  0.0000  0.0000  0.0000  0.0000  0.0000 </r>
        <r>  0.0000  0.0000  0.1003  0.1003  0.0000  0.0000  0.0000  0.0000  0.0000 </r>
       </set>
       <set comment="band 4">
        <r>  0.0000  0.0000  0.1003  0.1003  0.0000  0.0000  0.0000  0.0000  0.0000 </r>
        <r>  0.0000  0.0000  0.1003  0.1003  0.0000  0.0000  0.0000  0.0000  0.0000 </r>
       </set>
       <set comment="band 5">
        <r>  0.0341  0.0943  0.0000  0.0000  0.0000  0.0000  0.0000  0.0000  0.0000 </r>
        <r>  0.0341  0.0943  0.0000  0.0000  0.0000  0.0000  0.0000  0.0000  0.0000 </r>
       </set>
       <set comment="band 6">
        <r>  0.0787  0.0527  0.0000  0.0000  0.0000  0.0000  0.0000  0.0000  0.0000 </r>
        <r>  0.0787  0.0527  0.0000  0.0000  0.0000  0.0000  0.0000  0.0000  0.0000 </r>
       </set>
       <set comment="band 7">
        <r>  0.0000  0.0000  0.1227  0.0439  0.0000  0.0000  0.0000  0.0000  0.0000 </r>
        <r>  0.0000  0.0000  0.0424  0.1242  0.0000  0.0000  0.0000  0.0000  0.0000 </r>
       </set>
       <set comment="band 8">
        <r>  0.0000  0.0000  0.0439  0.1227  0.0000  0.0000  0.0000  0.0000  0.0000 </r>
        <r>  0.0000  0.0000  0.1242  0.0424  0.0000  0.0000  0.0000  0.0000  0.0000 </r>
       </set>
      </set>
      <set comment="kpoint 57">
       <set comment="band 1">
        <r>  0.2097  0.0081  0.0000  0.0000  0.0000  0.0000  0.0000  0.0000  0.0000 </r>
        <r>  0.2097  0.0081  0.0000  0.0000  0.0000  0.0000  0.0000  0.0000  0.0000 </r>
       </set>
       <set comment="band 2">
        <r>  0.1395  0.1144  0.0000  0.0000  0.0000  0.0000  0.0000  0.0000  0.0000 </r>
        <r>  0.1395  0.1144  0.0000  0.0000  0.0000  0.0000  0.0000  0.0000  0.0000 </r>
       </set>
       <set comment="band 3">
        <r>  0.0000  0.0000  0.1001  0.1001  0.0000  0.0000  0.0000  0.0000  0.0000 </r>
        <r>  0.0000  0.0000  0.1001  0.1001  0.0000  0.0000  0.0000  0.0000  0.0000 </r>
       </set>
       <set comment="band 4">
        <r>  0.0000  0.0000  0.1001  0.1001  0.0000  0.0000  0.0000  0.0000  0.0000 </r>
        <r>  0.0000  0.0000  0.1001  0.1001  0.0000  0.0000  0.0000  0.0000  0.0000 </r>
       </set>
       <set comment="band 5">
        <r>  0.0363  0.0901  0.0000  0.0000  0.0000  0.0000  0.0000  0.0000  0.0000 </r>
        <r>  0.0363  0.0901  0.0000  0.0000  0.0000  0.0000  0.0000  0.0000  0.0000 </r>
       </set>
       <set comment="band 6">
        <r>  0.0676  0.0481  0.0000  0.0000  0.0000  0.0000  0.0000  0.0000  0.0000 </r>
        <r>  0.0676  0.0481  0.0000  0.0000  0.0000  0.0000  0.0000  0.0000  0.0000 </r>
       </set>
       <set comment="band 7">
        <r>  0.0000  0.0000  0.1140  0.0528  0.0000  0.0000  0.0000  0.0000  0.0000 </r>
        <r>  0.0000  0.0000  0.0516  0.1152  0.0000  0.0000  0.0000  0.0000  0.0000 </r>
       </set>
       <set comment="band 8">
        <r>  0.0000  0.0000  0.0528  0.1140  0.0000  0.0000  0.0000  0.0000  0.0000 </r>
        <r>  0.0000  0.0000  0.1152  0.0516  0.0000  0.0000  0.0000  0.0000  0.0000 </r>
       </set>
      </set>
      <set comment="kpoint 58">
       <set comment="band 1">
        <r>  0.2092  0.0091  0.0000  0.0000  0.0000  0.0000  0.0000  0.0000  0.0000 </r>
        <r>  0.2092  0.0091  0.0000  0.0000  0.0000  0.0000  0.0000  0.0000  0.0000 </r>
       </set>
       <set comment="band 2">
        <r>  0.1444  0.1102  0.0000  0.0000  0.0000  0.0000  0.0000  0.0000  0.0000 </r>
        <r>  0.1444  0.1102  0.0000  0.0000  0.0000  0.0000  0.0000  0.0000  0.0000 </r>
       </set>
       <set comment="band 3">
        <r>  0.0000  0.0000  0.0999  0.0999  0.0000  0.0000  0.0000  0.0000  0.0000 </r>
        <r>  0.0000  0.0000  0.0999  0.0999  0.0000  0.0000  0.0000  0.0000  0.0000 </r>
       </set>
       <set comment="band 4">
        <r>  0.0000  0.0000  0.0999  0.0999  0.0000  0.0000  0.0000  0.0000  0.0000 </r>
        <r>  0.0000  0.0000  0.0999  0.0999  0.0000  0.0000  0.0000  0.0000  0.0000 </r>
       </set>
       <set comment="band 5">
        <r>  0.0384  0.0862  0.0000  0.0000  0.0000  0.0000  0.0000  0.0000  0.0000 </r>
        <r>  0.0384  0.0862  0.0000  0.0000  0.0000  0.0000  0.0000  0.0000  0.0000 </r>
       </set>
       <set comment="band 6">
        <r>  0.0598  0.0444  0.0000  0.0000  0.0000  0.0000  0.0000  0.0000  0.0000 </r>
        <r>  0.0598  0.0444  0.0000  0.0000  0.0000  0.0000  0.0000  0.0000  0.0000 </r>
       </set>
       <set comment="band 7">
        <r>  0.0000  0.0000  0.0037  0.1631  0.0000  0.0000  0.0000  0.0000  0.0000 </r>
        <r>  0.0000  0.0000  0.1634  0.0034  0.0000  0.0000  0.0000  0.0000  0.0000 </r>
       </set>
       <set comment="band 8">
        <r>  0.0000  0.0000  0.1631  0.0037  0.0000  0.0000  0.0000  0.0000  0.0000 </r>
        <r>  0.0000  0.0000  0.0034  0.1634  0.0000  0.0000  0.0000  0.0000  0.0000 </r>
       </set>
      </set>
      <set comment="kpoint 59">
       <set comment="band 1">
        <r>  0.2087  0.0102  0.0000  0.0000  0.0000  0.0000  0.0000  0.0000  0.0000 </r>
        <r>  0.2087  0.0102  0.0000  0.0000  0.0000  0.0000  0.0000  0.0000  0.0000 </r>
       </set>
       <set comment="band 2">
        <r>  0.1489  0.1061  0.0000  0.0000  0.0000  0.0000  0.0000  0.0000  0.0000 </r>
        <r>  0.1489  0.1061  0.0000  0.0000  0.0000  0.0000  0.0000  0.0000  0.0000 </r>
       </set>
       <set comment="band 3">
        <r>  0.0000  0.0000  0.0998  0.0998  0.0000  0.0000  0.0000  0.0000  0.0000 </r>
        <r>  0.0000  0.0000  0.0998  0.0998  0.0000  0.0000  0.0000  0.0000  0.0000 </r>
       </set>
       <set comment="band 4">
        <r>  0.0000  0.0000  0.0998  0.0998  0.0000  0.0000  0.0000  0.0000  0.0000 </r>
        <r>  0.0000  0.0000  0.0998  0.0998  0.0000  0.0000  0.0000  0.0000  0.0000 </r>
       </set>
       <set comment="band 5">
        <r>  0.0403  0.0824  0.0000  0.0000  0.0000  0.0000  0.0000  0.0000  0.0000 </r>
        <r>  0.0403  0.0824  0.0000  0.0000  0.0000  0.0000  0.0000  0.0000  0.0000 </r>
       </set>
       <set comment="band 6">
        <r>  0.0543  0.0413  0.0000  0.0000  0.0000  0.0000  0.0000  0.0000  0.0000 </r>
        <r>  0.0543  0.0413  0.0000  0.0000  0.0000  0.0000  0.0000  0.0000  0.0000 </r>
       </set>
       <set comment="band 7">
        <r>  0.0000  0.0000  0.0723  0.0946  0.0000  0.0000  0.0000  0.0000  0.0000 </r>
        <r>  0.0000  0.0000  0.0882  0.0788  0.0000  0.0000  0.0000  0.0000  0.0000 </r>
       </set>
       <set comment="band 8">
        <r>  0.0000  0.0000  0.0946  0.0723  0.0000  0.0000  0.0000  0.0000  0.0000 </r>
        <r>  0.0000  0.0000  0.0787  0.0882  0.0000  0.0000  0.0000  0.0000  0.0000 </r>
       </set>
      </set>
      <set comment="kpoint 60">
       <set comment="band 1">
        <r>  0.2082  0.0113  0.0000  0.0000  0.0000  0.0000  0.0000  0.0000  0.0000 </r>
        <r>  0.2082  0.0113  0.0000  0.0000  0.0000  0.0000  0.0000  0.0000  0.0000 </r>
       </set>
       <set comment="band 2">
        <r>  0.1531  0.1023  0.0000  0.0000  0.0000  0.0000  0.0000  0.0000  0.0000 </r>
        <r>  0.1531  0.1023  0.0000  0.0000  0.0000  0.0000  0.0000  0.0000  0.0000 </r>
       </set>
       <set comment="band 3">
        <r>  0.0000  0.0000  0.0996  0.0996  0.0000  0.0000  0.0000  0.0000  0.0000 </r>
        <r>  0.0000  0.0000  0.0996  0.0996  0.0000  0.0000  0.0000  0.0000  0.0000 </r>
       </set>
       <set comment="band 4">
        <r>  0.0000  0.0000  0.0996  0.0996  0.0000  0.0000  0.0000  0.0000  0.0000 </r>
        <r>  0.0000  0.0000  0.0996  0.0996  0.0000  0.0000  0.0000  0.0000  0.0000 </r>
       </set>
       <set comment="band 5">
        <r>  0.0421  0.0788  0.0000  0.0000  0.0000  0.0000  0.0000  0.0000  0.0000 </r>
        <r>  0.0421  0.0788  0.0000  0.0000  0.0000  0.0000  0.0000  0.0000  0.0000 </r>
       </set>
       <set comment="band 6">
        <r>  0.0504  0.0389  0.0000  0.0000  0.0000  0.0000  0.0000  0.0000  0.0000 </r>
        <r>  0.0504  0.0389  0.0000  0.0000  0.0000  0.0000  0.0000  0.0000  0.0000 </r>
       </set>
       <set comment="band 7">
        <r>  0.0000  0.0000  0.1103  0.0565  0.0000  0.0000  0.0000  0.0000  0.0000 </r>
        <r>  0.0000  0.0000  0.0606  0.1063  0.0000  0.0000  0.0000  0.0000  0.0000 </r>
       </set>
       <set comment="band 8">
        <r>  0.0000  0.0000  0.0565  0.1103  0.0000  0.0000  0.0000  0.0000  0.0000 </r>
        <r>  0.0000  0.0000  0.1063  0.0606  0.0000  0.0000  0.0000  0.0000  0.0000 </r>
       </set>
      </set>
      <set comment="kpoint 61">
       <set comment="band 1">
        <r>  0.2077  0.0125  0.0000  0.0000  0.0000  0.0000  0.0000  0.0000  0.0000 </r>
        <r>  0.2077  0.0125  0.0000  0.0000  0.0000  0.0000  0.0000  0.0000  0.0000 </r>
       </set>
       <set comment="band 2">
        <r>  0.1569  0.0986  0.0000  0.0000  0.0000  0.0000  0.0000  0.0000  0.0000 </r>
        <r>  0.1569  0.0986  0.0000  0.0000  0.0000  0.0000  0.0000  0.0000  0.0000 </r>
       </set>
       <set comment="band 3">
        <r>  0.0000  0.0000  0.0995  0.0995  0.0000  0.0000  0.0000  0.0000  0.0000 </r>
        <r>  0.0000  0.0000  0.0995  0.0995  0.0000  0.0000  0.0000  0.0000  0.0000 </r>
       </set>
       <set comment="band 4">
        <r>  0.0000  0.0000  0.0995  0.0995  0.0000  0.0000  0.0000  0.0000  0.0000 </r>
        <r>  0.0000  0.0000  0.0995  0.0995  0.0000  0.0000  0.0000  0.0000  0.0000 </r>
       </set>
       <set comment="band 5">
        <r>  0.0437  0.0753  0.0000  0.0000  0.0000  0.0000  0.0000  0.0000  0.0000 </r>
        <r>  0.0437  0.0753  0.0000  0.0000  0.0000  0.0000  0.0000  0.0000  0.0000 </r>
       </set>
       <set comment="band 6">
        <r>  0.0477  0.0369  0.0000  0.0000  0.0000  0.0000  0.0000  0.0000  0.0000 </r>
        <r>  0.0477  0.0369  0.0000  0.0000  0.0000  0.0000  0.0000  0.0000  0.0000 </r>
       </set>
       <set comment="band 7">
        <r>  0.0000  0.0000  0.0940  0.0726  0.0000  0.0000  0.0000  0.0000  0.0000 </r>
        <r>  0.0000  0.0000  0.0831  0.0836  0.0000  0.0000  0.0000  0.0000  0.0000 </r>
       </set>
       <set comment="band 8">
        <r>  0.0000  0.0000  0.0726  0.0940  0.0000  0.0000  0.0000  0.0000  0.0000 </r>
        <r>  0.0000  0.0000  0.0836  0.0831  0.0000  0.0000  0.0000  0.0000  0.0000 </r>
       </set>
      </set>
      <set comment="kpoint 62">
       <set comment="band 1">
        <r>  0.2071  0.0138  0.0000  0.0000  0.0000  0.0000  0.0000  0.0000  0.0000 </r>
        <r>  0.2071  0.0138  0.0000  0.0000  0.0000  0.0000  0.0000  0.0000  0.0000 </r>
       </set>
       <set comment="band 2">
        <r>  0.1604  0.0951  0.0000  0.0000  0.0000  0.0000  0.0000  0.0000  0.0000 </r>
        <r>  0.1604  0.0951  0.0000  0.0000  0.0000  0.0000  0.0000  0.0000  0.0000 </r>
       </set>
       <set comment="band 3">
        <r>  0.0000  0.0000  0.0994  0.0994  0.0000  0.0000  0.0000  0.0000  0.0000 </r>
        <r>  0.0000  0.0000  0.0994  0.0994  0.0000  0.0000  0.0000  0.0000  0.0000 </r>
       </set>
       <set comment="band 4">
        <r>  0.0000  0.0000  0.0994  0.0994  0.0000  0.0000  0.0000  0.0000  0.0000 </r>
        <r>  0.0000  0.0000  0.0994  0.0994  0.0000  0.0000  0.0000  0.0000  0.0000 </r>
       </set>
       <set comment="band 5">
        <r>  0.0451  0.0721  0.0000  0.0000  0.0000  0.0000  0.0000  0.0000  0.0000 </r>
        <r>  0.0451  0.0721  0.0000  0.0000  0.0000  0.0000  0.0000  0.0000  0.0000 </r>
       </set>
       <set comment="band 6">
        <r>  0.0459  0.0353  0.0000  0.0000  0.0000  0.0000  0.0000  0.0000  0.0000 </r>
        <r>  0.0459  0.0353  0.0000  0.0000  0.0000  0.0000  0.0000  0.0000  0.0000 </r>
       </set>
       <set comment="band 7">
        <r>  0.0000  0.0000  0.0286  0.1380  0.0000  0.0000  0.0000  0.0000  0.0000 </r>
        <r>  0.0000  0.0000  0.1463  0.0203  0.0000  0.0000  0.0000  0.0000  0.0000 </r>
       </set>
       <set comment="band 8">
        <r>  0.0000  0.0000  0.1380  0.0286  0.0000  0.0000  0.0000  0.0000  0.0000 </r>
        <r>  0.0000  0.0000  0.0203  0.1462  0.0000  0.0000  0.0000  0.0000  0.0000 </r>
       </set>
      </set>
      <set comment="kpoint 63">
       <set comment="band 1">
        <r>  0.2066  0.0151  0.0000  0.0000  0.0000  0.0000  0.0000  0.0000  0.0000 </r>
        <r>  0.2066  0.0151  0.0000  0.0000  0.0000  0.0000  0.0000  0.0000  0.0000 </r>
       </set>
       <set comment="band 2">
        <r>  0.1636  0.0917  0.0000  0.0000  0.0000  0.0000  0.0000  0.0000  0.0000 </r>
        <r>  0.1636  0.0917  0.0000  0.0000  0.0000  0.0000  0.0000  0.0000  0.0000 </r>
       </set>
       <set comment="band 3">
        <r>  0.0000  0.0000  0.0993  0.0994  0.0000  0.0000  0.0000  0.0000  0.0000 </r>
        <r>  0.0000  0.0000  0.0993  0.0994  0.0000  0.0000  0.0000  0.0000  0.0000 </r>
       </set>
       <set comment="band 4">
        <r>  0.0000  0.0000  0.0994  0.0993  0.0000  0.0000  0.0000  0.0000  0.0000 </r>
        <r>  0.0000  0.0000  0.0994  0.0993  0.0000  0.0000  0.0000  0.0000  0.0000 </r>
       </set>
       <set comment="band 5">
        <r>  0.0465  0.0690  0.0000  0.0000  0.0000  0.0000  0.0000  0.0000  0.0000 </r>
        <r>  0.0465  0.0690  0.0000  0.0000  0.0000  0.0000  0.0000  0.0000  0.0000 </r>
       </set>
       <set comment="band 6">
        <r>  0.0447  0.0340  0.0000  0.0000  0.0000  0.0000  0.0000  0.0000  0.0000 </r>
        <r>  0.0447  0.0340  0.0000  0.0000  0.0000  0.0000  0.0000  0.0000  0.0000 </r>
       </set>
       <set comment="band 7">
        <r>  0.0000  0.0000  0.0814  0.0849  0.0000  0.0000  0.0000  0.0000  0.0000 </r>
        <r>  0.0000  0.0000  0.0802  0.0861  0.0000  0.0000  0.0000  0.0000  0.0000 </r>
       </set>
       <set comment="band 8">
        <r>  0.0000  0.0000  0.0849  0.0814  0.0000  0.0000  0.0000  0.0000  0.0000 </r>
        <r>  0.0000  0.0000  0.0861  0.0802  0.0000  0.0000  0.0000  0.0000  0.0000 </r>
       </set>
      </set>
      <set comment="kpoint 64">
       <set comment="band 1">
        <r>  0.2060  0.0165  0.0000  0.0000  0.0000  0.0000  0.0000  0.0000  0.0000 </r>
        <r>  0.2060  0.0165  0.0000  0.0000  0.0000  0.0000  0.0000  0.0000  0.0000 </r>
       </set>
       <set comment="band 2">
        <r>  0.1666  0.0884  0.0000  0.0000  0.0000  0.0000  0.0000  0.0000  0.0000 </r>
        <r>  0.1666  0.0884  0.0000  0.0000  0.0000  0.0000  0.0000  0.0000  0.0000 </r>
       </set>
       <set comment="band 3">
        <r>  0.0000  0.0000  0.0993  0.0993  0.0000  0.0000  0.0000  0.0000  0.0000 </r>
        <r>  0.0000  0.0000  0.0993  0.0993  0.0000  0.0000  0.0000  0.0000  0.0000 </r>
       </set>
       <set comment="band 4">
        <r>  0.0000  0.0000  0.0993  0.0993  0.0000  0.0000  0.0000  0.0000  0.0000 </r>
        <r>  0.0000  0.0000  0.0993  0.0993  0.0000  0.0000  0.0000  0.0000  0.0000 </r>
       </set>
       <set comment="band 5">
        <r>  0.0477  0.0659  0.0000  0.0000  0.0000  0.0000  0.0000  0.0000  0.0000 </r>
        <r>  0.0477  0.0659  0.0000  0.0000  0.0000  0.0000  0.0000  0.0000  0.0000 </r>
       </set>
       <set comment="band 6">
        <r>  0.0440  0.0329  0.0000  0.0000  0.0000  0.0000  0.0000  0.0000  0.0000 </r>
        <r>  0.0440  0.0329  0.0000  0.0000  0.0000  0.0000  0.0000  0.0000  0.0000 </r>
       </set>
       <set comment="band 7">
        <r>  0.0000  0.0000  0.0443  0.1220  0.0000  0.0000  0.0000  0.0000  0.0000 </r>
        <r>  0.0000  0.0000  0.1276  0.0387  0.0000  0.0000  0.0000  0.0000  0.0000 </r>
       </set>
       <set comment="band 8">
        <r>  0.0000  0.0000  0.1220  0.0443  0.0000  0.0000  0.0000  0.0000  0.0000 </r>
        <r>  0.0000  0.0000  0.0387  0.1276  0.0000  0.0000  0.0000  0.0000  0.0000 </r>
       </set>
      </set>
      <set comment="kpoint 65">
       <set comment="band 1">
        <r>  0.2053  0.0179  0.0000  0.0000  0.0000  0.0000  0.0000  0.0000  0.0000 </r>
        <r>  0.2053  0.0179  0.0000  0.0000  0.0000  0.0000  0.0000  0.0000  0.0000 </r>
       </set>
       <set comment="band 2">
        <r>  0.1693  0.0852  0.0000  0.0000  0.0000  0.0000  0.0000  0.0000  0.0000 </r>
        <r>  0.1693  0.0852  0.0000  0.0000  0.0000  0.0000  0.0000  0.0000  0.0000 </r>
       </set>
       <set comment="band 3">
        <r>  0.0000  0.0000  0.0992  0.0992  0.0000  0.0000  0.0000  0.0000  0.0000 </r>
        <r>  0.0000  0.0000  0.0992  0.0992  0.0000  0.0000  0.0000  0.0000  0.0000 </r>
       </set>
       <set comment="band 4">
        <r>  0.0000  0.0000  0.0992  0.0992  0.0000  0.0000  0.0000  0.0000  0.0000 </r>
        <r>  0.0000  0.0000  0.0992  0.0992  0.0000  0.0000  0.0000  0.0000  0.0000 </r>
       </set>
       <set comment="band 5">
        <r>  0.0488  0.0631  0.0000  0.0000  0.0000  0.0000  0.0000  0.0000  0.0000 </r>
        <r>  0.0488  0.0631  0.0000  0.0000  0.0000  0.0000  0.0000  0.0000  0.0000 </r>
       </set>
       <set comment="band 6">
        <r>  0.0437  0.0321  0.0000  0.0000  0.0000  0.0000  0.0000  0.0000  0.0000 </r>
        <r>  0.0437  0.0321  0.0000  0.0000  0.0000  0.0000  0.0000  0.0000  0.0000 </r>
       </set>
       <set comment="band 7">
        <r>  0.0000  0.0000  0.0886  0.0774  0.0000  0.0000  0.0000  0.0000  0.0000 </r>
        <r>  0.0000  0.0000  0.0817  0.0843  0.0000  0.0000  0.0000  0.0000  0.0000 </r>
       </set>
       <set comment="band 8">
        <r>  0.0000  0.0000  0.0774  0.0886  0.0000  0.0000  0.0000  0.0000  0.0000 </r>
        <r>  0.0000  0.0000  0.0843  0.0818  0.0000  0.0000  0.0000  0.0000  0.0000 </r>
       </set>
      </set>
      <set comment="kpoint 66">
       <set comment="band 1">
        <r>  0.2047  0.0194  0.0000  0.0000  0.0000  0.0000  0.0000  0.0000  0.0000 </r>
        <r>  0.2047  0.0194  0.0000  0.0000  0.0000  0.0000  0.0000  0.0000  0.0000 </r>
       </set>
       <set comment="band 2">
        <r>  0.1718  0.0821  0.0000  0.0000  0.0000  0.0000  0.0000  0.0000  0.0000 </r>
        <r>  0.1718  0.0821  0.0000  0.0000  0.0000  0.0000  0.0000  0.0000  0.0000 </r>
       </set>
       <set comment="band 3">
        <r>  0.0000  0.0000  0.0992  0.0992  0.0000  0.0000  0.0000  0.0000  0.0000 </r>
        <r>  0.0000  0.0000  0.0992  0.0992  0.0000  0.0000  0.0000  0.0000  0.0000 </r>
       </set>
       <set comment="band 4">
        <r>  0.0000  0.0000  0.0992  0.0992  0.0000  0.0000  0.0000  0.0000  0.0000 </r>
        <r>  0.0000  0.0000  0.0992  0.0992  0.0000  0.0000  0.0000  0.0000  0.0000 </r>
       </set>
       <set comment="band 5">
        <r>  0.0498  0.0604  0.0000  0.0000  0.0000  0.0000  0.0000  0.0000  0.0000 </r>
        <r>  0.0498  0.0604  0.0000  0.0000  0.0000  0.0000  0.0000  0.0000  0.0000 </r>
       </set>
       <set comment="band 6">
        <r>  0.0436  0.0314  0.0000  0.0000  0.0000  0.0000  0.0000  0.0000  0.0000 </r>
        <r>  0.0436  0.0314  0.0000  0.0000  0.0000  0.0000  0.0000  0.0000  0.0000 </r>
       </set>
       <set comment="band 7">
        <r>  0.0000  0.0000  0.1334  0.0323  0.0000  0.0000  0.0000  0.0000  0.0000 </r>
        <r>  0.0000  0.0000  0.0400  0.1257  0.0000  0.0000  0.0000  0.0000  0.0000 </r>
       </set>
       <set comment="band 8">
        <r>  0.0000  0.0000  0.0323  0.1334  0.0000  0.0000  0.0000  0.0000  0.0000 </r>
        <r>  0.0000  0.0000  0.1256  0.0400  0.0000  0.0000  0.0000  0.0000  0.0000 </r>
       </set>
      </set>
      <set comment="kpoint 67">
       <set comment="band 1">
        <r>  0.2040  0.0209  0.0000  0.0000  0.0000  0.0000  0.0000  0.0000  0.0000 </r>
        <r>  0.2040  0.0209  0.0000  0.0000  0.0000  0.0000  0.0000  0.0000  0.0000 </r>
       </set>
       <set comment="band 2">
        <r>  0.1742  0.0791  0.0000  0.0000  0.0000  0.0000  0.0000  0.0000  0.0000 </r>
        <r>  0.1742  0.0791  0.0000  0.0000  0.0000  0.0000  0.0000  0.0000  0.0000 </r>
       </set>
       <set comment="band 3">
        <r>  0.0000  0.0000  0.0992  0.0992  0.0000  0.0000  0.0000  0.0000  0.0000 </r>
        <r>  0.0000  0.0000  0.0992  0.0992  0.0000  0.0000  0.0000  0.0000  0.0000 </r>
       </set>
       <set comment="band 4">
        <r>  0.0000  0.0000  0.0992  0.0992  0.0000  0.0000  0.0000  0.0000  0.0000 </r>
        <r>  0.0000  0.0000  0.0992  0.0992  0.0000  0.0000  0.0000  0.0000  0.0000 </r>
       </set>
       <set comment="band 5">
        <r>  0.0507  0.0578  0.0000  0.0000  0.0000  0.0000  0.0000  0.0000  0.0000 </r>
        <r>  0.0507  0.0578  0.0000  0.0000  0.0000  0.0000  0.0000  0.0000  0.0000 </r>
       </set>
       <set comment="band 6">
        <r>  0.0438  0.0308  0.0000  0.0000  0.0000  0.0000  0.0000  0.0000  0.0000 </r>
        <r>  0.0438  0.0308  0.0000  0.0000  0.0000  0.0000  0.0000  0.0000  0.0000 </r>
       </set>
       <set comment="band 7">
        <r>  0.0000  0.0000  0.1242  0.0411  0.0000  0.0000  0.0000  0.0000  0.0000 </r>
        <r>  0.0000  0.0000  0.0762  0.0891  0.0000  0.0000  0.0000  0.0000  0.0000 </r>
       </set>
       <set comment="band 8">
        <r>  0.0000  0.0000  0.0411  0.1241  0.0000  0.0000  0.0000  0.0000  0.0000 </r>
        <r>  0.0000  0.0000  0.0891  0.0763  0.0000  0.0000  0.0000  0.0000  0.0000 </r>
       </set>
      </set>
      <set comment="kpoint 68">
       <set comment="band 1">
        <r>  0.2033  0.0225  0.0000  0.0000  0.0000  0.0000  0.0000  0.0000  0.0000 </r>
        <r>  0.2033  0.0225  0.0000  0.0000  0.0000  0.0000  0.0000  0.0000  0.0000 </r>
       </set>
       <set comment="band 2">
        <r>  0.1763  0.0762  0.0000  0.0000  0.0000  0.0000  0.0000  0.0000  0.0000 </r>
        <r>  0.1763  0.0762  0.0000  0.0000  0.0000  0.0000  0.0000  0.0000  0.0000 </r>
       </set>
       <set comment="band 3">
        <r>  0.0000  0.0000  0.0992  0.0992  0.0000  0.0000  0.0000  0.0000  0.0000 </r>
        <r>  0.0000  0.0000  0.0992  0.0992  0.0000  0.0000  0.0000  0.0000  0.0000 </r>
       </set>
       <set comment="band 4">
        <r>  0.0000  0.0000  0.0992  0.0992  0.0000  0.0000  0.0000  0.0000  0.0000 </r>
        <r>  0.0000  0.0000  0.0992  0.0992  0.0000  0.0000  0.0000  0.0000  0.0000 </r>
       </set>
       <set comment="band 5">
        <r>  0.0514  0.0553  0.0000  0.0000  0.0000  0.0000  0.0000  0.0000  0.0000 </r>
        <r>  0.0514  0.0553  0.0000  0.0000  0.0000  0.0000  0.0000  0.0000  0.0000 </r>
       </set>
       <set comment="band 6">
        <r>  0.0441  0.0304  0.0000  0.0000  0.0000  0.0000  0.0000  0.0000  0.0000 </r>
        <r>  0.0441  0.0304  0.0000  0.0000  0.0000  0.0000  0.0000  0.0000  0.0000 </r>
       </set>
       <set comment="band 7">
        <r>  0.0000  0.0000  0.0946  0.0705  0.0000  0.0000  0.0000  0.0000  0.0000 </r>
        <r>  0.0000  0.0000  0.0332  0.1318  0.0000  0.0000  0.0000  0.0000  0.0000 </r>
       </set>
       <set comment="band 8">
        <r>  0.0000  0.0000  0.0705  0.0946  0.0000  0.0000  0.0000  0.0000  0.0000 </r>
        <r>  0.0000  0.0000  0.1318  0.0333  0.0000  0.0000  0.0000  0.0000  0.0000 </r>
       </set>
      </set>
      <set comment="kpoint 69">
       <set comment="band 1">
        <r>  0.2026  0.0242  0.0000  0.0000  0.0000  0.0000  0.0000  0.0000  0.0000 </r>
        <r>  0.2026  0.0242  0.0000  0.0000  0.0000  0.0000  0.0000  0.0000  0.0000 </r>
       </set>
       <set comment="band 2">
        <r>  0.1783  0.0733  0.0000  0.0000  0.0000  0.0000  0.0000  0.0000  0.0000 </r>
        <r>  0.1783  0.0733  0.0000  0.0000  0.0000  0.0000  0.0000  0.0000  0.0000 </r>
       </set>
       <set comment="band 3">
        <r>  0.0000  0.0000  0.0991  0.0991  0.0000  0.0000  0.0000  0.0000  0.0000 </r>
        <r>  0.0000  0.0000  0.0991  0.0991  0.0000  0.0000  0.0000  0.0000  0.0000 </r>
       </set>
       <set comment="band 4">
        <r>  0.0000  0.0000  0.0991  0.0991  0.0000  0.0000  0.0000  0.0000  0.0000 </r>
        <r>  0.0000  0.0000  0.0991  0.0991  0.0000  0.0000  0.0000  0.0000  0.0000 </r>
       </set>
       <set comment="band 5">
        <r>  0.0520  0.0530  0.0000  0.0000  0.0000  0.0000  0.0000  0.0000  0.0000 </r>
        <r>  0.0520  0.0530  0.0000  0.0000  0.0000  0.0000  0.0000  0.0000  0.0000 </r>
       </set>
       <set comment="band 6">
        <r>  0.0446  0.0302  0.0000  0.0000  0.0000  0.0000  0.0000  0.0000  0.0000 </r>
        <r>  0.0446  0.0302  0.0000  0.0000  0.0000  0.0000  0.0000  0.0000  0.0000 </r>
       </set>
       <set comment="band 7">
        <r>  0.0000  0.0000  0.0966  0.0683  0.0000  0.0000  0.0000  0.0000  0.0000 </r>
        <r>  0.0000  0.0000  0.0648  0.1001  0.0000  0.0000  0.0000  0.0000  0.0000 </r>
       </set>
       <set comment="band 8">
        <r>  0.0000  0.0000  0.0683  0.0967  0.0000  0.0000  0.0000  0.0000  0.0000 </r>
        <r>  0.0000  0.0000  0.1001  0.0648  0.0000  0.0000  0.0000  0.0000  0.0000 </r>
       </set>
      </set>
      <set comment="kpoint 70">
       <set comment="band 1">
        <r>  0.2019  0.0259  0.0000  0.0000  0.0000  0.0000  0.0000  0.0000  0.0000 </r>
        <r>  0.2019  0.0259  0.0000  0.0000  0.0000  0.0000  0.0000  0.0000  0.0000 </r>
       </set>
       <set comment="band 2">
        <r>  0.1801  0.0705  0.0000  0.0000  0.0000  0.0000  0.0000  0.0000  0.0000 </r>
        <r>  0.1801  0.0705  0.0000  0.0000  0.0000  0.0000  0.0000  0.0000  0.0000 </r>
       </set>
       <set comment="band 3">
        <r>  0.0000  0.0000  0.0991  0.0991  0.0000  0.0000  0.0000  0.0000  0.0000 </r>
        <r>  0.0000  0.0000  0.0991  0.0991  0.0000  0.0000  0.0000  0.0000  0.0000 </r>
       </set>
       <set comment="band 4">
        <r>  0.0000  0.0000  0.0991  0.0991  0.0000  0.0000  0.0000  0.0000  0.0000 </r>
        <r>  0.0000  0.0000  0.0991  0.0991  0.0000  0.0000  0.0000  0.0000  0.0000 </r>
       </set>
       <set comment="band 5">
        <r>  0.0525  0.0508  0.0000  0.0000  0.0000  0.0000  0.0000  0.0000  0.0000 </r>
        <r>  0.0525  0.0508  0.0000  0.0000  0.0000  0.0000  0.0000  0.0000  0.0000 </r>
       </set>
       <set comment="band 6">
        <r>  0.0451  0.0301  0.0000  0.0000  0.0000  0.0000  0.0000  0.0000  0.0000 </r>
        <r>  0.0451  0.0301  0.0000  0.0000  0.0000  0.0000  0.0000  0.0000  0.0000 </r>
       </set>
       <set comment="band 7">
        <r>  0.0000  0.0000  0.1316  0.0336  0.0000  0.0000  0.0000  0.0000  0.0000 </r>
        <r>  0.0000  0.0000  0.0606  0.1046  0.0000  0.0000  0.0000  0.0000  0.0000 </r>
       </set>
       <set comment="band 8">
        <r>  0.0000  0.0000  0.0336  0.1316  0.0000  0.0000  0.0000  0.0000  0.0000 </r>
        <r>  0.0000  0.0000  0.1046  0.0606  0.0000  0.0000  0.0000  0.0000  0.0000 </r>
       </set>
      </set>
      <set comment="kpoint 71">
       <set comment="band 1">
        <r>  0.2012  0.0276  0.0000  0.0000  0.0000  0.0000  0.0000  0.0000  0.0000 </r>
        <r>  0.2012  0.0276  0.0000  0.0000  0.0000  0.0000  0.0000  0.0000  0.0000 </r>
       </set>
       <set comment="band 2">
        <r>  0.1819  0.0678  0.0000  0.0000  0.0000  0.0000  0.0000  0.0000  0.0000 </r>
        <r>  0.1819  0.0678  0.0000  0.0000  0.0000  0.0000  0.0000  0.0000  0.0000 </r>
       </set>
       <set comment="band 3">
        <r>  0.0000  0.0000  0.0991  0.0991  0.0000  0.0000  0.0000  0.0000  0.0000 </r>
        <r>  0.0000  0.0000  0.0991  0.0991  0.0000  0.0000  0.0000  0.0000  0.0000 </r>
       </set>
       <set comment="band 4">
        <r>  0.0000  0.0000  0.0991  0.0991  0.0000  0.0000  0.0000  0.0000  0.0000 </r>
        <r>  0.0000  0.0000  0.0991  0.0991  0.0000  0.0000  0.0000  0.0000  0.0000 </r>
       </set>
       <set comment="band 5">
        <r>  0.0528  0.0487  0.0000  0.0000  0.0000  0.0000  0.0000  0.0000  0.0000 </r>
        <r>  0.0528  0.0487  0.0000  0.0000  0.0000  0.0000  0.0000  0.0000  0.0000 </r>
       </set>
       <set comment="band 6">
        <r>  0.0458  0.0301  0.0000  0.0000  0.0000  0.0000  0.0000  0.0000  0.0000 </r>
        <r>  0.0458  0.0301  0.0000  0.0000  0.0000  0.0000  0.0000  0.0000  0.0000 </r>
       </set>
       <set comment="band 7">
        <r>  0.0000  0.0000  0.1633  0.0024  0.0000  0.0000  0.0000  0.0000  0.0000 </r>
        <r>  0.0000  0.0000  0.0095  0.1561  0.0000  0.0000  0.0000  0.0000  0.0000 </r>
       </set>
       <set comment="band 8">
        <r>  0.0000  0.0000  0.0024  0.1631  0.0000  0.0000  0.0000  0.0000  0.0000 </r>
        <r>  0.0000  0.0000  0.1560  0.0096  0.0000  0.0000  0.0000  0.0000  0.0000 </r>
       </set>
      </set>
      <set comment="kpoint 72">
       <set comment="band 1">
        <r>  0.2004  0.0295  0.0000  0.0000  0.0000  0.0000  0.0000  0.0000  0.0000 </r>
        <r>  0.2004  0.0295  0.0000  0.0000  0.0000  0.0000  0.0000  0.0000  0.0000 </r>
       </set>
       <set comment="band 2">
        <r>  0.1835  0.0651  0.0000  0.0000  0.0000  0.0000  0.0000  0.0000  0.0000 </r>
        <r>  0.1835  0.0651  0.0000  0.0000  0.0000  0.0000  0.0000  0.0000  0.0000 </r>
       </set>
       <set comment="band 3">
        <r>  0.0000  0.0000  0.0990  0.0991  0.0000  0.0000  0.0000  0.0000  0.0000 </r>
        <r>  0.0000  0.0000  0.0990  0.0991  0.0000  0.0000  0.0000  0.0000  0.0000 </r>
       </set>
       <set comment="band 4">
        <r>  0.0000  0.0000  0.0991  0.0990  0.0000  0.0000  0.0000  0.0000  0.0000 </r>
        <r>  0.0000  0.0000  0.0991  0.0990  0.0000  0.0000  0.0000  0.0000  0.0000 </r>
       </set>
       <set comment="band 5">
        <r>  0.0531  0.0468  0.0000  0.0000  0.0000  0.0000  0.0000  0.0000  0.0000 </r>
        <r>  0.0531  0.0468  0.0000  0.0000  0.0000  0.0000  0.0000  0.0000  0.0000 </r>
       </set>
       <set comment="band 6">
        <r>  0.0464  0.0302  0.0000  0.0000  0.0000  0.0000  0.0000  0.0000  0.0000 </r>
        <r>  0.0464  0.0302  0.0000  0.0000  0.0000  0.0000  0.0000  0.0000  0.0000 </r>
       </set>
       <set comment="band 7">
        <r>  0.0000  0.0000  0.0767  0.0896  0.0000  0.0000  0.0000  0.0000  0.0000 </r>
        <r>  0.0000  0.0000  0.0844  0.0819  0.0000  0.0000  0.0000  0.0000  0.0000 </r>
       </set>
       <set comment="band 8">
        <r>  0.0000  0.0000  0.0895  0.0768  0.0000  0.0000  0.0000  0.0000  0.0000 </r>
        <r>  0.0000  0.0000  0.0819  0.0843  0.0000  0.0000  0.0000  0.0000  0.0000 </r>
       </set>
      </set>
      <set comment="kpoint 73">
       <set comment="band 1">
        <r>  0.1996  0.0313  0.0000  0.0000  0.0000  0.0000  0.0000  0.0000  0.0000 </r>
        <r>  0.1996  0.0313  0.0000  0.0000  0.0000  0.0000  0.0000  0.0000  0.0000 </r>
       </set>
       <set comment="band 2">
        <r>  0.1850  0.0625  0.0000  0.0000  0.0000  0.0000  0.0000  0.0000  0.0000 </r>
        <r>  0.1850  0.0625  0.0000  0.0000  0.0000  0.0000  0.0000  0.0000  0.0000 </r>
       </set>
       <set comment="band 3">
        <r>  0.0000  0.0000  0.0990  0.0990  0.0000  0.0000  0.0000  0.0000  0.0000 </r>
        <r>  0.0000  0.0000  0.0990  0.0990  0.0000  0.0000  0.0000  0.0000  0.0000 </r>
       </set>
       <set comment="band 4">
        <r>  0.0000  0.0000  0.0990  0.0990  0.0000  0.0000  0.0000  0.0000  0.0000 </r>
        <r>  0.0000  0.0000  0.0990  0.0990  0.0000  0.0000  0.0000  0.0000  0.0000 </r>
       </set>
       <set comment="band 5">
        <r>  0.0533  0.0450  0.0000  0.0000  0.0000  0.0000  0.0000  0.0000  0.0000 </r>
        <r>  0.0533  0.0450  0.0000  0.0000  0.0000  0.0000  0.0000  0.0000  0.0000 </r>
       </set>
       <set comment="band 6">
        <r>  0.0472  0.0305  0.0000  0.0000  0.0000  0.0000  0.0000  0.0000  0.0000 </r>
        <r>  0.0472  0.0305  0.0000  0.0000  0.0000  0.0000  0.0000  0.0000  0.0000 </r>
       </set>
       <set comment="band 7">
        <r>  0.0000  0.0000  0.0514  0.1161  0.0000  0.0000  0.0000  0.0000  0.0000 </r>
        <r>  0.0000  0.0000  0.1305  0.0370  0.0000  0.0000  0.0000  0.0000  0.0000 </r>
       </set>
       <set comment="band 8">
        <r>  0.0000  0.0000  0.1162  0.0513  0.0000  0.0000  0.0000  0.0000  0.0000 </r>
        <r>  0.0000  0.0000  0.0370  0.1305  0.0000  0.0000  0.0000  0.0000  0.0000 </r>
       </set>
      </set>
      <set comment="kpoint 74">
       <set comment="band 1">
        <r>  0.1988  0.0332  0.0000  0.0000  0.0000  0.0000  0.0000  0.0000  0.0000 </r>
        <r>  0.1988  0.0332  0.0000  0.0000  0.0000  0.0000  0.0000  0.0000  0.0000 </r>
       </set>
       <set comment="band 2">
        <r>  0.1864  0.0599  0.0000  0.0000  0.0000  0.0000  0.0000  0.0000  0.0000 </r>
        <r>  0.1864  0.0599  0.0000  0.0000  0.0000  0.0000  0.0000  0.0000  0.0000 </r>
       </set>
       <set comment="band 3">
        <r>  0.0000  0.0000  0.0990  0.0990  0.0000  0.0000  0.0000  0.0000  0.0000 </r>
        <r>  0.0000  0.0000  0.0990  0.0990  0.0000  0.0000  0.0000  0.0000  0.0000 </r>
       </set>
       <set comment="band 4">
        <r>  0.0000  0.0000  0.0990  0.0990  0.0000  0.0000  0.0000  0.0000  0.0000 </r>
        <r>  0.0000  0.0000  0.0990  0.0990  0.0000  0.0000  0.0000  0.0000  0.0000 </r>
       </set>
       <set comment="band 5">
        <r>  0.0533  0.0432  0.0000  0.0000  0.0000  0.0000  0.0000  0.0000  0.0000 </r>
        <r>  0.0533  0.0432  0.0000  0.0000  0.0000  0.0000  0.0000  0.0000  0.0000 </r>
       </set>
       <set comment="band 6">
        <r>  0.0479  0.0307  0.0000  0.0000  0.0000  0.0000  0.0000  0.0000  0.0000 </r>
        <r>  0.0479  0.0307  0.0000  0.0000  0.0000  0.0000  0.0000  0.0000  0.0000 </r>
       </set>
       <set comment="band 7">
        <r>  0.0000  0.0000  0.0608  0.1091  0.0000  0.0000  0.0000  0.0000  0.0000 </r>
        <r>  0.0000  0.0000  0.0797  0.0901  0.0000  0.0000  0.0000  0.0000  0.0000 </r>
       </set>
       <set comment="band 8">
        <r>  0.0000  0.0000  0.1090  0.0608  0.0000  0.0000  0.0000  0.0000  0.0000 </r>
        <r>  0.0000  0.0000  0.0902  0.0796  0.0000  0.0000  0.0000  0.0000  0.0000 </r>
       </set>
      </set>
      <set comment="kpoint 75">
       <set comment="band 1">
        <r>  0.1980  0.0352  0.0000  0.0000  0.0000  0.0000  0.0000  0.0000  0.0000 </r>
        <r>  0.1980  0.0352  0.0000  0.0000  0.0000  0.0000  0.0000  0.0000  0.0000 </r>
       </set>
       <set comment="band 2">
        <r>  0.1877  0.0574  0.0000  0.0000  0.0000  0.0000  0.0000  0.0000  0.0000 </r>
        <r>  0.1877  0.0574  0.0000  0.0000  0.0000  0.0000  0.0000  0.0000  0.0000 </r>
       </set>
       <set comment="band 3">
        <r>  0.0000  0.0000  0.0990  0.0990  0.0000  0.0000  0.0000  0.0000  0.0000 </r>
        <r>  0.0000  0.0000  0.0990  0.0990  0.0000  0.0000  0.0000  0.0000  0.0000 </r>
       </set>
       <set comment="band 4">
        <r>  0.0000  0.0000  0.0990  0.0990  0.0000  0.0000  0.0000  0.0000  0.0000 </r>
        <r>  0.0000  0.0000  0.0990  0.0990  0.0000  0.0000  0.0000  0.0000  0.0000 </r>
       </set>
       <set comment="band 5">
        <r>  0.0533  0.0416  0.0000  0.0000  0.0000  0.0000  0.0000  0.0000  0.0000 </r>
        <r>  0.0533  0.0416  0.0000  0.0000  0.0000  0.0000  0.0000  0.0000  0.0000 </r>
       </set>
       <set comment="band 6">
        <r>  0.0486  0.0312  0.0000  0.0000  0.0000  0.0000  0.0000  0.0000  0.0000 </r>
        <r>  0.0486  0.0312  0.0000  0.0000  0.0000  0.0000  0.0000  0.0000  0.0000 </r>
       </set>
       <set comment="band 7">
        <r>  0.0000  0.0000  0.0922  0.0811  0.0000  0.0000  0.0000  0.0000  0.0000 </r>
        <r>  0.0000  0.0000  0.0613  0.1120  0.0000  0.0000  0.0000  0.0000  0.0000 </r>
       </set>
       <set comment="band 8">
        <r>  0.0000  0.0000  0.0811  0.0922  0.0000  0.0000  0.0000  0.0000  0.0000 </r>
        <r>  0.0000  0.0000  0.1120  0.0613  0.0000  0.0000  0.0000  0.0000  0.0000 </r>
       </set>
      </set>
      <set comment="kpoint 76">
       <set comment="band 1">
        <r>  0.1971  0.0372  0.0000  0.0000  0.0000  0.0000  0.0000  0.0000  0.0000 </r>
        <r>  0.1971  0.0372  0.0000  0.0000  0.0000  0.0000  0.0000  0.0000  0.0000 </r>
       </set>
       <set comment="band 2">
        <r>  0.1890  0.0550  0.0000  0.0000  0.0000  0.0000  0.0000  0.0000  0.0000 </r>
        <r>  0.1890  0.0550  0.0000  0.0000  0.0000  0.0000  0.0000  0.0000  0.0000 </r>
       </set>
       <set comment="band 3">
        <r>  0.0000  0.0000  0.0990  0.0990  0.0000  0.0000  0.0000  0.0000  0.0000 </r>
        <r>  0.0000  0.0000  0.0990  0.0990  0.0000  0.0000  0.0000  0.0000  0.0000 </r>
       </set>
       <set comment="band 4">
        <r>  0.0000  0.0000  0.0990  0.0990  0.0000  0.0000  0.0000  0.0000  0.0000 </r>
        <r>  0.0000  0.0000  0.0990  0.0990  0.0000  0.0000  0.0000  0.0000  0.0000 </r>
       </set>
       <set comment="band 5">
        <r>  0.0532  0.0400  0.0000  0.0000  0.0000  0.0000  0.0000  0.0000  0.0000 </r>
        <r>  0.0532  0.0400  0.0000  0.0000  0.0000  0.0000  0.0000  0.0000  0.0000 </r>
       </set>
       <set comment="band 6">
        <r>  0.0493  0.0318  0.0000  0.0000  0.0000  0.0000  0.0000  0.0000  0.0000 </r>
        <r>  0.0493  0.0318  0.0000  0.0000  0.0000  0.0000  0.0000  0.0000  0.0000 </r>
       </set>
       <set comment="band 7">
        <r>  0.0000  0.0000  0.0375  0.1412  0.0000  0.0000  0.0000  0.0000  0.0000 </r>
        <r>  0.0000  0.0000  0.1339  0.0449  0.0000  0.0000  0.0000  0.0000  0.0000 </r>
       </set>
       <set comment="band 8">
        <r>  0.0000  0.0000  0.1413  0.0375  0.0000  0.0000  0.0000  0.0000  0.0000 </r>
        <r>  0.0000  0.0000  0.0450  0.1340  0.0000  0.0000  0.0000  0.0000  0.0000 </r>
       </set>
      </set>
      <set comment="kpoint 77">
       <set comment="band 1">
        <r>  0.1962  0.0392  0.0000  0.0000  0.0000  0.0000  0.0000  0.0000  0.0000 </r>
        <r>  0.1962  0.0392  0.0000  0.0000  0.0000  0.0000  0.0000  0.0000  0.0000 </r>
       </set>
       <set comment="band 2">
        <r>  0.1902  0.0526  0.0000  0.0000  0.0000  0.0000  0.0000  0.0000  0.0000 </r>
        <r>  0.1902  0.0526  0.0000  0.0000  0.0000  0.0000  0.0000  0.0000  0.0000 </r>
       </set>
       <set comment="band 3">
        <r>  0.0000  0.0000  0.0990  0.0990  0.0000  0.0000  0.0000  0.0000  0.0000 </r>
        <r>  0.0000  0.0000  0.0990  0.0990  0.0000  0.0000  0.0000  0.0000  0.0000 </r>
       </set>
       <set comment="band 4">
        <r>  0.0000  0.0000  0.0990  0.0990  0.0000  0.0000  0.0000  0.0000  0.0000 </r>
        <r>  0.0000  0.0000  0.0990  0.0990  0.0000  0.0000  0.0000  0.0000  0.0000 </r>
       </set>
       <set comment="band 5">
        <r>  0.0529  0.0386  0.0000  0.0000  0.0000  0.0000  0.0000  0.0000  0.0000 </r>
        <r>  0.0529  0.0386  0.0000  0.0000  0.0000  0.0000  0.0000  0.0000  0.0000 </r>
       </set>
       <set comment="band 6">
        <r>  0.0500  0.0325  0.0000  0.0000  0.0000  0.0000  0.0000  0.0000  0.0000 </r>
        <r>  0.0500  0.0325  0.0000  0.0000  0.0000  0.0000  0.0000  0.0000  0.0000 </r>
       </set>
       <set comment="band 7">
        <r>  0.0000  0.0000  0.1765  0.0116  0.0000  0.0000  0.0000  0.0000  0.0000 </r>
        <r>  0.0000  0.0000  0.0017  0.1865  0.0000  0.0000  0.0000  0.0000  0.0000 </r>
       </set>
       <set comment="band 8">
        <r>  0.0000  0.0000  0.0116  0.1752  0.0000  0.0000  0.0000  0.0000  0.0000 </r>
        <r>  0.0000  0.0000  0.1852  0.0017  0.0000  0.0000  0.0000  0.0000  0.0000 </r>
       </set>
      </set>
      <set comment="kpoint 78">
       <set comment="band 1">
        <r>  0.1953  0.0413  0.0000  0.0000  0.0000  0.0000  0.0000  0.0000  0.0000 </r>
        <r>  0.1953  0.0413  0.0000  0.0000  0.0000  0.0000  0.0000  0.0000  0.0000 </r>
       </set>
       <set comment="band 2">
        <r>  0.1913  0.0502  0.0000  0.0000  0.0000  0.0000  0.0000  0.0000  0.0000 </r>
        <r>  0.1913  0.0502  0.0000  0.0000  0.0000  0.0000  0.0000  0.0000  0.0000 </r>
       </set>
       <set comment="band 3">
        <r>  0.0000  0.0000  0.0990  0.0990  0.0000  0.0000  0.0000  0.0000  0.0000 </r>
        <r>  0.0000  0.0000  0.0990  0.0990  0.0000  0.0000  0.0000  0.0000  0.0000 </r>
       </set>
       <set comment="band 4">
        <r>  0.0000  0.0000  0.0990  0.0990  0.0000  0.0000  0.0000  0.0000  0.0000 </r>
        <r>  0.0000  0.0000  0.0990  0.0990  0.0000  0.0000  0.0000  0.0000  0.0000 </r>
       </set>
       <set comment="band 5">
        <r>  0.0526  0.0374  0.0000  0.0000  0.0000  0.0000  0.0000  0.0000  0.0000 </r>
        <r>  0.0526  0.0374  0.0000  0.0000  0.0000  0.0000  0.0000  0.0000  0.0000 </r>
       </set>
       <set comment="band 6">
        <r>  0.0507  0.0332  0.0000  0.0000  0.0000  0.0000  0.0000  0.0000  0.0000 </r>
        <r>  0.0507  0.0332  0.0000  0.0000  0.0000  0.0000  0.0000  0.0000  0.0000 </r>
       </set>
       <set comment="band 7">
        <r>  0.0000  0.0000  0.0677  0.1354  0.0000  0.0000  0.0000  0.0000  0.0000 </r>
        <r>  0.0000  0.0000  0.1661  0.0369  0.0000  0.0000  0.0000  0.0000  0.0000 </r>
       </set>
       <set comment="band 8">
        <r>  0.0000  0.0000  0.1346  0.0675  0.0000  0.0000  0.0000  0.0000  0.0000 </r>
        <r>  0.0000  0.0000  0.0365  0.1658  0.0000  0.0000  0.0000  0.0000  0.0000 </r>
       </set>
      </set>
      <set comment="kpoint 79">
       <set comment="band 1">
        <r>  0.1943  0.0434  0.0000  0.0000  0.0000  0.0000  0.0000  0.0000  0.0000 </r>
        <r>  0.1943  0.0434  0.0000  0.0000  0.0000  0.0000  0.0000  0.0000  0.0000 </r>
       </set>
       <set comment="band 2">
        <r>  0.1923  0.0479  0.0000  0.0000  0.0000  0.0000  0.0000  0.0000  0.0000 </r>
        <r>  0.1923  0.0479  0.0000  0.0000  0.0000  0.0000  0.0000  0.0000  0.0000 </r>
       </set>
       <set comment="band 3">
        <r>  0.0000  0.0000  0.0990  0.0990  0.0000  0.0000  0.0000  0.0000  0.0000 </r>
        <r>  0.0000  0.0000  0.0990  0.0990  0.0000  0.0000  0.0000  0.0000  0.0000 </r>
       </set>
       <set comment="band 4">
        <r>  0.0000  0.0000  0.0990  0.0990  0.0000  0.0000  0.0000  0.0000  0.0000 </r>
        <r>  0.0000  0.0000  0.0990  0.0990  0.0000  0.0000  0.0000  0.0000  0.0000 </r>
       </set>
       <set comment="band 5">
        <r>  0.0523  0.0362  0.0000  0.0000  0.0000  0.0000  0.0000  0.0000  0.0000 </r>
        <r>  0.0523  0.0362  0.0000  0.0000  0.0000  0.0000  0.0000  0.0000  0.0000 </r>
       </set>
       <set comment="band 6">
        <r>  0.0513  0.0341  0.0000  0.0000  0.0000  0.0000  0.0000  0.0000  0.0000 </r>
        <r>  0.0513  0.0341  0.0000  0.0000  0.0000  0.0000  0.0000  0.0000  0.0000 </r>
       </set>
       <set comment="band 7">
        <r>  0.0000  0.0000  0.2183  0.0077  0.0000  0.0000  0.0000  0.0000  0.0000 </r>
        <r>  0.0000  0.0000  0.0070  0.2182  0.0000  0.0000  0.0000  0.0000  0.0000 </r>
       </set>
       <set comment="band 8">
        <r>  0.0000  0.0000  0.0080  0.2177  0.0000  0.0000  0.0000  0.0000  0.0000 </r>
        <r>  0.0000  0.0000  0.2169  0.0072  0.0000  0.0000  0.0000  0.0000  0.0000 </r>
       </set>
      </set>
      <set comment="kpoint 80">
       <set comment="band 1">
        <r>  0.1991  0.0443  0.0000  0.0000  0.0000  0.0000  0.0000  0.0000  0.0000 </r>
        <r>  0.1876  0.0470  0.0000  0.0000  0.0000  0.0000  0.0000  0.0000  0.0000 </r>
       </set>
       <set comment="band 2">
        <r>  0.1876  0.0470  0.0000  0.0000  0.0000  0.0000  0.0000  0.0000  0.0000 </r>
        <r>  0.1991  0.0443  0.0000  0.0000  0.0000  0.0000  0.0000  0.0000  0.0000 </r>
       </set>
       <set comment="band 3">
        <r>  0.0000  0.0000  0.0990  0.0990  0.0000  0.0000  0.0000  0.0000  0.0000 </r>
        <r>  0.0000  0.0000  0.0990  0.0990  0.0000  0.0000  0.0000  0.0000  0.0000 </r>
       </set>
       <set comment="band 4">
        <r>  0.0000  0.0000  0.0990  0.0990  0.0000  0.0000  0.0000  0.0000  0.0000 </r>
        <r>  0.0000  0.0000  0.0990  0.0990  0.0000  0.0000  0.0000  0.0000  0.0000 </r>
       </set>
       <set comment="band 5">
        <r>  0.0522  0.0348  0.0000  0.0000  0.0000  0.0000  0.0000  0.0000  0.0000 </r>
        <r>  0.0514  0.0353  0.0000  0.0000  0.0000  0.0000  0.0000  0.0000  0.0000 </r>
       </set>
       <set comment="band 6">
        <r>  0.0514  0.0353  0.0000  0.0000  0.0000  0.0000  0.0000  0.0000  0.0000 </r>
        <r>  0.0522  0.0348  0.0000  0.0000  0.0000  0.0000  0.0000  0.0000  0.0000 </r>
       </set>
       <set comment="band 7">
        <r>  0.0000  0.0000  0.1112  0.1294  0.0000  0.0000  0.0000  0.0000  0.0000 </r>
        <r>  0.0000  0.0000  0.1294  0.1106  0.0000  0.0000  0.0000  0.0000  0.0000 </r>
       </set>
       <set comment="band 8">
        <r>  0.0000  0.0001  0.1290  0.1087  0.0000  0.0000  0.0000  0.0000  0.0000 </r>
        <r>  0.0000  0.0000  0.1131  0.1294  0.0000  0.0000  0.0000  0.0000  0.0000 </r>
       </set>
      </set>
     </set>
    </set>
   </array>
  </projected>
 </calculation>
 <structure name="finalpos" >
  <crystal>
   <varray name="basis" >
    <v>       0.00000000       2.71500000       2.71500000 </v>
    <v>       2.71500000       0.00000000       2.71500000 </v>
    <v>       2.71500000       2.71500000       0.00000000 </v>
   </varray>
   <i name="volume">     40.02575175 </i>
   <varray name="rec_basis" >
    <v>      -0.18416206       0.18416206       0.18416206 </v>
    <v>       0.18416206      -0.18416206       0.18416206 </v>
    <v>       0.18416206       0.18416206      -0.18416206 </v>
   </varray>
  </crystal>
  <varray name="positions" >
   <v>       0.00000000       0.00000000       0.00000000 </v>
   <v>       0.25000000       0.25000000       0.25000000 </v>
  </varray>
 </structure>
</modeling>
