       N       E                     dE             d eps       ncg     rms          rms(c)
DAV:   1     0.936251258315E+01    0.93625E+01   -0.25277E+03  1280   0.504E+02
DAV:   2    -0.516025665890E+01   -0.14523E+02   -0.13726E+02  2112   0.677E+01
DAV:   3    -0.535630391668E+01   -0.19605E+00   -0.19603E+00  1744   0.975E+00
DAV:   4    -0.535688306185E+01   -0.57915E-03   -0.57915E-03  2000   0.535E-01
DAV:   5    -0.535688461713E+01   -0.15553E-05   -0.15553E-05  1672   0.185E-02
DAV:   6    -0.535688464318E+01   -0.26054E-07   -0.26054E-07  1504   0.186E-03
   1 F= -.53568846E+01 E0= -.53568846E+01  d E =-.146153E-15
