Si                                      
   1.00000000000000     
    -0.0108600000000000    2.7095699999999998    2.7095699999999998
     2.7095699999999998   -0.0108600000000000    2.7095699999999998
     2.7095699999999998    2.7095699999999998   -0.0108600000000000
   Si
     2
Direct
  0.9997262499770585  0.9997262984723108  0.9997262771674471
  0.2502737500229415  0.2502737015276892  0.2502737228325529
 
  0.00000000E+00  0.00000000E+00  0.00000000E+00
  0.00000000E+00  0.00000000E+00  0.00000000E+00
