       N       E                     dE             d eps       ncg     rms          rms(c)
DAV:   1     0.879629077825E+01    0.87963E+01   -0.24854E+03  1280   0.503E+02
DAV:   2    -0.511843474826E+01   -0.13915E+02   -0.13134E+02  2168   0.660E+01
DAV:   3    -0.528436160680E+01   -0.16593E+00   -0.16593E+00  1688   0.945E+00
DAV:   4    -0.528492500920E+01   -0.56340E-03   -0.56340E-03  2000   0.554E-01
DAV:   5    -0.528492675962E+01   -0.17504E-05   -0.17504E-05  1656   0.196E-02
DAV:   6    -0.528492678601E+01   -0.26383E-07   -0.26382E-07  1432   0.190E-03
   1 F= -.52849268E+01 E0= -.52849268E+01  d E =-.130867E-14
