       N       E                     dE             d eps       ncg     rms          rms(c)
DAV:   1     0.945265592930E+01    0.94527E+01   -0.25978E+03  1288   0.512E+02
DAV:   2    -0.507015068644E+01   -0.14523E+02   -0.13693E+02  2192   0.673E+01
DAV:   3    -0.525417905045E+01   -0.18403E+00   -0.18403E+00  1568   0.971E+00
DAV:   4    -0.525480485853E+01   -0.62581E-03   -0.62581E-03  2072   0.604E-01
DAV:   5    -0.525480667087E+01   -0.18123E-05   -0.18125E-05  1608   0.188E-02
DAV:   6    -0.525480670408E+01   -0.33212E-07   -0.33186E-07  1512   0.185E-03
   1 F= -.52548067E+01 E0= -.52548067E+01  d E =-.128349E-11
