<?xml version="1.0" encoding="ISO-8859-1"?>
<modeling>
 <generator>
  <i name="program" type="string">vasp </i>
  <i name="version" type="string">6.3.0  </i>
  <i name="subversion" type="string">20Jan22 (build Mar 29 2022 17:59:55) complex                          parallel </i>
  <i name="platform" type="string">IFC91_ompi </i>
  <i name="date" type="string">2026 06 03 </i>
  <i name="time" type="string">12:47:29 </i>
 </generator>
 <incar>
  <i type="int" name="ISTART">     0</i>
  <i type="int" name="ICHARG">    11</i>
  <i type="int" name="ISYM">     2</i>
  <i name="ENCUT">    320.00000000</i>
  <i type="int" name="ISMEAR">     0</i>
  <i name="SIGMA">      0.05000000</i>
  <i type="int" name="LORBIT">    11</i>
  <i type="string" name="GGA">PE</i>
 </incar>
 <primitive_cell>
  <structure name="primitive_cell" >
   <crystal>
    <varray name="basis" >
     <v>       0.00000000       2.70957000       2.70957000 </v>
     <v>       2.70957000       0.00000000       2.70957000 </v>
     <v>       2.70957000       2.70957000       0.00000000 </v>
    </varray>
    <i name="volume">     39.78607723 </i>
    <varray name="rec_basis" >
     <v>      -0.18453112       0.18453112       0.18453112 </v>
     <v>       0.18453112      -0.18453112       0.18453112 </v>
     <v>       0.18453112       0.18453112      -0.18453112 </v>
    </varray>
   </crystal>
   <varray name="positions" >
    <v>       0.00000000       0.00000000       0.00000000 </v>
    <v>       0.25000000       0.25000000       0.25000000 </v>
   </varray>
  </structure>
  <varray name="primitive_index" >
   <v type="int" >        1 </v>
   <v type="int" >        2 </v>
  </varray>
 </primitive_cell>
 <kpoints>
  <generation param="listgenerated">
   <i name="divisions" type="int">      40 </i>
   <v>       0.00000000       0.50000000       0.50000000 </v>
   <v>       0.00000000       0.00000000       0.00000000 </v>
   <v>       0.50000000       0.00000000       0.50000000 </v>
  </generation>
  <varray name="kpointlist" >
   <v>       0.00000000       0.50000000       0.50000000 </v>
   <v>       0.00000000       0.48717949       0.48717949 </v>
   <v>       0.00000000       0.47435897       0.47435897 </v>
   <v>       0.00000000       0.46153846       0.46153846 </v>
   <v>       0.00000000       0.44871795       0.44871795 </v>
   <v>       0.00000000       0.43589744       0.43589744 </v>
   <v>       0.00000000       0.42307692       0.42307692 </v>
   <v>       0.00000000       0.41025641       0.41025641 </v>
   <v>       0.00000000       0.39743590       0.39743590 </v>
   <v>       0.00000000       0.38461538       0.38461538 </v>
   <v>       0.00000000       0.37179487       0.37179487 </v>
   <v>       0.00000000       0.35897436       0.35897436 </v>
   <v>       0.00000000       0.34615385       0.34615385 </v>
   <v>       0.00000000       0.33333333       0.33333333 </v>
   <v>       0.00000000       0.32051282       0.32051282 </v>
   <v>       0.00000000       0.30769231       0.30769231 </v>
   <v>       0.00000000       0.29487179       0.29487179 </v>
   <v>       0.00000000       0.28205128       0.28205128 </v>
   <v>       0.00000000       0.26923077       0.26923077 </v>
   <v>       0.00000000       0.25641026       0.25641026 </v>
   <v>       0.00000000       0.24358974       0.24358974 </v>
   <v>       0.00000000       0.23076923       0.23076923 </v>
   <v>       0.00000000       0.21794872       0.21794872 </v>
   <v>       0.00000000       0.20512821       0.20512821 </v>
   <v>       0.00000000       0.19230769       0.19230769 </v>
   <v>       0.00000000       0.17948718       0.17948718 </v>
   <v>       0.00000000       0.16666667       0.16666667 </v>
   <v>       0.00000000       0.15384615       0.15384615 </v>
   <v>       0.00000000       0.14102564       0.14102564 </v>
   <v>       0.00000000       0.12820513       0.12820513 </v>
   <v>       0.00000000       0.11538462       0.11538462 </v>
   <v>       0.00000000       0.10256410       0.10256410 </v>
   <v>       0.00000000       0.08974359       0.08974359 </v>
   <v>       0.00000000       0.07692308       0.07692308 </v>
   <v>       0.00000000       0.06410256       0.06410256 </v>
   <v>       0.00000000       0.05128205       0.05128205 </v>
   <v>       0.00000000       0.03846154       0.03846154 </v>
   <v>       0.00000000       0.02564103       0.02564103 </v>
   <v>       0.00000000       0.01282051       0.01282051 </v>
   <v>       0.00000000       0.00000000       0.00000000 </v>
   <v>       0.00000000       0.00000000       0.00000000 </v>
   <v>       0.01282051       0.00000000       0.01282051 </v>
   <v>       0.02564103       0.00000000       0.02564103 </v>
   <v>       0.03846154       0.00000000       0.03846154 </v>
   <v>       0.05128205       0.00000000       0.05128205 </v>
   <v>       0.06410256       0.00000000       0.06410256 </v>
   <v>       0.07692308       0.00000000       0.07692308 </v>
   <v>       0.08974359       0.00000000       0.08974359 </v>
   <v>       0.10256410       0.00000000       0.10256410 </v>
   <v>       0.11538462       0.00000000       0.11538462 </v>
   <v>       0.12820513       0.00000000       0.12820513 </v>
   <v>       0.14102564       0.00000000       0.14102564 </v>
   <v>       0.15384615       0.00000000       0.15384615 </v>
   <v>       0.16666667       0.00000000       0.16666667 </v>
   <v>       0.17948718       0.00000000       0.17948718 </v>
   <v>       0.19230769       0.00000000       0.19230769 </v>
   <v>       0.20512821       0.00000000       0.20512821 </v>
   <v>       0.21794872       0.00000000       0.21794872 </v>
   <v>       0.23076923       0.00000000       0.23076923 </v>
   <v>       0.24358974       0.00000000       0.24358974 </v>
   <v>       0.25641026       0.00000000       0.25641026 </v>
   <v>       0.26923077       0.00000000       0.26923077 </v>
   <v>       0.28205128       0.00000000       0.28205128 </v>
   <v>       0.29487179       0.00000000       0.29487179 </v>
   <v>       0.30769231       0.00000000       0.30769231 </v>
   <v>       0.32051282       0.00000000       0.32051282 </v>
   <v>       0.33333333       0.00000000       0.33333333 </v>
   <v>       0.34615385       0.00000000       0.34615385 </v>
   <v>       0.35897436       0.00000000       0.35897436 </v>
   <v>       0.37179487       0.00000000       0.37179487 </v>
   <v>       0.38461538       0.00000000       0.38461538 </v>
   <v>       0.39743590       0.00000000       0.39743590 </v>
   <v>       0.41025641       0.00000000       0.41025641 </v>
   <v>       0.42307692       0.00000000       0.42307692 </v>
   <v>       0.43589744       0.00000000       0.43589744 </v>
   <v>       0.44871795       0.00000000       0.44871795 </v>
   <v>       0.46153846       0.00000000       0.46153846 </v>
   <v>       0.47435897       0.00000000       0.47435897 </v>
   <v>       0.48717949       0.00000000       0.48717949 </v>
   <v>       0.50000000       0.00000000       0.50000000 </v>
  </varray>
  <varray name="weights" >
   <v>       0.01250000 </v>
   <v>       0.01250000 </v>
   <v>       0.01250000 </v>
   <v>       0.01250000 </v>
   <v>       0.01250000 </v>
   <v>       0.01250000 </v>
   <v>       0.01250000 </v>
   <v>       0.01250000 </v>
   <v>       0.01250000 </v>
   <v>       0.01250000 </v>
   <v>       0.01250000 </v>
   <v>       0.01250000 </v>
   <v>       0.01250000 </v>
   <v>       0.01250000 </v>
   <v>       0.01250000 </v>
   <v>       0.01250000 </v>
   <v>       0.01250000 </v>
   <v>       0.01250000 </v>
   <v>       0.01250000 </v>
   <v>       0.01250000 </v>
   <v>       0.01250000 </v>
   <v>       0.01250000 </v>
   <v>       0.01250000 </v>
   <v>       0.01250000 </v>
   <v>       0.01250000 </v>
   <v>       0.01250000 </v>
   <v>       0.01250000 </v>
   <v>       0.01250000 </v>
   <v>       0.01250000 </v>
   <v>       0.01250000 </v>
   <v>       0.01250000 </v>
   <v>       0.01250000 </v>
   <v>       0.01250000 </v>
   <v>       0.01250000 </v>
   <v>       0.01250000 </v>
   <v>       0.01250000 </v>
   <v>       0.01250000 </v>
   <v>       0.01250000 </v>
   <v>       0.01250000 </v>
   <v>       0.01250000 </v>
   <v>       0.01250000 </v>
   <v>       0.01250000 </v>
   <v>       0.01250000 </v>
   <v>       0.01250000 </v>
   <v>       0.01250000 </v>
   <v>       0.01250000 </v>
   <v>       0.01250000 </v>
   <v>       0.01250000 </v>
   <v>       0.01250000 </v>
   <v>       0.01250000 </v>
   <v>       0.01250000 </v>
   <v>       0.01250000 </v>
   <v>       0.01250000 </v>
   <v>       0.01250000 </v>
   <v>       0.01250000 </v>
   <v>       0.01250000 </v>
   <v>       0.01250000 </v>
   <v>       0.01250000 </v>
   <v>       0.01250000 </v>
   <v>       0.01250000 </v>
   <v>       0.01250000 </v>
   <v>       0.01250000 </v>
   <v>       0.01250000 </v>
   <v>       0.01250000 </v>
   <v>       0.01250000 </v>
   <v>       0.01250000 </v>
   <v>       0.01250000 </v>
   <v>       0.01250000 </v>
   <v>       0.01250000 </v>
   <v>       0.01250000 </v>
   <v>       0.01250000 </v>
   <v>       0.01250000 </v>
   <v>       0.01250000 </v>
   <v>       0.01250000 </v>
   <v>       0.01250000 </v>
   <v>       0.01250000 </v>
   <v>       0.01250000 </v>
   <v>       0.01250000 </v>
   <v>       0.01250000 </v>
   <v>       0.01250000 </v>
  </varray>
  <kpoints_labels>
   <i name="X_par" type="int">       1 </i>
   <i name="\Gamma" type="int">       2 </i>
   <i name="\Gamma" type="int">       3 </i>
   <i name="X_perp" type="int">       4 </i>
  </kpoints_labels>
 </kpoints>
 <parameters>
  <separator name="general" >
   <i type="string" name="SYSTEM">unknown system</i>
   <i type="logical" name="LCOMPAT"> F  </i>
  </separator>
  <separator name="electronic" >
   <i type="string" name="PREC">normal</i>
   <i name="ENMAX">    320.00000000</i>
   <i name="ENAUG">    322.06900000</i>
   <i name="EDIFF">      0.00010000</i>
   <i type="int" name="IALGO">    38</i>
   <i type="int" name="IWAVPR">    10</i>
   <i type="int" name="NBANDS">     8</i>
   <i type="int" name="NBANDSLOW">    -1</i>
   <i type="int" name="NBANDSHIGH">    -1</i>
   <i name="NELECT">      8.00000000</i>
   <i type="int" name="TURBO">     0</i>
   <i type="int" name="IRESTART">     0</i>
   <i type="int" name="NREBOOT">     0</i>
   <i type="int" name="NMIN">     0</i>
   <i name="EREF">      0.00000000</i>
   <separator name="electronic smearing" >
    <i type="int" name="ISMEAR">     0</i>
    <i name="SIGMA">      0.05000000</i>
    <i name="KSPACING">      0.50000000</i>
    <i type="logical" name="KGAMMA"> T  </i>
    <i type="logical" name="KBLOWUP"> T  </i>
   </separator>
   <separator name="electronic projectors" >
    <i type="logical" name="LREAL"> F  </i>
    <v name="ROPT">      0.00000000</v>
    <i type="int" name="LMAXPAW">  -100</i>
    <i type="int" name="LMAXMIX">     2</i>
    <i type="logical" name="NLSPLINE"> F  </i>
   </separator>
   <separator name="electronic startup" >
    <i type="int" name="ISTART">     0</i>
    <i type="int" name="ICHARG">    11</i>
    <i type="int" name="INIWAV">     1</i>
   </separator>
   <separator name="electronic spin" >
    <i type="int" name="ISPIN">     1</i>
    <i type="logical" name="LNONCOLLINEAR"> F  </i>
    <v name="MAGMOM">      1.00000000      1.00000000</v>
    <i name="NUPDOWN">     -1.00000000</i>
    <i type="logical" name="LSORBIT"> F  </i>
    <v name="SAXIS">      0.00000000      0.00000000      1.00000000</v>
    <i type="logical" name="LSPIRAL"> F  </i>
    <v name="QSPIRAL">      0.00000000      0.00000000      0.00000000</v>
    <i type="logical" name="LZEROZ"> F  </i>
   </separator>
   <separator name="electronic exchange-correlation" >
    <i type="logical" name="LASPH"> F  </i>
    <i type="logical" name="LMETAGGA"> F  </i>
   </separator>
   <separator name="electronic convergence" >
    <i type="int" name="NELM">    60</i>
    <i type="int" name="NELMDL">    -5</i>
    <i type="int" name="NELMIN">     2</i>
    <i name="ENINI">    320.00000000</i>
    <separator name="electronic convergence detail" >
     <i type="logical" name="LDIAG"> T  </i>
     <i type="logical" name="LSUBROT"> F  </i>
     <i name="WEIMIN">      0.00000000</i>
     <i name="EBREAK">      0.00000313</i>
     <i name="DEPER">      0.30000000</i>
     <i type="int" name="NRMM">     4</i>
     <i name="TIME">      0.40000000</i>
    </separator>
   </separator>
   <separator name="electronic mixer" >
    <i name="AMIX">      0.40000000</i>
    <i name="BMIX">      1.00000000</i>
    <i name="AMIN">      0.10000000</i>
    <i name="AMIX_MAG">      1.60000000</i>
    <i name="BMIX_MAG">      1.00000000</i>
    <separator name="electronic mixer details" >
     <i type="int" name="IMIX">     4</i>
     <i type="logical" name="MIXFIRST"> F  </i>
     <i type="int" name="MAXMIX">   -45</i>
     <i name="WC">    100.00000000</i>
     <i type="int" name="INIMIX">     1</i>
     <i type="int" name="MIXPRE">     1</i>
     <i type="int" name="MREMOVE">     5</i>
    </separator>
   </separator>
   <separator name="electronic dipolcorrection" >
    <i type="logical" name="LDIPOL"> F  </i>
    <i type="logical" name="LMONO"> F  </i>
    <i type="int" name="IDIPOL">     0</i>
    <i name="EPSILON">      1.00000000</i>
    <v name="DIPOL">   -100.00000000   -100.00000000   -100.00000000</v>
    <i name="EFIELD">      0.00000000</i>
   </separator>
  </separator>
  <separator name="grids" >
   <i type="int" name="NGX">    18</i>
   <i type="int" name="NGY">    18</i>
   <i type="int" name="NGZ">    18</i>
   <i type="int" name="NGXF">    36</i>
   <i type="int" name="NGYF">    36</i>
   <i type="int" name="NGZF">    36</i>
   <i type="logical" name="ADDGRID"> F  </i>
  </separator>
  <separator name="ionic" >
   <i type="int" name="NSW">     0</i>
   <i type="int" name="IBRION">    -1</i>
   <i type="int" name="MDALGO">     0</i>
   <i type="int" name="ISIF">     2</i>
   <i name="PSTRESS">      0.00000000</i>
   <i name="EDIFFG">      0.00100000</i>
   <i type="int" name="NFREE">     0</i>
   <i name="POTIM">      0.50000000</i>
   <i name="SMASS">     -3.00000000</i>
   <i name="SCALEE">      1.00000000</i>
  </separator>
  <separator name="ionic md" >
   <i name="TEBEG">      0.00010000</i>
   <i name="TEEND">      0.00010000</i>
   <i type="int" name="NBLOCK">     1</i>
   <i type="int" name="KBLOCK">     1</i>
   <i type="int" name="NPACO">   256</i>
   <i name="APACO">     10.00000000</i>
  </separator>
  <separator name="symmetry" >
   <i type="int" name="ISYM">     2</i>
   <i name="SYMPREC">      0.00001000</i>
  </separator>
  <separator name="dos" >
   <i type="int" name="LORBIT">    11</i>
   <v name="RWIGS">     -1.00000000</v>
   <i type="int" name="NEDOS">   301</i>
   <i name="EMIN">     10.00000000</i>
   <i name="EMAX">    -10.00000000</i>
   <i name="EFERMI">      0.00000000</i>
  </separator>
  <separator name="writing" >
   <i type="int" name="NWRITE">     2</i>
   <i type="logical" name="LWAVE"> T  </i>
   <i type="logical" name="LDOWNSAMPLE"> F  </i>
   <i type="logical" name="LCHARG"> T  </i>
   <i type="logical" name="LPARD"> F  </i>
   <i type="logical" name="LVTOT"> F  </i>
   <i type="logical" name="LVHAR"> F  </i>
   <i type="logical" name="LELF"> F  </i>
   <i type="logical" name="LOPTICS"> F  </i>
   <v name="STM">      0.00000000      0.00000000      0.00000000      0.00000000      0.00000000      0.00000000      0.00000000</v>
  </separator>
  <separator name="performance" >
   <i type="int" name="NPAR">     1</i>
   <i type="int" name="NSIM">     4</i>
   <i type="int" name="NBLK">    -1</i>
   <i type="logical" name="LPLANE"> T  </i>
   <i type="logical" name="LSCALAPACK"> T  </i>
   <i type="logical" name="LSCAAWARE"> F  </i>
   <i type="logical" name="LSCALU"> F  </i>
   <i type="logical" name="LASYNC"> F  </i>
   <i type="logical" name="LORBITALREAL"> F  </i>
  </separator>
  <separator name="miscellaneous" >
   <i type="int" name="IDIOT">     3</i>
   <i type="int" name="PHON_NSTRUCT">    -1</i>
   <i type="logical" name="LMUSIC"> F  </i>
   <v name="POMASS">     28.08500000</v>
   <v name="DARWINR">      0.00000000</v>
   <v name="DARWINV">      1.00000000</v>
   <i type="logical" name="LCORR"> T  </i>
  </separator>
  <i type="logical" name="GGA_COMPAT"> T  </i>
  <i type="logical" name="LBERRY"> F  </i>
  <i type="int" name="ICORELEVEL">     0</i>
  <i type="logical" name="LDAU"> F  </i>
  <i type="int" name="I_CONSTRAINED_M">     0</i>
  <separator name="electronic exchange-correlation" >
   <i type="string" name="GGA">PE</i>
   <i type="int" name="VOSKOWN">     0</i>
   <i type="logical" name="LHFCALC"> F  </i>
   <i type="string" name="PRECFOCK"></i>
   <i type="logical" name="LSYMGRAD"> F  </i>
   <i type="logical" name="LHFONE"> F  </i>
   <i type="logical" name="LRHFCALC"> F  </i>
   <i type="logical" name="LTHOMAS"> F  </i>
   <i type="logical" name="LMODELHF"> F  </i>
   <i type="logical" name="LFOCKACE"> F  </i>
   <i name="ENCUT4O">     -1.00000000</i>
   <i type="int" name="EXXOEP">     0</i>
   <i type="int" name="FOURORBIT">     0</i>
   <i name="AEXX">      0.00000000</i>
   <i name="HFALPHA">      0.00000000</i>
   <i name="MCALPHA">      0.00000000</i>
   <i name="ALDAX">      1.00000000</i>
   <i name="AGGAX">      1.00000000</i>
   <i name="ALDAC">      1.00000000</i>
   <i name="AGGAC">      1.00000000</i>
   <i type="int" name="NKREDX">     1</i>
   <i type="int" name="NKREDY">     1</i>
   <i type="int" name="NKREDZ">     1</i>
   <i type="logical" name="SHIFTRED"> F  </i>
   <i type="logical" name="ODDONLY"> F  </i>
   <i type="logical" name="EVENONLY"> F  </i>
   <i type="int" name="LMAXFOCK">     0</i>
   <i type="int" name="NMAXFOCKAE">     0</i>
   <i type="logical" name="LFOCKAEDFT"> F  </i>
   <i name="HFSCREEN">      0.00000000</i>
   <i name="HFSCREENC">      0.00000000</i>
   <i type="int" name="NBANDSGWLOW">     0</i>
  </separator>
  <separator name="vdW DFT" >
   <i type="logical" name="LUSE_VDW"> F  </i>
   <i name="Zab_VDW">     -0.84910000</i>
   <i name="PARAM1">      0.12340000</i>
   <i name="PARAM2">      1.00000000</i>
   <i name="PARAM3">      0.00000000</i>
  </separator>
  <separator name="model GW" >
   <i type="int" name="MODEL_GW">     0</i>
   <i name="MODEL_EPS0">     11.93582317</i>
   <i name="MODEL_ALPHA">      1.00000000</i>
  </separator>
  <separator name="linear response parameters" >
   <i type="logical" name="LEPSILON"> F  </i>
   <i type="logical" name="LRPA"> F  </i>
   <i type="logical" name="LNABLA"> F  </i>
   <i type="logical" name="LVEL"> F  </i>
   <i name="CSHIFT">      0.10000000</i>
   <i name="OMEGAMAX">     -1.00000000</i>
   <i name="DEG_THRESHOLD">      0.00200000</i>
   <i name="RTIME">     -0.10000000</i>
   <i name="WPLASMAI">      0.00000000</i>
   <v name="DFIELD">      0.00000000      0.00000000      0.00000000</v>
   <v name="WPLASMA">      0.00000000      0.00000000      0.00000000      0.00000000      0.00000000      0.00000000      0.00000000      0.00000000      0.00000000</v>
  </separator>
  <separator name="orbital magnetization" >
   <i type="logical" name="NUCIND"> F  </i>
   <v name="MAGPOS">      0.00000000      0.00000000      0.00000000</v>
   <i type="logical" name="LNICSALL"> T  </i>
   <i type="logical" name="ORBITALMAG"> F  </i>
   <i type="logical" name="LMAGBLOCH"> F  </i>
   <i type="logical" name="LCHIMAG"> F  </i>
   <i type="logical" name="LGAUGE"> T  </i>
   <i type="int" name="MAGATOM">     0</i>
   <v name="MAGDIPOL">      0.00000000      0.00000000      0.00000000</v>
   <v name="AVECCONST">      0.00000000      0.00000000      0.00000000</v>
  </separator>
  <separator name="response functions" >
   <i type="logical" name="LFINITE_TEMPERATURE"> F  </i>
   <i type="logical" name="LADDER"> F  </i>
   <i type="logical" name="LRPAFORCE"> F  </i>
   <i type="logical" name="LFXC"> F  </i>
   <i type="logical" name="LHARTREE"> T  </i>
   <i type="int" name="IBSE">     0</i>
   <v type="int" name="KPOINT">    -1     0     0     0</v>
   <i type="logical" name="LTCTC"> F  </i>
   <i type="logical" name="LTCTE"> F  </i>
   <i type="logical" name="LTETE"> F  </i>
   <i type="logical" name="LTRIPLET"> F  </i>
   <i type="logical" name="LFXCEPS"> F  </i>
   <i type="logical" name="LFXHEG"> F  </i>
   <i type="int" name="NATURALO">     2</i>
   <i type="logical" name="LHOLEGF"> F  </i>
   <i type="logical" name="L2ORDER"> F  </i>
   <i type="logical" name="LDMP1"> F  </i>
   <i type="logical" name="LMP2LT"> F  </i>
   <i type="logical" name="LSMP2LT"> F  </i>
   <i type="logical" name="LGWLF"> F  </i>
   <i name="ENCUTGW">     -2.00000000</i>
   <i name="ENCUTGWSOFT">     -2.00000000</i>
   <i name="ENCUTLF">     -1.00000000</i>
   <i type="logical" name="LESF_SPLINES"> F  </i>
   <i type="int" name="LMAXMP2">    -1</i>
   <i name="SCISSOR">      0.00000000</i>
   <i type="int" name="NOMEGA">     0</i>
   <i type="int" name="NOMEGAR">     0</i>
   <i type="int" name="NBANDSGW">    -1</i>
   <i type="int" name="NBANDSO">    -1</i>
   <i type="int" name="NBANDSV">    -1</i>
   <i type="int" name="NELMGW">     1</i>
   <i type="int" name="NELMHF">     1</i>
   <i type="int" name="DIM">     3</i>
   <i type="int" name="IESPILON">     4</i>
   <i type="int" name="ANTIRES">     0</i>
   <i name="OMEGAMAX">    -30.00000000</i>
   <i name="OMEGAMIN">    -30.00000000</i>
   <i name="OMEGATL">   -200.00000000</i>
   <i type="int" name="OMEGAGRID">     0</i>
   <i name="CSHIFT">     -0.10000000</i>
   <i type="logical" name="LSELFENERGY"> F  </i>
   <i type="logical" name="LSPECTRAL"> F  </i>
   <i type="logical" name="LSPECTRALGW"> F  </i>
   <i type="logical" name="LSINGLES"> F  </i>
   <i type="logical" name="LFERMIGW"> F  </i>
   <i type="logical" name="ODDONLYGW"> F  </i>
   <i type="logical" name="EVENONLYGW"> F  </i>
   <i type="int" name="NKREDLFX">     1</i>
   <i type="int" name="NKREDLFY">     1</i>
   <i type="int" name="NKREDLFZ">     1</i>
   <i type="int" name="MAXMEM">  2800</i>
   <i type="int" name="TELESCOPE">     0</i>
   <i type="int" name="NTAUPAR">    -1</i>
   <i type="int" name="NOMEGAPAR">    -1</i>
   <i name="DAMP_NEWTON">      0.80000001</i>
   <i name="LAMBDA">      1.00000000</i>
  </separator>
  <separator name="External order field" >
   <i name="OFIELD_KAPPA">      0.00000000</i>
   <v name="OFIELD_K">      0.00000000      0.00000000      0.00000000</v>
   <i name="OFIELD_Q6_NEAR">      0.00000000</i>
   <i name="OFIELD_Q6_FAR">      0.00000000</i>
   <i name="OFIELD_A">      0.00000000</i>
  </separator>
  <separator name="optional k-points parameters" >
   <i type="int" name="KPOINTS_OPT_MODE">     1</i>
   <i type="logical" name="LKPOINTS_OPT"> F  </i>
  </separator>
 </parameters>
 <atominfo>
  <atoms>       2 </atoms>
  <types>       1 </types>
  <array name="atoms" >
   <dimension dim="1">ion</dimension>
   <field type="string">element</field>
   <field type="int">atomtype</field>
   <set>
    <rc><c>Si</c><c>   1</c></rc>
    <rc><c>Si</c><c>   1</c></rc>
   </set>
  </array>
  <array name="atomtypes" >
   <dimension dim="1">type</dimension>
   <field type="int">atomspertype</field>
   <field type="string">element</field>
   <field>mass</field>
   <field>valence</field>
   <field type="string">pseudopotential</field>
   <set>
    <rc><c>   2</c><c>Si</c><c>     28.08500000</c><c>      4.00000000</c><c>  PAW_PBE Si 05Jan2001                  </c></rc>
   </set>
  </array>
 </atominfo>
 <structure name="initialpos" >
  <crystal>
   <varray name="basis" >
    <v>       0.00000000       2.70957000       2.70957000 </v>
    <v>       2.70957000       0.00000000       2.70957000 </v>
    <v>       2.70957000       2.70957000       0.00000000 </v>
   </varray>
   <i name="volume">     39.78607723 </i>
   <varray name="rec_basis" >
    <v>      -0.18453112       0.18453112       0.18453112 </v>
    <v>       0.18453112      -0.18453112       0.18453112 </v>
    <v>       0.18453112       0.18453112      -0.18453112 </v>
   </varray>
  </crystal>
  <varray name="positions" >
   <v>       0.00000000       0.00000000       0.00000000 </v>
   <v>       0.25000000       0.25000000       0.25000000 </v>
  </varray>
 </structure>
 <calculation>
  <scstep>
   <time name="dav">    0.45    0.45</time>
   <time name="total">    0.48    0.48</time>
   <energy>
    <i name="alphaZ">      3.38441316 </i>
    <i name="ewald">   -229.02156806 </i>
    <i name="hartreedc">    -14.85694089 </i>
    <i name="XCdc">    -17.93132666 </i>
    <i name="pawpsdc">    906.49360404 </i>
    <i name="pawaedc">   -871.53834973 </i>
    <i name="eentropy">     -0.00231724 </i>
    <i name="bandstr">     26.79447446 </i>
    <i name="atom">    206.13066687 </i>
    <i name="e_fr_energy">      9.45265593 </i>
    <i name="e_wo_entrp">      9.45497317 </i>
    <i name="e_0_energy">      9.45381455 </i>
   </energy>
  </scstep>
  <scstep>
   <time name="dav">    0.70    0.70</time>
   <time name="total">    0.70    0.70</time>
   <energy>
    <i name="e_fr_energy">     -5.07015069 </i>
    <i name="e_wo_entrp">     -5.07015069 </i>
    <i name="e_0_energy">     -5.07015069 </i>
   </energy>
  </scstep>
  <scstep>
   <time name="dav">    0.53    0.53</time>
   <time name="total">    0.53    0.53</time>
   <energy>
    <i name="e_fr_energy">     -5.25417905 </i>
    <i name="e_wo_entrp">     -5.25417905 </i>
    <i name="e_0_energy">     -5.25417905 </i>
   </energy>
  </scstep>
  <scstep>
   <time name="dav">    0.66    0.66</time>
   <time name="total">    0.66    0.66</time>
   <energy>
    <i name="e_fr_energy">     -5.25480486 </i>
    <i name="e_wo_entrp">     -5.25480486 </i>
    <i name="e_0_energy">     -5.25480486 </i>
   </energy>
  </scstep>
  <scstep>
   <time name="dav">    0.53    0.53</time>
   <time name="total">    0.54    0.54</time>
   <energy>
    <i name="e_fr_energy">     -5.25480667 </i>
    <i name="e_wo_entrp">     -5.25480667 </i>
    <i name="e_0_energy">     -5.25480667 </i>
   </energy>
  </scstep>
  <scstep>
   <time name="dav">    0.52    0.52</time>
   <time name="total">    0.52    0.52</time>
   <energy>
    <i name="alphaZ">      3.38441316 </i>
    <i name="ewald">   -229.02156806 </i>
    <i name="hartreedc">    -14.85694089 </i>
    <i name="XCdc">    -17.93132666 </i>
    <i name="pawpsdc">    906.49360404 </i>
    <i name="pawaedc">   -871.53834973 </i>
    <i name="eentropy">     -0.00000000 </i>
    <i name="bandstr">     12.08469458 </i>
    <i name="atom">    206.13066687 </i>
    <i name="e_fr_energy">     -5.25480670 </i>
    <i name="e_wo_entrp">     -5.25480670 </i>
    <i name="e_0_energy">     -5.25480670 </i>
   </energy>
  </scstep>
  <structure>
   <crystal>
    <varray name="basis" >
     <v>       0.00000000       2.70957000       2.70957000 </v>
     <v>       2.70957000       0.00000000       2.70957000 </v>
     <v>       2.70957000       2.70957000       0.00000000 </v>
    </varray>
    <i name="volume">     39.78607723 </i>
    <varray name="rec_basis" >
     <v>      -0.18453112       0.18453112       0.18453112 </v>
     <v>       0.18453112      -0.18453112       0.18453112 </v>
     <v>       0.18453112       0.18453112      -0.18453112 </v>
    </varray>
   </crystal>
   <varray name="positions" >
    <v>       0.00000000       0.00000000       0.00000000 </v>
    <v>       0.25000000       0.25000000       0.25000000 </v>
   </varray>
  </structure>
  <varray name="forces" >
   <v>       0.00000000      -0.00000000       0.00000000 </v>
   <v>      -0.00000000       0.00000000      -0.00000000 </v>
  </varray>
  <varray name="stress" >
   <v>     279.71871567       0.00000000      -0.00000000 </v>
   <v>       0.00000000     279.71871567      -0.00000000 </v>
   <v>      -0.00000000      -0.00000000     279.71871567 </v>
  </varray>
  <energy>
   <i name="e_fr_energy">     -5.25480670 </i>
   <i name="e_wo_entrp">     -5.25480670 </i>
   <i name="e_0_energy">     -5.25480670 </i>
  </energy>
  <time name="totalsc">    3.83    3.83</time>
  <eigenvalues>
   <array>
    <dimension dim="1">band</dimension>
    <dimension dim="2">kpoint</dimension>
    <dimension dim="3">spin</dimension>
    <field>eigene</field>
    <field>occ</field>
    <set>
     <set comment="spin 1">
      <set comment="kpoint 1">
       <r>   -1.9416    1.0000 </r>
       <r>   -1.9416    1.0000 </r>
       <r>    3.0264    1.0000 </r>
       <r>    3.0264    1.0000 </r>
       <r>    6.5928    0.0000 </r>
       <r>    6.5928    0.0000 </r>
       <r>   16.0687    0.0000 </r>
       <r>   16.0705    0.0000 </r>
      </set>
      <set comment="kpoint 2">
       <r>   -2.1394    1.0000 </r>
       <r>   -1.7403    1.0000 </r>
       <r>    3.0290    1.0000 </r>
       <r>    3.0290    1.0000 </r>
       <r>    6.5510    0.0000 </r>
       <r>    6.6423    0.0000 </r>
       <r>   15.9939    0.0000 </r>
       <r>   15.9971    0.0000 </r>
      </set>
      <set comment="kpoint 3">
       <r>   -2.3336    1.0000 </r>
       <r>   -1.5357    1.0000 </r>
       <r>    3.0369    1.0000 </r>
       <r>    3.0369    1.0000 </r>
       <r>    6.5171    0.0000 </r>
       <r>    6.7001    0.0000 </r>
       <r>   15.8197    0.0000 </r>
       <r>   15.8197    0.0000 </r>
      </set>
      <set comment="kpoint 4">
       <r>   -2.5240    1.0000 </r>
       <r>   -1.3280    1.0000 </r>
       <r>    3.0499    1.0000 </r>
       <r>    3.0499    1.0000 </r>
       <r>    6.4906    0.0000 </r>
       <r>    6.7656    0.0000 </r>
       <r>   15.6035    0.0000 </r>
       <r>   15.6036    0.0000 </r>
      </set>
      <set comment="kpoint 5">
       <r>   -2.7106    1.0000 </r>
       <r>   -1.1174    1.0000 </r>
       <r>    3.0682    1.0000 </r>
       <r>    3.0682    1.0000 </r>
       <r>    6.4716    0.0000 </r>
       <r>    6.8393    0.0000 </r>
       <r>   15.3708    0.0000 </r>
       <r>   15.3708    0.0000 </r>
      </set>
      <set comment="kpoint 6">
       <r>   -2.8931    1.0000 </r>
       <r>   -0.9040    1.0000 </r>
       <r>    3.0916    1.0000 </r>
       <r>    3.0916    1.0000 </r>
       <r>    6.4599    0.0000 </r>
       <r>    6.9212    0.0000 </r>
       <r>   15.1312    0.0000 </r>
       <r>   15.1312    0.0000 </r>
      </set>
      <set comment="kpoint 7">
       <r>   -3.0715    1.0000 </r>
       <r>   -0.6880    1.0000 </r>
       <r>    3.1203    1.0000 </r>
       <r>    3.1203    1.0000 </r>
       <r>    6.4555    0.0000 </r>
       <r>    7.0114    0.0000 </r>
       <r>   14.8884    0.0000 </r>
       <r>   14.8884    0.0000 </r>
      </set>
      <set comment="kpoint 8">
       <r>   -3.2456    1.0000 </r>
       <r>   -0.4697    1.0000 </r>
       <r>    3.1541    1.0000 </r>
       <r>    3.1541    1.0000 </r>
       <r>    6.4581    0.0000 </r>
       <r>    7.1100    0.0000 </r>
       <r>   14.6445    0.0000 </r>
       <r>   14.6445    0.0000 </r>
      </set>
      <set comment="kpoint 9">
       <r>   -3.4153    1.0000 </r>
       <r>   -0.2491    1.0000 </r>
       <r>    3.1930    1.0000 </r>
       <r>    3.1930    1.0000 </r>
       <r>    6.4676    0.0000 </r>
       <r>    7.2169    0.0000 </r>
       <r>   14.3993    0.0000 </r>
       <r>   14.3993    0.0000 </r>
      </set>
      <set comment="kpoint 10">
       <r>   -3.5805    1.0000 </r>
       <r>   -0.0266    1.0000 </r>
       <r>    3.2370    1.0000 </r>
       <r>    3.2370    1.0000 </r>
       <r>    6.4837    0.0000 </r>
       <r>    7.3322    0.0000 </r>
       <r>   14.1558    0.0000 </r>
       <r>   14.1558    0.0000 </r>
      </set>
      <set comment="kpoint 11">
       <r>   -3.7411    1.0000 </r>
       <r>    0.1978    1.0000 </r>
       <r>    3.2861    1.0000 </r>
       <r>    3.2861    1.0000 </r>
       <r>    6.5074    0.0000 </r>
       <r>    7.4563    0.0000 </r>
       <r>   13.9142    0.0000 </r>
       <r>   13.9142    0.0000 </r>
      </set>
      <set comment="kpoint 12">
       <r>   -3.8971    1.0000 </r>
       <r>    0.4237    1.0000 </r>
       <r>    3.3402    1.0000 </r>
       <r>    3.3402    1.0000 </r>
       <r>    6.5368    0.0000 </r>
       <r>    7.5886    0.0000 </r>
       <r>   13.6721    0.0000 </r>
       <r>   13.6721    0.0000 </r>
      </set>
      <set comment="kpoint 13">
       <r>   -4.0482    1.0000 </r>
       <r>    0.6510    1.0000 </r>
       <r>    3.3992    1.0000 </r>
       <r>    3.3992    1.0000 </r>
       <r>    6.5725    0.0000 </r>
       <r>    7.7294    0.0000 </r>
       <r>   13.4317    0.0000 </r>
       <r>   13.4318    0.0000 </r>
      </set>
      <set comment="kpoint 14">
       <r>   -4.1945    1.0000 </r>
       <r>    0.8795    1.0000 </r>
       <r>    3.4632    1.0000 </r>
       <r>    3.4632    1.0000 </r>
       <r>    6.6143    0.0000 </r>
       <r>    7.8785    0.0000 </r>
       <r>   13.1927    0.0000 </r>
       <r>   13.1927    0.0000 </r>
      </set>
      <set comment="kpoint 15">
       <r>   -4.3358    1.0000 </r>
       <r>    1.1090    1.0000 </r>
       <r>    3.5320    1.0000 </r>
       <r>    3.5320    1.0000 </r>
       <r>    6.6620    0.0000 </r>
       <r>    8.0357    0.0000 </r>
       <r>   12.9551    0.0000 </r>
       <r>   12.9551    0.0000 </r>
      </set>
      <set comment="kpoint 16">
       <r>   -4.4721    1.0000 </r>
       <r>    1.3393    1.0000 </r>
       <r>    3.6056    1.0000 </r>
       <r>    3.6056    1.0000 </r>
       <r>    6.7156    0.0000 </r>
       <r>    8.2008    0.0000 </r>
       <r>   12.7190    0.0000 </r>
       <r>   12.7190    0.0000 </r>
      </set>
      <set comment="kpoint 17">
       <r>   -4.6033    1.0000 </r>
       <r>    1.5702    1.0000 </r>
       <r>    3.6839    1.0000 </r>
       <r>    3.6839    1.0000 </r>
       <r>    6.7746    0.0000 </r>
       <r>    8.3734    0.0000 </r>
       <r>   12.4845    0.0000 </r>
       <r>   12.4845    0.0000 </r>
      </set>
      <set comment="kpoint 18">
       <r>   -4.7293    1.0000 </r>
       <r>    1.8014    1.0000 </r>
       <r>    3.7668    1.0000 </r>
       <r>    3.7668    1.0000 </r>
       <r>    6.8388    0.0000 </r>
       <r>    8.5531    0.0000 </r>
       <r>   12.2516    0.0000 </r>
       <r>   12.2516    0.0000 </r>
      </set>
      <set comment="kpoint 19">
       <r>   -4.8501    1.0000 </r>
       <r>    2.0329    1.0000 </r>
       <r>    3.8542    1.0000 </r>
       <r>    3.8542    1.0000 </r>
       <r>    6.9081    0.0000 </r>
       <r>    8.7391    0.0000 </r>
       <r>   12.0205    0.0000 </r>
       <r>   12.0205    0.0000 </r>
      </set>
      <set comment="kpoint 20">
       <r>   -4.9657    1.0000 </r>
       <r>    2.2642    1.0000 </r>
       <r>    3.9458    1.0000 </r>
       <r>    3.9458    1.0000 </r>
       <r>    6.9816    0.0000 </r>
       <r>    8.9304    0.0000 </r>
       <r>   11.7895    0.0000 </r>
       <r>   11.7895    0.0000 </r>
      </set>
      <set comment="kpoint 21">
       <r>   -5.0759    1.0000 </r>
       <r>    2.4953    1.0000 </r>
       <r>    4.0417    1.0000 </r>
       <r>    4.0417    1.0000 </r>
       <r>    7.0600    0.0000 </r>
       <r>    9.1263    0.0000 </r>
       <r>   11.5623    0.0000 </r>
       <r>   11.5623    0.0000 </r>
      </set>
      <set comment="kpoint 22">
       <r>   -5.1808    1.0000 </r>
       <r>    2.7261    1.0000 </r>
       <r>    4.1418    1.0000 </r>
       <r>    4.1418    1.0000 </r>
       <r>    7.1427    0.0000 </r>
       <r>    9.3250    0.0000 </r>
       <r>   11.3379    0.0000 </r>
       <r>   11.3379    0.0000 </r>
      </set>
      <set comment="kpoint 23">
       <r>   -5.2802    1.0000 </r>
       <r>    2.9561    1.0000 </r>
       <r>    4.2456    1.0000 </r>
       <r>    4.2456    1.0000 </r>
       <r>    7.2287    0.0000 </r>
       <r>    9.5240    0.0000 </r>
       <r>   11.1154    0.0000 </r>
       <r>   11.1154    0.0000 </r>
      </set>
      <set comment="kpoint 24">
       <r>   -5.3741    1.0000 </r>
       <r>    3.1851    1.0000 </r>
       <r>    4.3530    1.0000 </r>
       <r>    4.3530    1.0000 </r>
       <r>    7.3180    0.0000 </r>
       <r>    9.7198    0.0000 </r>
       <r>   10.8957    0.0000 </r>
       <r>   10.8957    0.0000 </r>
      </set>
      <set comment="kpoint 25">
       <r>   -5.4625    1.0000 </r>
       <r>    3.4128    1.0000 </r>
       <r>    4.4637    1.0000 </r>
       <r>    4.4637    1.0000 </r>
       <r>    7.4098    0.0000 </r>
       <r>    9.9076    0.0000 </r>
       <r>   10.6790    0.0000 </r>
       <r>   10.6790    0.0000 </r>
      </set>
      <set comment="kpoint 26">
       <r>   -5.5454    1.0000 </r>
       <r>    3.6388    1.0000 </r>
       <r>    4.5774    1.0000 </r>
       <r>    4.5774    1.0000 </r>
       <r>    7.5037    0.0000 </r>
       <r>   10.0796    0.0000 </r>
       <r>   10.4657    0.0000 </r>
       <r>   10.4657    0.0000 </r>
      </set>
      <set comment="kpoint 27">
       <r>   -5.6227    1.0000 </r>
       <r>    3.8628    1.0000 </r>
       <r>    4.6935    1.0000 </r>
       <r>    4.6935    1.0000 </r>
       <r>    7.5989    0.0000 </r>
       <r>   10.2265    0.0000 </r>
       <r>   10.2564    0.0000 </r>
       <r>   10.2564    0.0000 </r>
      </set>
      <set comment="kpoint 28">
       <r>   -5.6944    1.0000 </r>
       <r>    4.0840    1.0000 </r>
       <r>    4.8118    1.0000 </r>
       <r>    4.8118    1.0000 </r>
       <r>    7.6948    0.0000 </r>
       <r>   10.0518    0.0000 </r>
       <r>   10.0518    0.0000 </r>
       <r>   10.3311    0.0000 </r>
      </set>
      <set comment="kpoint 29">
       <r>   -5.7605    1.0000 </r>
       <r>    4.3016    1.0000 </r>
       <r>    4.9314    1.0000 </r>
       <r>    4.9314    1.0000 </r>
       <r>    7.7904    0.0000 </r>
       <r>    9.8522    0.0000 </r>
       <r>    9.8522    0.0000 </r>
       <r>   10.3797    0.0000 </r>
      </set>
      <set comment="kpoint 30">
       <r>   -5.8209    1.0000 </r>
       <r>    4.5148    1.0000 </r>
       <r>    5.0517    1.0000 </r>
       <r>    5.0517    1.0000 </r>
       <r>    7.8847    0.0000 </r>
       <r>    9.6586    0.0000 </r>
       <r>    9.6586    0.0000 </r>
       <r>   10.3657    0.0000 </r>
      </set>
      <set comment="kpoint 31">
       <r>   -5.8756    1.0000 </r>
       <r>    4.7225    1.0000 </r>
       <r>    5.1715    1.0000 </r>
       <r>    5.1715    1.0000 </r>
       <r>    7.9764    0.0000 </r>
       <r>    9.4714    0.0000 </r>
       <r>    9.4714    0.0000 </r>
       <r>   10.2947    0.0000 </r>
      </set>
      <set comment="kpoint 32">
       <r>   -5.9247    1.0000 </r>
       <r>    4.9229    1.0000 </r>
       <r>    5.2898    1.0000 </r>
       <r>    5.2898    1.0000 </r>
       <r>    8.0645    0.0000 </r>
       <r>    9.2934    0.0000 </r>
       <r>    9.2934    0.0000 </r>
       <r>   10.1823    0.0000 </r>
      </set>
      <set comment="kpoint 33">
       <r>   -5.9679    1.0000 </r>
       <r>    5.1142    1.0000 </r>
       <r>    5.4048    1.0000 </r>
       <r>    5.4048    1.0000 </r>
       <r>    8.1476    0.0000 </r>
       <r>    9.1254    0.0000 </r>
       <r>    9.1254    0.0000 </r>
       <r>   10.0455    0.0000 </r>
      </set>
      <set comment="kpoint 34">
       <r>   -6.0055    1.0000 </r>
       <r>    5.2938    1.0000 </r>
       <r>    5.5146    1.0000 </r>
       <r>    5.5146    1.0000 </r>
       <r>    8.2242    0.0000 </r>
       <r>    8.9696    0.0000 </r>
       <r>    8.9696    0.0000 </r>
       <r>    9.8989    0.0000 </r>
      </set>
      <set comment="kpoint 35">
       <r>   -6.0373    1.0000 </r>
       <r>    5.4582    1.0000 </r>
       <r>    5.6167    1.0000 </r>
       <r>    5.6167    1.0000 </r>
       <r>    8.2926    0.0000 </r>
       <r>    8.8285    0.0000 </r>
       <r>    8.8285    0.0000 </r>
       <r>    9.7538    0.0000 </r>
      </set>
      <set comment="kpoint 36">
       <r>   -6.0633    1.0000 </r>
       <r>    5.6033    1.0000 </r>
       <r>    5.7080    1.0000 </r>
       <r>    5.7080    1.0000 </r>
       <r>    8.3514    0.0000 </r>
       <r>    8.7052    0.0000 </r>
       <r>    8.7052    0.0000 </r>
       <r>    9.6195    0.0000 </r>
      </set>
      <set comment="kpoint 37">
       <r>   -6.0836    1.0000 </r>
       <r>    5.7244    1.0000 </r>
       <r>    5.7849    1.0000 </r>
       <r>    5.7849    1.0000 </r>
       <r>    8.3990    0.0000 </r>
       <r>    8.6033    0.0000 </r>
       <r>    8.6033    0.0000 </r>
       <r>    9.5043    0.0000 </r>
      </set>
      <set comment="kpoint 38">
       <r>   -6.0980    1.0000 </r>
       <r>    5.8162    1.0000 </r>
       <r>    5.8437    1.0000 </r>
       <r>    5.8437    1.0000 </r>
       <r>    8.4340    0.0000 </r>
       <r>    8.5267    0.0000 </r>
       <r>    8.5267    0.0000 </r>
       <r>    9.4155    0.0000 </r>
      </set>
      <set comment="kpoint 39">
       <r>   -6.1067    1.0000 </r>
       <r>    5.8738    1.0000 </r>
       <r>    5.8807    1.0000 </r>
       <r>    5.8807    1.0000 </r>
       <r>    8.4555    0.0000 </r>
       <r>    8.4790    0.0000 </r>
       <r>    8.4790    0.0000 </r>
       <r>    9.3593    0.0000 </r>
      </set>
      <set comment="kpoint 40">
       <r>   -6.1096    1.0000 </r>
       <r>    5.8934    1.0000 </r>
       <r>    5.8934    1.0000 </r>
       <r>    5.8934    1.0000 </r>
       <r>    8.4628    0.0000 </r>
       <r>    8.4628    0.0000 </r>
       <r>    8.4628    0.0000 </r>
       <r>    9.3400    0.0000 </r>
      </set>
      <set comment="kpoint 41">
       <r>   -6.1096    1.0000 </r>
       <r>    5.8934    1.0000 </r>
       <r>    5.8934    1.0000 </r>
       <r>    5.8934    1.0000 </r>
       <r>    8.4628    0.0000 </r>
       <r>    8.4628    0.0000 </r>
       <r>    8.4628    0.0000 </r>
       <r>    9.3400    0.0000 </r>
      </set>
      <set comment="kpoint 42">
       <r>   -6.1067    1.0000 </r>
       <r>    5.8738    1.0000 </r>
       <r>    5.8807    1.0000 </r>
       <r>    5.8807    1.0000 </r>
       <r>    8.4555    0.0000 </r>
       <r>    8.4790    0.0000 </r>
       <r>    8.4790    0.0000 </r>
       <r>    9.3593    0.0000 </r>
      </set>
      <set comment="kpoint 43">
       <r>   -6.0980    1.0000 </r>
       <r>    5.8162    1.0000 </r>
       <r>    5.8437    1.0000 </r>
       <r>    5.8437    1.0000 </r>
       <r>    8.4340    0.0000 </r>
       <r>    8.5267    0.0000 </r>
       <r>    8.5267    0.0000 </r>
       <r>    9.4155    0.0000 </r>
      </set>
      <set comment="kpoint 44">
       <r>   -6.0836    1.0000 </r>
       <r>    5.7244    1.0000 </r>
       <r>    5.7849    1.0000 </r>
       <r>    5.7849    1.0000 </r>
       <r>    8.3990    0.0000 </r>
       <r>    8.6033    0.0000 </r>
       <r>    8.6033    0.0000 </r>
       <r>    9.5043    0.0000 </r>
      </set>
      <set comment="kpoint 45">
       <r>   -6.0633    1.0000 </r>
       <r>    5.6033    1.0000 </r>
       <r>    5.7080    1.0000 </r>
       <r>    5.7080    1.0000 </r>
       <r>    8.3514    0.0000 </r>
       <r>    8.7052    0.0000 </r>
       <r>    8.7052    0.0000 </r>
       <r>    9.6195    0.0000 </r>
      </set>
      <set comment="kpoint 46">
       <r>   -6.0373    1.0000 </r>
       <r>    5.4582    1.0000 </r>
       <r>    5.6167    1.0000 </r>
       <r>    5.6167    1.0000 </r>
       <r>    8.2926    0.0000 </r>
       <r>    8.8285    0.0000 </r>
       <r>    8.8285    0.0000 </r>
       <r>    9.7538    0.0000 </r>
      </set>
      <set comment="kpoint 47">
       <r>   -6.0055    1.0000 </r>
       <r>    5.2938    1.0000 </r>
       <r>    5.5146    1.0000 </r>
       <r>    5.5146    1.0000 </r>
       <r>    8.2242    0.0000 </r>
       <r>    8.9696    0.0000 </r>
       <r>    8.9696    0.0000 </r>
       <r>    9.8989    0.0000 </r>
      </set>
      <set comment="kpoint 48">
       <r>   -5.9679    1.0000 </r>
       <r>    5.1142    1.0000 </r>
       <r>    5.4048    1.0000 </r>
       <r>    5.4048    1.0000 </r>
       <r>    8.1476    0.0000 </r>
       <r>    9.1254    0.0000 </r>
       <r>    9.1254    0.0000 </r>
       <r>   10.0455    0.0000 </r>
      </set>
      <set comment="kpoint 49">
       <r>   -5.9247    1.0000 </r>
       <r>    4.9229    1.0000 </r>
       <r>    5.2898    1.0000 </r>
       <r>    5.2898    1.0000 </r>
       <r>    8.0645    0.0000 </r>
       <r>    9.2934    0.0000 </r>
       <r>    9.2934    0.0000 </r>
       <r>   10.1823    0.0000 </r>
      </set>
      <set comment="kpoint 50">
       <r>   -5.8756    1.0000 </r>
       <r>    4.7225    1.0000 </r>
       <r>    5.1715    1.0000 </r>
       <r>    5.1715    1.0000 </r>
       <r>    7.9764    0.0000 </r>
       <r>    9.4714    0.0000 </r>
       <r>    9.4714    0.0000 </r>
       <r>   10.2947    0.0000 </r>
      </set>
      <set comment="kpoint 51">
       <r>   -5.8209    1.0000 </r>
       <r>    4.5148    1.0000 </r>
       <r>    5.0517    1.0000 </r>
       <r>    5.0517    1.0000 </r>
       <r>    7.8847    0.0000 </r>
       <r>    9.6586    0.0000 </r>
       <r>    9.6586    0.0000 </r>
       <r>   10.3657    0.0000 </r>
      </set>
      <set comment="kpoint 52">
       <r>   -5.7605    1.0000 </r>
       <r>    4.3016    1.0000 </r>
       <r>    4.9314    1.0000 </r>
       <r>    4.9314    1.0000 </r>
       <r>    7.7904    0.0000 </r>
       <r>    9.8522    0.0000 </r>
       <r>    9.8522    0.0000 </r>
       <r>   10.3797    0.0000 </r>
      </set>
      <set comment="kpoint 53">
       <r>   -5.6944    1.0000 </r>
       <r>    4.0840    1.0000 </r>
       <r>    4.8118    1.0000 </r>
       <r>    4.8118    1.0000 </r>
       <r>    7.6948    0.0000 </r>
       <r>   10.0518    0.0000 </r>
       <r>   10.0518    0.0000 </r>
       <r>   10.3311    0.0000 </r>
      </set>
      <set comment="kpoint 54">
       <r>   -5.6227    1.0000 </r>
       <r>    3.8628    1.0000 </r>
       <r>    4.6935    1.0000 </r>
       <r>    4.6935    1.0000 </r>
       <r>    7.5989    0.0000 </r>
       <r>   10.2265    0.0000 </r>
       <r>   10.2564    0.0000 </r>
       <r>   10.2564    0.0000 </r>
      </set>
      <set comment="kpoint 55">
       <r>   -5.5454    1.0000 </r>
       <r>    3.6388    1.0000 </r>
       <r>    4.5774    1.0000 </r>
       <r>    4.5774    1.0000 </r>
       <r>    7.5037    0.0000 </r>
       <r>   10.0796    0.0000 </r>
       <r>   10.4657    0.0000 </r>
       <r>   10.4657    0.0000 </r>
      </set>
      <set comment="kpoint 56">
       <r>   -5.4625    1.0000 </r>
       <r>    3.4128    1.0000 </r>
       <r>    4.4637    1.0000 </r>
       <r>    4.4637    1.0000 </r>
       <r>    7.4098    0.0000 </r>
       <r>    9.9076    0.0000 </r>
       <r>   10.6790    0.0000 </r>
       <r>   10.6790    0.0000 </r>
      </set>
      <set comment="kpoint 57">
       <r>   -5.3741    1.0000 </r>
       <r>    3.1851    1.0000 </r>
       <r>    4.3530    1.0000 </r>
       <r>    4.3530    1.0000 </r>
       <r>    7.3180    0.0000 </r>
       <r>    9.7198    0.0000 </r>
       <r>   10.8957    0.0000 </r>
       <r>   10.8957    0.0000 </r>
      </set>
      <set comment="kpoint 58">
       <r>   -5.2802    1.0000 </r>
       <r>    2.9561    1.0000 </r>
       <r>    4.2456    1.0000 </r>
       <r>    4.2456    1.0000 </r>
       <r>    7.2287    0.0000 </r>
       <r>    9.5240    0.0000 </r>
       <r>   11.1154    0.0000 </r>
       <r>   11.1154    0.0000 </r>
      </set>
      <set comment="kpoint 59">
       <r>   -5.1808    1.0000 </r>
       <r>    2.7261    1.0000 </r>
       <r>    4.1418    1.0000 </r>
       <r>    4.1418    1.0000 </r>
       <r>    7.1427    0.0000 </r>
       <r>    9.3250    0.0000 </r>
       <r>   11.3379    0.0000 </r>
       <r>   11.3379    0.0000 </r>
      </set>
      <set comment="kpoint 60">
       <r>   -5.0759    1.0000 </r>
       <r>    2.4953    1.0000 </r>
       <r>    4.0417    1.0000 </r>
       <r>    4.0417    1.0000 </r>
       <r>    7.0600    0.0000 </r>
       <r>    9.1263    0.0000 </r>
       <r>   11.5623    0.0000 </r>
       <r>   11.5623    0.0000 </r>
      </set>
      <set comment="kpoint 61">
       <r>   -4.9657    1.0000 </r>
       <r>    2.2642    1.0000 </r>
       <r>    3.9458    1.0000 </r>
       <r>    3.9458    1.0000 </r>
       <r>    6.9816    0.0000 </r>
       <r>    8.9304    0.0000 </r>
       <r>   11.7895    0.0000 </r>
       <r>   11.7895    0.0000 </r>
      </set>
      <set comment="kpoint 62">
       <r>   -4.8501    1.0000 </r>
       <r>    2.0329    1.0000 </r>
       <r>    3.8542    1.0000 </r>
       <r>    3.8542    1.0000 </r>
       <r>    6.9081    0.0000 </r>
       <r>    8.7391    0.0000 </r>
       <r>   12.0205    0.0000 </r>
       <r>   12.0205    0.0000 </r>
      </set>
      <set comment="kpoint 63">
       <r>   -4.7293    1.0000 </r>
       <r>    1.8014    1.0000 </r>
       <r>    3.7668    1.0000 </r>
       <r>    3.7668    1.0000 </r>
       <r>    6.8388    0.0000 </r>
       <r>    8.5531    0.0000 </r>
       <r>   12.2516    0.0000 </r>
       <r>   12.2516    0.0000 </r>
      </set>
      <set comment="kpoint 64">
       <r>   -4.6033    1.0000 </r>
       <r>    1.5702    1.0000 </r>
       <r>    3.6839    1.0000 </r>
       <r>    3.6839    1.0000 </r>
       <r>    6.7746    0.0000 </r>
       <r>    8.3734    0.0000 </r>
       <r>   12.4845    0.0000 </r>
       <r>   12.4845    0.0000 </r>
      </set>
      <set comment="kpoint 65">
       <r>   -4.4721    1.0000 </r>
       <r>    1.3393    1.0000 </r>
       <r>    3.6056    1.0000 </r>
       <r>    3.6056    1.0000 </r>
       <r>    6.7156    0.0000 </r>
       <r>    8.2008    0.0000 </r>
       <r>   12.7190    0.0000 </r>
       <r>   12.7190    0.0000 </r>
      </set>
      <set comment="kpoint 66">
       <r>   -4.3358    1.0000 </r>
       <r>    1.1090    1.0000 </r>
       <r>    3.5320    1.0000 </r>
       <r>    3.5320    1.0000 </r>
       <r>    6.6620    0.0000 </r>
       <r>    8.0357    0.0000 </r>
       <r>   12.9551    0.0000 </r>
       <r>   12.9551    0.0000 </r>
      </set>
      <set comment="kpoint 67">
       <r>   -4.1945    1.0000 </r>
       <r>    0.8795    1.0000 </r>
       <r>    3.4632    1.0000 </r>
       <r>    3.4632    1.0000 </r>
       <r>    6.6143    0.0000 </r>
       <r>    7.8785    0.0000 </r>
       <r>   13.1927    0.0000 </r>
       <r>   13.1927    0.0000 </r>
      </set>
      <set comment="kpoint 68">
       <r>   -4.0482    1.0000 </r>
       <r>    0.6510    1.0000 </r>
       <r>    3.3992    1.0000 </r>
       <r>    3.3992    1.0000 </r>
       <r>    6.5725    0.0000 </r>
       <r>    7.7294    0.0000 </r>
       <r>   13.4317    0.0000 </r>
       <r>   13.4318    0.0000 </r>
      </set>
      <set comment="kpoint 69">
       <r>   -3.8971    1.0000 </r>
       <r>    0.4237    1.0000 </r>
       <r>    3.3402    1.0000 </r>
       <r>    3.3402    1.0000 </r>
       <r>    6.5368    0.0000 </r>
       <r>    7.5886    0.0000 </r>
       <r>   13.6721    0.0000 </r>
       <r>   13.6721    0.0000 </r>
      </set>
      <set comment="kpoint 70">
       <r>   -3.7411    1.0000 </r>
       <r>    0.1978    1.0000 </r>
       <r>    3.2861    1.0000 </r>
       <r>    3.2861    1.0000 </r>
       <r>    6.5074    0.0000 </r>
       <r>    7.4563    0.0000 </r>
       <r>   13.9142    0.0000 </r>
       <r>   13.9142    0.0000 </r>
      </set>
      <set comment="kpoint 71">
       <r>   -3.5805    1.0000 </r>
       <r>   -0.0266    1.0000 </r>
       <r>    3.2370    1.0000 </r>
       <r>    3.2370    1.0000 </r>
       <r>    6.4837    0.0000 </r>
       <r>    7.3322    0.0000 </r>
       <r>   14.1558    0.0000 </r>
       <r>   14.1558    0.0000 </r>
      </set>
      <set comment="kpoint 72">
       <r>   -3.4153    1.0000 </r>
       <r>   -0.2491    1.0000 </r>
       <r>    3.1930    1.0000 </r>
       <r>    3.1930    1.0000 </r>
       <r>    6.4676    0.0000 </r>
       <r>    7.2169    0.0000 </r>
       <r>   14.3993    0.0000 </r>
       <r>   14.3993    0.0000 </r>
      </set>
      <set comment="kpoint 73">
       <r>   -3.2456    1.0000 </r>
       <r>   -0.4697    1.0000 </r>
       <r>    3.1541    1.0000 </r>
       <r>    3.1541    1.0000 </r>
       <r>    6.4581    0.0000 </r>
       <r>    7.1100    0.0000 </r>
       <r>   14.6445    0.0000 </r>
       <r>   14.6445    0.0000 </r>
      </set>
      <set comment="kpoint 74">
       <r>   -3.0715    1.0000 </r>
       <r>   -0.6880    1.0000 </r>
       <r>    3.1203    1.0000 </r>
       <r>    3.1203    1.0000 </r>
       <r>    6.4555    0.0000 </r>
       <r>    7.0114    0.0000 </r>
       <r>   14.8884    0.0000 </r>
       <r>   14.8885    0.0000 </r>
      </set>
      <set comment="kpoint 75">
       <r>   -2.8931    1.0000 </r>
       <r>   -0.9040    1.0000 </r>
       <r>    3.0916    1.0000 </r>
       <r>    3.0916    1.0000 </r>
       <r>    6.4599    0.0000 </r>
       <r>    6.9212    0.0000 </r>
       <r>   15.1312    0.0000 </r>
       <r>   15.1312    0.0000 </r>
      </set>
      <set comment="kpoint 76">
       <r>   -2.7106    1.0000 </r>
       <r>   -1.1174    1.0000 </r>
       <r>    3.0682    1.0000 </r>
       <r>    3.0682    1.0000 </r>
       <r>    6.4716    0.0000 </r>
       <r>    6.8393    0.0000 </r>
       <r>   15.3708    0.0000 </r>
       <r>   15.3708    0.0000 </r>
      </set>
      <set comment="kpoint 77">
       <r>   -2.5240    1.0000 </r>
       <r>   -1.3280    1.0000 </r>
       <r>    3.0499    1.0000 </r>
       <r>    3.0499    1.0000 </r>
       <r>    6.4906    0.0000 </r>
       <r>    6.7656    0.0000 </r>
       <r>   15.6035    0.0000 </r>
       <r>   15.6035    0.0000 </r>
      </set>
      <set comment="kpoint 78">
       <r>   -2.3336    1.0000 </r>
       <r>   -1.5357    1.0000 </r>
       <r>    3.0369    1.0000 </r>
       <r>    3.0369    1.0000 </r>
       <r>    6.5171    0.0000 </r>
       <r>    6.7001    0.0000 </r>
       <r>   15.8196    0.0000 </r>
       <r>   15.8201    0.0000 </r>
      </set>
      <set comment="kpoint 79">
       <r>   -2.1394    1.0000 </r>
       <r>   -1.7403    1.0000 </r>
       <r>    3.0290    1.0000 </r>
       <r>    3.0290    1.0000 </r>
       <r>    6.5510    0.0000 </r>
       <r>    6.6423    0.0000 </r>
       <r>   15.9938    0.0000 </r>
       <r>   15.9942    0.0000 </r>
      </set>
      <set comment="kpoint 80">
       <r>   -1.9416    1.0000 </r>
       <r>   -1.9416    1.0000 </r>
       <r>    3.0264    1.0000 </r>
       <r>    3.0264    1.0000 </r>
       <r>    6.5928    0.0000 </r>
       <r>    6.5928    0.0000 </r>
       <r>   16.0684    0.0000 </r>
       <r>   16.0695    0.0000 </r>
      </set>
     </set>
    </set>
   </array>
  </eigenvalues>
  <separator name="orbital magnetization" >
   <v name="MAGDIPOLOUT">      0.00000000      0.00000000      0.00000000</v>
  </separator>
  <dos>
   <i name="efermi">      6.12409743 </i>
   <total>
    <array>
     <dimension dim="1">gridpoints</dimension>
     <dimension dim="2">spin</dimension>
     <field>energy</field>
     <field>total</field>
     <field>integrated</field>
     <set>
      <set comment="spin 1">
       <r>    -7.2186     0.0000     0.0000 </r>
       <r>    -7.1373     0.0000     0.0000 </r>
       <r>    -7.0559     0.0000     0.0000 </r>
       <r>    -6.9746     0.0000     0.0000 </r>
       <r>    -6.8933     0.0000     0.0000 </r>
       <r>    -6.8120     0.0000     0.0000 </r>
       <r>    -6.7306     0.0000     0.0000 </r>
       <r>    -6.6493     0.0000     0.0000 </r>
       <r>    -6.5680     0.0000     0.0000 </r>
       <r>    -6.4867     0.0000     0.0000 </r>
       <r>    -6.4053     0.0000     0.0000 </r>
       <r>    -6.3240     0.0000     0.0000 </r>
       <r>    -6.2427     0.0001     0.0000 </r>
       <r>    -6.1614     0.1144     0.0093 </r>
       <r>    -6.0800     1.8883     0.1629 </r>
       <r>    -5.9987     2.0564     0.3301 </r>
       <r>    -5.9174     1.2408     0.4310 </r>
       <r>    -5.8360     0.9791     0.5107 </r>
       <r>    -5.7547     0.8394     0.5789 </r>
       <r>    -5.6734     0.7470     0.6397 </r>
       <r>    -5.5921     0.6797     0.6949 </r>
       <r>    -5.5107     0.6292     0.7461 </r>
       <r>    -5.4294     0.5912     0.7942 </r>
       <r>    -5.3481     0.5607     0.8398 </r>
       <r>    -5.2668     0.5276     0.8827 </r>
       <r>    -5.1854     0.4861     0.9222 </r>
       <r>    -5.1041     0.4629     0.9599 </r>
       <r>    -5.0228     0.4852     0.9993 </r>
       <r>    -4.9414     0.4744     1.0379 </r>
       <r>    -4.8601     0.3864     1.0694 </r>
       <r>    -4.7788     0.4130     1.1029 </r>
       <r>    -4.6975     0.4678     1.1410 </r>
       <r>    -4.6161     0.3303     1.1679 </r>
       <r>    -4.5348     0.4023     1.2006 </r>
       <r>    -4.4535     0.4238     1.2350 </r>
       <r>    -4.3722     0.2758     1.2575 </r>
       <r>    -4.2908     0.4623     1.2951 </r>
       <r>    -4.2095     0.2666     1.3167 </r>
       <r>    -4.1282     0.3974     1.3491 </r>
       <r>    -4.0469     0.3281     1.3758 </r>
       <r>    -3.9655     0.3084     1.4008 </r>
       <r>    -3.8842     0.3844     1.4321 </r>
       <r>    -3.8029     0.2425     1.4518 </r>
       <r>    -3.7215     0.4141     1.4855 </r>
       <r>    -3.6402     0.2051     1.5022 </r>
       <r>    -3.5589     0.4220     1.5365 </r>
       <r>    -3.4776     0.1890     1.5519 </r>
       <r>    -3.3962     0.4105     1.5853 </r>
       <r>    -3.3149     0.1953     1.6011 </r>
       <r>    -3.2336     0.3751     1.6316 </r>
       <r>    -3.1523     0.2300     1.6504 </r>
       <r>    -3.0709     0.3069     1.6753 </r>
       <r>    -2.9896     0.2992     1.6996 </r>
       <r>    -2.9083     0.2097     1.7167 </r>
       <r>    -2.8269     0.3910     1.7485 </r>
       <r>    -2.7456     0.1175     1.7580 </r>
       <r>    -2.6643     0.4574     1.7952 </r>
       <r>    -2.5830     0.0878     1.8024 </r>
       <r>    -2.5016     0.4237     1.8368 </r>
       <r>    -2.4203     0.1651     1.8503 </r>
       <r>    -2.3390     0.2668     1.8720 </r>
       <r>    -2.2577     0.3351     1.8992 </r>
       <r>    -2.1763     0.1005     1.9074 </r>
       <r>    -2.0950     0.4594     1.9448 </r>
       <r>    -2.0137     0.0897     1.9521 </r>
       <r>    -1.9324     0.7160     2.0103 </r>
       <r>    -1.8510     0.4824     2.0495 </r>
       <r>    -1.7697     0.1306     2.0601 </r>
       <r>    -1.6884     0.4465     2.0965 </r>
       <r>    -1.6070     0.0570     2.1011 </r>
       <r>    -1.5257     0.3624     2.1306 </r>
       <r>    -1.4444     0.2363     2.1498 </r>
       <r>    -1.3631     0.1016     2.1580 </r>
       <r>    -1.2817     0.4574     2.1952 </r>
       <r>    -1.2004     0.0642     2.2005 </r>
       <r>    -1.1191     0.2901     2.2241 </r>
       <r>    -1.0378     0.3116     2.2494 </r>
       <r>    -0.9564     0.0499     2.2535 </r>
       <r>    -0.8751     0.4452     2.2897 </r>
       <r>    -0.7938     0.1274     2.3000 </r>
       <r>    -0.7124     0.1503     2.3122 </r>
       <r>    -0.6311     0.4312     2.3473 </r>
       <r>    -0.5498     0.0402     2.3506 </r>
       <r>    -0.4685     0.3086     2.3757 </r>
       <r>    -0.3871     0.2931     2.3995 </r>
       <r>    -0.3058     0.0394     2.4027 </r>
       <r>    -0.2245     0.4319     2.4378 </r>
       <r>    -0.1432     0.1489     2.4500 </r>
       <r>    -0.0618     0.0985     2.4580 </r>
       <r>     0.0195     0.4577     2.4952 </r>
       <r>     0.1008     0.0610     2.5001 </r>
       <r>     0.1821     0.2005     2.5165 </r>
       <r>     0.2635     0.3931     2.5484 </r>
       <r>     0.3448     0.0273     2.5506 </r>
       <r>     0.4261     0.3164     2.5764 </r>
       <r>     0.5075     0.2851     2.5996 </r>
       <r>     0.5888     0.0296     2.6020 </r>
       <r>     0.6701     0.4096     2.6353 </r>
       <r>     0.7514     0.1798     2.6499 </r>
       <r>     0.8328     0.0584     2.6546 </r>
       <r>     0.9141     0.4567     2.6918 </r>
       <r>     0.9954     0.1010     2.7000 </r>
       <r>     1.0767     0.1109     2.7090 </r>
       <r>     1.1581     0.4530     2.7459 </r>
       <r>     1.2394     0.0522     2.7501 </r>
       <r>     1.3207     0.1827     2.7650 </r>
       <r>     1.4021     0.4073     2.7981 </r>
       <r>     1.4834     0.0277     2.8004 </r>
       <r>     1.5647     0.2653     2.8219 </r>
       <r>     1.6460     0.3354     2.8492 </r>
       <r>     1.7274     0.0209     2.8509 </r>
       <r>     1.8087     0.3463     2.8791 </r>
       <r>     1.8900     0.2536     2.8997 </r>
       <r>     1.9713     0.0289     2.9020 </r>
       <r>     2.0527     0.4128     2.9356 </r>
       <r>     2.1340     0.1756     2.9499 </r>
       <r>     2.2153     0.0526     2.9542 </r>
       <r>     2.2966     0.4533     2.9910 </r>
       <r>     2.3780     0.1099     3.0000 </r>
       <r>     2.4593     0.0949     3.0077 </r>
       <r>     2.5406     0.4585     3.0450 </r>
       <r>     2.6220     0.0624     3.0501 </r>
       <r>     2.7033     0.1586     3.0630 </r>
       <r>     2.7846     0.4253     3.0976 </r>
       <r>     2.8659     0.0334     3.1003 </r>
       <r>     2.9473     0.2814     3.1232 </r>
       <r>     3.0286     2.6218     3.3364 </r>
       <r>     3.1099     5.0881     3.7502 </r>
       <r>     3.1912     3.3107     4.0194 </r>
       <r>     3.2726     2.4733     4.2206 </r>
       <r>     3.3539     1.8963     4.3748 </r>
       <r>     3.4352     2.0664     4.5428 </r>
       <r>     3.5166     1.6498     4.6770 </r>
       <r>     3.5979     1.4521     4.7951 </r>
       <r>     3.6792     1.7464     4.9371 </r>
       <r>     3.7605     1.2880     5.0419 </r>
       <r>     3.8419     1.3123     5.1486 </r>
       <r>     3.9232     1.5099     5.2714 </r>
       <r>     4.0045     1.0942     5.3604 </r>
       <r>     4.0858     1.3615     5.4711 </r>
       <r>     4.1672     1.3046     5.5772 </r>
       <r>     4.2485     0.9764     5.6566 </r>
       <r>     4.3298     1.3217     5.7641 </r>
       <r>     4.4111     1.0790     5.8519 </r>
       <r>     4.4925     1.1226     5.9432 </r>
       <r>     4.5738     1.2335     6.0435 </r>
       <r>     4.6551     0.8658     6.1139 </r>
       <r>     4.7365     1.3429     6.2231 </r>
       <r>     4.8178     1.0272     6.3067 </r>
       <r>     4.8991     0.8999     6.3798 </r>
       <r>     4.9804     1.3704     6.4913 </r>
       <r>     5.0618     0.9027     6.5647 </r>
       <r>     5.1431     1.1743     6.6602 </r>
       <r>     5.2244     1.0757     6.7477 </r>
       <r>     5.3057     1.2494     6.8493 </r>
       <r>     5.3871     1.0095     6.9314 </r>
       <r>     5.4684     1.2940     7.0366 </r>
       <r>     5.5497     1.2691     7.1399 </r>
       <r>     5.6311     1.4349     7.2566 </r>
       <r>     5.7124     1.4559     7.3750 </r>
       <r>     5.7937     1.9109     7.5304 </r>
       <r>     5.8750     3.2273     7.7928 </r>
       <r>     5.9564     2.4514     7.9922 </r>
       <r>     6.0377     0.0959     8.0000 </r>
       <r>     6.1190     0.0000     8.0000 </r>
       <r>     6.2003     0.0000     8.0000 </r>
       <r>     6.2817     0.0000     8.0000 </r>
       <r>     6.3630     0.0087     8.0007 </r>
       <r>     6.4443     1.1110     8.0911 </r>
       <r>     6.5256     4.1602     8.4294 </r>
       <r>     6.6070     3.1430     8.6850 </r>
       <r>     6.6883     2.1890     8.8630 </r>
       <r>     6.7696     1.6537     8.9975 </r>
       <r>     6.8510     1.4549     9.1158 </r>
       <r>     6.9323     1.3186     9.2231 </r>
       <r>     7.0136     1.2124     9.3217 </r>
       <r>     7.0949     1.1178     9.4126 </r>
       <r>     7.1763     1.0697     9.4996 </r>
       <r>     7.2576     1.0677     9.5864 </r>
       <r>     7.3389     0.9790     9.6660 </r>
       <r>     7.4202     0.8915     9.7385 </r>
       <r>     7.5016     0.9898     9.8190 </r>
       <r>     7.5829     0.8412     9.8875 </r>
       <r>     7.6642     0.8782     9.9589 </r>
       <r>     7.7456     0.9378    10.0351 </r>
       <r>     7.8269     0.7786    10.0985 </r>
       <r>     7.9082     0.9864    10.1787 </r>
       <r>     7.9895     0.7267    10.2378 </r>
       <r>     8.0709     1.0247    10.3211 </r>
       <r>     8.1522     0.7546    10.3825 </r>
       <r>     8.2335     1.1172    10.4733 </r>
       <r>     8.3148     0.9044    10.5469 </r>
       <r>     8.3962     1.5147    10.6701 </r>
       <r>     8.4775     3.2814    10.9369 </r>
       <r>     8.5588     2.8490    11.1686 </r>
       <r>     8.6401     1.4691    11.2881 </r>
       <r>     8.7215     1.1699    11.3833 </r>
       <r>     8.8028     1.0826    11.4713 </r>
       <r>     8.8841     0.9649    11.5498 </r>
       <r>     8.9655     1.0764    11.6373 </r>
       <r>     9.0468     0.7763    11.7004 </r>
       <r>     9.1281     0.9666    11.7791 </r>
       <r>     9.2094     0.8671    11.8496 </r>
       <r>     9.2908     0.7527    11.9108 </r>
       <r>     9.3721     1.9926    12.0728 </r>
       <r>     9.4534     1.2945    12.1781 </r>
       <r>     9.5347     1.7201    12.3180 </r>
       <r>     9.6161     0.8153    12.3843 </r>
       <r>     9.6974     1.4421    12.5016 </r>
       <r>     9.7787     1.0560    12.5875 </r>
       <r>     9.8601     1.0148    12.6700 </r>
       <r>     9.9414     1.4187    12.7854 </r>
       <r>    10.0227     0.6238    12.8361 </r>
       <r>    10.1040     1.7569    12.9790 </r>
       <r>    10.1854     0.6893    13.0351 </r>
       <r>    10.2667     1.6257    13.1673 </r>
       <r>    10.3480     1.6954    13.3051 </r>
       <r>    10.4293     1.2796    13.4092 </r>
       <r>    10.5107     0.9909    13.4898 </r>
       <r>    10.5920     0.1337    13.5007 </r>
       <r>    10.6733     0.5284    13.5436 </r>
       <r>    10.7546     0.6731    13.5984 </r>
       <r>    10.8360     0.0760    13.6046 </r>
       <r>    10.9173     0.8411    13.6730 </r>
       <r>    10.9986     0.3308    13.6999 </r>
       <r>    11.0800     0.1957    13.7158 </r>
       <r>    11.1613     0.9158    13.7903 </r>
       <r>    11.2426     0.1238    13.8003 </r>
       <r>    11.3239     0.4215    13.8346 </r>
       <r>    11.4053     0.7691    13.8972 </r>
       <r>    11.4866     0.0547    13.9016 </r>
       <r>    11.5679     0.6723    13.9563 </r>
       <r>    11.6492     0.5290    13.9993 </r>
       <r>    11.7306     0.0674    14.0048 </r>
       <r>    11.8119     0.8474    14.0737 </r>
       <r>    11.8932     0.3216    14.0998 </r>
       <r>    11.9746     0.1208    14.1097 </r>
       <r>    12.0559     0.9155    14.1841 </r>
       <r>    12.1372     0.1953    14.2000 </r>
       <r>    12.2185     0.2145    14.2175 </r>
       <r>    12.2999     0.9088    14.2914 </r>
       <r>    12.3812     0.1081    14.3002 </r>
       <r>    12.4625     0.3265    14.3267 </r>
       <r>    12.5438     0.8438    14.3953 </r>
       <r>    12.6252     0.0621    14.4004 </r>
       <r>    12.7065     0.4398    14.4362 </r>
       <r>    12.7878     0.7532    14.4974 </r>
       <r>    12.8691     0.0410    14.5008 </r>
       <r>    12.9505     0.5417    14.5448 </r>
       <r>    13.0318     0.6602    14.5985 </r>
       <r>    13.1131     0.0335    14.6012 </r>
       <r>    13.1945     0.6243    14.6520 </r>
       <r>    13.2758     0.5788    14.6991 </r>
       <r>    13.3571     0.0329    14.7017 </r>
       <r>    13.4384     0.6859    14.7575 </r>
       <r>    13.5198     0.5145    14.7994 </r>
       <r>    13.6011     0.0353    14.8022 </r>
       <r>    13.6824     0.7287    14.8615 </r>
       <r>    13.7637     0.4676    14.8995 </r>
       <r>    13.8451     0.0370    14.9025 </r>
       <r>    13.9264     0.7500    14.9635 </r>
       <r>    14.0077     0.4434    14.9996 </r>
       <r>    14.0891     0.0412    15.0029 </r>
       <r>    14.1704     0.7750    15.0660 </r>
       <r>    14.2517     0.4142    15.0997 </r>
       <r>    14.3330     0.0414    15.1030 </r>
       <r>    14.4144     0.7798    15.1665 </r>
       <r>    14.4957     0.4085    15.1997 </r>
       <r>    14.5770     0.0386    15.2028 </r>
       <r>    14.6583     0.7676    15.2652 </r>
       <r>    14.7397     0.4230    15.2996 </r>
       <r>    14.8210     0.0391    15.3028 </r>
       <r>    14.9023     0.7680    15.3653 </r>
       <r>    14.9836     0.4225    15.3996 </r>
       <r>    15.0650     0.0418    15.4030 </r>
       <r>    15.1463     0.7803    15.4665 </r>
       <r>    15.2276     0.4080    15.4997 </r>
       <r>    15.3090     0.0533    15.5040 </r>
       <r>    15.3903     0.8228    15.5709 </r>
       <r>    15.4716     0.3549    15.5998 </r>
       <r>    15.5529     0.0963    15.6076 </r>
       <r>    15.6343     0.8994    15.6808 </r>
       <r>    15.7156     0.2375    15.7001 </r>
       <r>    15.7969     0.3173    15.7259 </r>
       <r>    15.8782     0.8515    15.7951 </r>
       <r>    15.9596     0.2577    15.8161 </r>
       <r>    16.0409     1.1733    15.9115 </r>
       <r>    16.1222     1.0052    15.9933 </r>
       <r>    16.2036     0.0826    16.0000 </r>
       <r>    16.2849     0.0001    16.0000 </r>
       <r>    16.3662     0.0000    16.0000 </r>
       <r>    16.4475     0.0000    16.0000 </r>
       <r>    16.5289     0.0000    16.0000 </r>
       <r>    16.6102     0.0000    16.0000 </r>
       <r>    16.6915     0.0000    16.0000 </r>
       <r>    16.7728     0.0000    16.0000 </r>
       <r>    16.8542     0.0000    16.0000 </r>
       <r>    16.9355     0.0000    16.0000 </r>
       <r>    17.0168     0.0000    16.0000 </r>
       <r>    17.0982     0.0000    16.0000 </r>
       <r>    17.1795     0.0000    16.0000 </r>
      </set>
     </set>
    </array>
   </total>
   <partial>
    <array>
     <dimension dim="1">gridpoints</dimension>
     <dimension dim="2">spin</dimension>
     <dimension dim="3">ion</dimension>
     <field>energy</field>
     <field>    s</field>
     <field>   py</field>
     <field>   pz</field>
     <field>   px</field>
     <field>  dxy</field>
     <field>  dyz</field>
     <field>  dz2</field>
     <field>  dxz</field>
     <field>x2-y2</field>
     <set>
      <set comment="ion 1">
       <set comment="spin 1">
        <r>    -7.2186     0.0000     0.0000     0.0000     0.0000     0.0000     0.0000     0.0000     0.0000     0.0000 </r>
        <r>    -7.1373     0.0000     0.0000     0.0000     0.0000     0.0000     0.0000     0.0000     0.0000     0.0000 </r>
        <r>    -7.0559     0.0000     0.0000     0.0000     0.0000     0.0000     0.0000     0.0000     0.0000     0.0000 </r>
        <r>    -6.9746     0.0000     0.0000     0.0000     0.0000     0.0000     0.0000     0.0000     0.0000     0.0000 </r>
        <r>    -6.8933     0.0000     0.0000     0.0000     0.0000     0.0000     0.0000     0.0000     0.0000     0.0000 </r>
        <r>    -6.8120     0.0000     0.0000     0.0000     0.0000     0.0000     0.0000     0.0000     0.0000     0.0000 </r>
        <r>    -6.7306     0.0000     0.0000     0.0000     0.0000     0.0000     0.0000     0.0000     0.0000     0.0000 </r>
        <r>    -6.6493     0.0000     0.0000     0.0000     0.0000     0.0000     0.0000     0.0000     0.0000     0.0000 </r>
        <r>    -6.5680     0.0000     0.0000     0.0000     0.0000     0.0000     0.0000     0.0000     0.0000     0.0000 </r>
        <r>    -6.4867     0.0000     0.0000     0.0000     0.0000     0.0000     0.0000     0.0000     0.0000     0.0000 </r>
        <r>    -6.4053     0.0000     0.0000     0.0000     0.0000     0.0000     0.0000     0.0000     0.0000     0.0000 </r>
        <r>    -6.3240     0.0000     0.0000     0.0000     0.0000     0.0000     0.0000     0.0000     0.0000     0.0000 </r>
        <r>    -6.2427     0.0000     0.0000     0.0000     0.0000     0.0000     0.0000     0.0000     0.0000     0.0000 </r>
        <r>    -6.1614     0.0245     0.0000     0.0000     0.0000     0.0000     0.0000     0.0000     0.0000     0.0000 </r>
        <r>    -6.0800     0.4037     0.0001     0.0001     0.0001     0.0000     0.0000     0.0000     0.0000     0.0000 </r>
        <r>    -5.9987     0.4392     0.0004     0.0004     0.0004     0.0000     0.0000     0.0000     0.0000     0.0000 </r>
        <r>    -5.9174     0.2644     0.0007     0.0007     0.0007     0.0000     0.0000     0.0000     0.0000     0.0000 </r>
        <r>    -5.8360     0.2082     0.0008     0.0008     0.0008     0.0000     0.0000     0.0000     0.0000     0.0000 </r>
        <r>    -5.7547     0.1781     0.0010     0.0010     0.0010     0.0000     0.0000     0.0000     0.0000     0.0000 </r>
        <r>    -5.6734     0.1582     0.0011     0.0011     0.0011     0.0000     0.0000     0.0000     0.0000     0.0000 </r>
        <r>    -5.5921     0.1437     0.0012     0.0012     0.0012     0.0000     0.0000     0.0000     0.0000     0.0000 </r>
        <r>    -5.5107     0.1327     0.0013     0.0013     0.0013     0.0000     0.0000     0.0000     0.0000     0.0000 </r>
        <r>    -5.4294     0.1245     0.0014     0.0014     0.0014     0.0000     0.0000     0.0000     0.0000     0.0000 </r>
        <r>    -5.3481     0.1178     0.0015     0.0015     0.0015     0.0000     0.0000     0.0000     0.0000     0.0000 </r>
        <r>    -5.2668     0.1106     0.0016     0.0016     0.0016     0.0000     0.0000     0.0000     0.0000     0.0000 </r>
        <r>    -5.1854     0.1017     0.0016     0.0016     0.0016     0.0000     0.0000     0.0000     0.0000     0.0000 </r>
        <r>    -5.1041     0.0967     0.0016     0.0016     0.0016     0.0000     0.0000     0.0000     0.0000     0.0000 </r>
        <r>    -5.0228     0.1011     0.0019     0.0019     0.0019     0.0000     0.0000     0.0000     0.0000     0.0000 </r>
        <r>    -4.9414     0.0987     0.0020     0.0020     0.0020     0.0000     0.0000     0.0000     0.0000     0.0000 </r>
        <r>    -4.8601     0.0802     0.0017     0.0017     0.0017     0.0000     0.0000     0.0000     0.0000     0.0000 </r>
        <r>    -4.7788     0.0856     0.0019     0.0019     0.0019     0.0000     0.0000     0.0000     0.0000     0.0000 </r>
        <r>    -4.6975     0.0968     0.0024     0.0024     0.0024     0.0000     0.0000     0.0000     0.0000     0.0000 </r>
        <r>    -4.6161     0.0682     0.0018     0.0018     0.0018     0.0000     0.0000     0.0000     0.0000     0.0000 </r>
        <r>    -4.5348     0.0830     0.0022     0.0022     0.0022     0.0000     0.0000     0.0000     0.0000     0.0000 </r>
        <r>    -4.4535     0.0871     0.0025     0.0025     0.0025     0.0000     0.0000     0.0000     0.0000     0.0000 </r>
        <r>    -4.3722     0.0566     0.0017     0.0017     0.0017     0.0000     0.0000     0.0000     0.0000     0.0000 </r>
        <r>    -4.2908     0.0947     0.0030     0.0030     0.0030     0.0000     0.0000     0.0000     0.0000     0.0000 </r>
        <r>    -4.2095     0.0545     0.0018     0.0018     0.0018     0.0000     0.0000     0.0000     0.0000     0.0000 </r>
        <r>    -4.1282     0.0812     0.0028     0.0028     0.0028     0.0000     0.0000     0.0000     0.0000     0.0000 </r>
        <r>    -4.0469     0.0668     0.0025     0.0025     0.0025     0.0000     0.0000     0.0000     0.0000     0.0000 </r>
        <r>    -3.9655     0.0628     0.0023     0.0023     0.0023     0.0000     0.0000     0.0000     0.0000     0.0000 </r>
        <r>    -3.8842     0.0780     0.0031     0.0031     0.0031     0.0000     0.0000     0.0000     0.0000     0.0000 </r>
        <r>    -3.8029     0.0492     0.0020     0.0020     0.0020     0.0000     0.0000     0.0000     0.0000     0.0000 </r>
        <r>    -3.7215     0.0837     0.0036     0.0036     0.0036     0.0000     0.0000     0.0000     0.0000     0.0000 </r>
        <r>    -3.6402     0.0414     0.0018     0.0018     0.0018     0.0000     0.0000     0.0000     0.0000     0.0000 </r>
        <r>    -3.5589     0.0850     0.0039     0.0039     0.0039     0.0000     0.0000     0.0000     0.0000     0.0000 </r>
        <r>    -3.4776     0.0380     0.0018     0.0018     0.0018     0.0000     0.0000     0.0000     0.0000     0.0000 </r>
        <r>    -3.3962     0.0823     0.0041     0.0041     0.0041     0.0000     0.0000     0.0000     0.0000     0.0000 </r>
        <r>    -3.3149     0.0392     0.0019     0.0019     0.0019     0.0000     0.0000     0.0000     0.0000     0.0000 </r>
        <r>    -3.2336     0.0749     0.0040     0.0040     0.0040     0.0000     0.0000     0.0000     0.0000     0.0000 </r>
        <r>    -3.1523     0.0459     0.0024     0.0024     0.0024     0.0000     0.0000     0.0000     0.0000     0.0000 </r>
        <r>    -3.0709     0.0610     0.0034     0.0034     0.0034     0.0000     0.0000     0.0000     0.0000     0.0000 </r>
        <r>    -2.9896     0.0595     0.0033     0.0033     0.0033     0.0000     0.0000     0.0000     0.0000     0.0000 </r>
        <r>    -2.9083     0.0415     0.0025     0.0025     0.0025     0.0000     0.0000     0.0000     0.0000     0.0000 </r>
        <r>    -2.8269     0.0774     0.0046     0.0046     0.0046     0.0000     0.0000     0.0000     0.0000     0.0000 </r>
        <r>    -2.7456     0.0232     0.0015     0.0015     0.0015     0.0000     0.0000     0.0000     0.0000     0.0000 </r>
        <r>    -2.6643     0.0902     0.0057     0.0057     0.0057     0.0000     0.0000     0.0000     0.0000     0.0000 </r>
        <r>    -2.5830     0.0173     0.0011     0.0011     0.0011     0.0000     0.0000     0.0000     0.0000     0.0000 </r>
        <r>    -2.5016     0.0832     0.0056     0.0056     0.0056     0.0000     0.0000     0.0000     0.0000     0.0000 </r>
        <r>    -2.4203     0.0324     0.0022     0.0022     0.0022     0.0000     0.0000     0.0000     0.0000     0.0000 </r>
        <r>    -2.3390     0.0521     0.0037     0.0037     0.0037     0.0000     0.0000     0.0000     0.0000     0.0000 </r>
        <r>    -2.2577     0.0655     0.0047     0.0047     0.0047     0.0000     0.0000     0.0000     0.0000     0.0000 </r>
        <r>    -2.1763     0.0195     0.0015     0.0015     0.0015     0.0000     0.0000     0.0000     0.0000     0.0000 </r>
        <r>    -2.0950     0.0893     0.0067     0.0067     0.0067     0.0000     0.0000     0.0000     0.0000     0.0000 </r>
        <r>    -2.0137     0.0174     0.0013     0.0013     0.0013     0.0000     0.0000     0.0000     0.0000     0.0000 </r>
        <r>    -1.9324     0.1384     0.0110     0.0110     0.0110     0.0000     0.0000     0.0000     0.0000     0.0000 </r>
        <r>    -1.8510     0.0933     0.0074     0.0074     0.0074     0.0000     0.0000     0.0000     0.0000     0.0000 </r>
        <r>    -1.7697     0.0251     0.0021     0.0021     0.0021     0.0000     0.0000     0.0000     0.0000     0.0000 </r>
        <r>    -1.6884     0.0859     0.0072     0.0072     0.0072     0.0000     0.0000     0.0000     0.0000     0.0000 </r>
        <r>    -1.6070     0.0109     0.0009     0.0009     0.0009     0.0000     0.0000     0.0000     0.0000     0.0000 </r>
        <r>    -1.5257     0.0693     0.0061     0.0061     0.0061     0.0000     0.0000     0.0000     0.0000     0.0000 </r>
        <r>    -1.4444     0.0452     0.0040     0.0040     0.0040     0.0000     0.0000     0.0000     0.0000     0.0000 </r>
        <r>    -1.3631     0.0193     0.0018     0.0018     0.0018     0.0000     0.0000     0.0000     0.0000     0.0000 </r>
        <r>    -1.2817     0.0869     0.0081     0.0081     0.0081     0.0000     0.0000     0.0000     0.0000     0.0000 </r>
        <r>    -1.2004     0.0122     0.0011     0.0011     0.0011     0.0000     0.0000     0.0000     0.0000     0.0000 </r>
        <r>    -1.1191     0.0548     0.0054     0.0054     0.0054     0.0000     0.0000     0.0000     0.0000     0.0000 </r>
        <r>    -1.0378     0.0589     0.0058     0.0058     0.0058     0.0000     0.0000     0.0000     0.0000     0.0000 </r>
        <r>    -0.9564     0.0094     0.0010     0.0010     0.0010     0.0000     0.0000     0.0000     0.0000     0.0000 </r>
        <r>    -0.8751     0.0835     0.0086     0.0086     0.0086     0.0000     0.0000     0.0000     0.0000     0.0000 </r>
        <r>    -0.7938     0.0239     0.0025     0.0025     0.0025     0.0000     0.0000     0.0000     0.0000     0.0000 </r>
        <r>    -0.7124     0.0280     0.0030     0.0030     0.0030     0.0000     0.0000     0.0000     0.0000     0.0000 </r>
        <r>    -0.6311     0.0803     0.0087     0.0087     0.0087     0.0000     0.0000     0.0000     0.0000     0.0000 </r>
        <r>    -0.5498     0.0075     0.0008     0.0008     0.0008     0.0000     0.0000     0.0000     0.0000     0.0000 </r>
        <r>    -0.4685     0.0570     0.0065     0.0065     0.0065     0.0000     0.0000     0.0000     0.0000     0.0000 </r>
        <r>    -0.3871     0.0542     0.0062     0.0062     0.0062     0.0000     0.0000     0.0000     0.0000     0.0000 </r>
        <r>    -0.3058     0.0072     0.0009     0.0009     0.0009     0.0000     0.0000     0.0000     0.0000     0.0000 </r>
        <r>    -0.2245     0.0792     0.0095     0.0095     0.0095     0.0000     0.0000     0.0000     0.0000     0.0000 </r>
        <r>    -0.1432     0.0273     0.0033     0.0033     0.0033     0.0000     0.0000     0.0000     0.0000     0.0000 </r>
        <r>    -0.0618     0.0179     0.0022     0.0022     0.0022     0.0000     0.0000     0.0000     0.0000     0.0000 </r>
        <r>     0.0195     0.0831     0.0104     0.0104     0.0104     0.0000     0.0000     0.0000     0.0000     0.0000 </r>
        <r>     0.1008     0.0111     0.0014     0.0014     0.0014     0.0000     0.0000     0.0000     0.0000     0.0000 </r>
        <r>     0.1821     0.0361     0.0048     0.0048     0.0048     0.0000     0.0000     0.0000     0.0000     0.0000 </r>
        <r>     0.2635     0.0707     0.0093     0.0093     0.0093     0.0000     0.0000     0.0000     0.0000     0.0000 </r>
        <r>     0.3448     0.0049     0.0007     0.0007     0.0007     0.0000     0.0000     0.0000     0.0000     0.0000 </r>
        <r>     0.4261     0.0563     0.0078     0.0078     0.0078     0.0000     0.0000     0.0000     0.0000     0.0000 </r>
        <r>     0.5075     0.0508     0.0070     0.0070     0.0070     0.0000     0.0000     0.0000     0.0000     0.0000 </r>
        <r>     0.5888     0.0052     0.0008     0.0008     0.0008     0.0000     0.0000     0.0000     0.0000     0.0000 </r>
        <r>     0.6701     0.0721     0.0105     0.0105     0.0105     0.0000     0.0000     0.0000     0.0000     0.0000 </r>
        <r>     0.7514     0.0317     0.0046     0.0046     0.0046     0.0000     0.0000     0.0000     0.0000     0.0000 </r>
        <r>     0.8328     0.0102     0.0016     0.0016     0.0016     0.0000     0.0000     0.0000     0.0000     0.0000 </r>
        <r>     0.9141     0.0794     0.0122     0.0122     0.0122     0.0000     0.0000     0.0000     0.0000     0.0000 </r>
        <r>     0.9954     0.0176     0.0027     0.0027     0.0027     0.0000     0.0000     0.0000     0.0000     0.0000 </r>
        <r>     1.0767     0.0190     0.0031     0.0031     0.0031     0.0000     0.0000     0.0000     0.0000     0.0000 </r>
        <r>     1.1581     0.0777     0.0125     0.0125     0.0125     0.0000     0.0000     0.0000     0.0000     0.0000 </r>
        <r>     1.2394     0.0090     0.0014     0.0014     0.0014     0.0000     0.0000     0.0000     0.0000     0.0000 </r>
        <r>     1.3207     0.0309     0.0052     0.0052     0.0052     0.0000     0.0000     0.0000     0.0000     0.0000 </r>
        <r>     1.4021     0.0688     0.0117     0.0117     0.0117     0.0000     0.0000     0.0000     0.0000     0.0000 </r>
        <r>     1.4834     0.0047     0.0008     0.0008     0.0008     0.0000     0.0000     0.0000     0.0000     0.0000 </r>
        <r>     1.5647     0.0441     0.0079     0.0079     0.0079     0.0000     0.0000     0.0000     0.0000     0.0000 </r>
        <r>     1.6460     0.0557     0.0100     0.0100     0.0100     0.0000     0.0000     0.0000     0.0000     0.0000 </r>
        <r>     1.7274     0.0034     0.0006     0.0006     0.0006     0.0000     0.0000     0.0000     0.0000     0.0000 </r>
        <r>     1.8087     0.0565     0.0107     0.0107     0.0107     0.0000     0.0000     0.0000     0.0000     0.0000 </r>
        <r>     1.8900     0.0414     0.0078     0.0078     0.0078     0.0000     0.0000     0.0000     0.0000     0.0000 </r>
        <r>     1.9713     0.0046     0.0009     0.0009     0.0009     0.0000     0.0000     0.0000     0.0000     0.0000 </r>
        <r>     2.0527     0.0660     0.0132     0.0132     0.0132     0.0000     0.0000     0.0000     0.0000     0.0000 </r>
        <r>     2.1340     0.0281     0.0056     0.0056     0.0056     0.0000     0.0000     0.0000     0.0000     0.0000 </r>
        <r>     2.2153     0.0082     0.0017     0.0017     0.0017     0.0000     0.0000     0.0000     0.0000     0.0000 </r>
        <r>     2.2966     0.0709     0.0150     0.0150     0.0150     0.0000     0.0000     0.0000     0.0000     0.0000 </r>
        <r>     2.3780     0.0172     0.0036     0.0036     0.0036     0.0000     0.0000     0.0000     0.0000     0.0000 </r>
        <r>     2.4593     0.0145     0.0033     0.0033     0.0033     0.0000     0.0000     0.0000     0.0000     0.0000 </r>
        <r>     2.5406     0.0699     0.0158     0.0158     0.0158     0.0000     0.0000     0.0000     0.0000     0.0000 </r>
        <r>     2.6220     0.0095     0.0021     0.0021     0.0021     0.0000     0.0000     0.0000     0.0000     0.0000 </r>
        <r>     2.7033     0.0235     0.0057     0.0057     0.0057     0.0000     0.0000     0.0000     0.0000     0.0000 </r>
        <r>     2.7846     0.0631     0.0152     0.0152     0.0152     0.0000     0.0000     0.0000     0.0000     0.0000 </r>
        <r>     2.8659     0.0049     0.0012     0.0012     0.0012     0.0000     0.0000     0.0000     0.0000     0.0000 </r>
        <r>     2.9473     0.0350     0.0115     0.0115     0.0115     0.0000     0.0000     0.0000     0.0000     0.0000 </r>
        <r>     3.0286     0.0511     0.1633     0.1633     0.1633     0.0000     0.0000     0.0000     0.0000     0.0000 </r>
        <r>     3.1099     0.0032     0.3365     0.3365     0.3365     0.0000     0.0000     0.0000     0.0000     0.0000 </r>
        <r>     3.1912     0.0472     0.2100     0.2100     0.2100     0.0000     0.0000     0.0000     0.0000     0.0000 </r>
        <r>     3.2726     0.0362     0.1567     0.1567     0.1567     0.0000     0.0000     0.0000     0.0000     0.0000 </r>
        <r>     3.3539     0.0045     0.1249     0.1249     0.1249     0.0000     0.0000     0.0000     0.0000     0.0000 </r>
        <r>     3.4352     0.0566     0.1259     0.1259     0.1259     0.0000     0.0000     0.0000     0.0000     0.0000 </r>
        <r>     3.5166     0.0214     0.1052     0.1052     0.1052     0.0000     0.0000     0.0000     0.0000     0.0000 </r>
        <r>     3.5979     0.0098     0.0945     0.0945     0.0945     0.0000     0.0000     0.0000     0.0000     0.0000 </r>
        <r>     3.6792     0.0588     0.1045     0.1045     0.1045     0.0000     0.0000     0.0000     0.0000     0.0000 </r>
        <r>     3.7605     0.0100     0.0836     0.0836     0.0836     0.0000     0.0000     0.0000     0.0000     0.0000 </r>
        <r>     3.8419     0.0205     0.0833     0.0833     0.0833     0.0000     0.0000     0.0000     0.0000     0.0000 </r>
        <r>     3.9232     0.0506     0.0908     0.0908     0.0908     0.0000     0.0000     0.0000     0.0000     0.0000 </r>
        <r>     4.0045     0.0041     0.0721     0.0721     0.0721     0.0000     0.0000     0.0000     0.0000     0.0000 </r>
        <r>     4.0858     0.0357     0.0840     0.0840     0.0840     0.0000     0.0000     0.0000     0.0000     0.0000 </r>
        <r>     4.1672     0.0329     0.0808     0.0808     0.0808     0.0000     0.0000     0.0000     0.0000     0.0000 </r>
        <r>     4.2485     0.0050     0.0643     0.0643     0.0643     0.0000     0.0000     0.0000     0.0000     0.0000 </r>
        <r>     4.3298     0.0471     0.0797     0.0797     0.0797     0.0000     0.0000     0.0000     0.0000     0.0000 </r>
        <r>     4.4111     0.0139     0.0697     0.0697     0.0697     0.0000     0.0000     0.0000     0.0000     0.0000 </r>
        <r>     4.4925     0.0158     0.0724     0.0724     0.0724     0.0000     0.0000     0.0000     0.0000     0.0000 </r>
        <r>     4.5738     0.0414     0.0753     0.0753     0.0753     0.0000     0.0000     0.0000     0.0000     0.0000 </r>
        <r>     4.6551     0.0044     0.0575     0.0575     0.0575     0.0000     0.0000     0.0000     0.0000     0.0000 </r>
        <r>     4.7365     0.0340     0.0845     0.0845     0.0845     0.0000     0.0000     0.0000     0.0000     0.0000 </r>
        <r>     4.8178     0.0187     0.0661     0.0661     0.0661     0.0000     0.0000     0.0000     0.0000     0.0000 </r>
        <r>     4.8991     0.0122     0.0588     0.0588     0.0588     0.0000     0.0000     0.0000     0.0000     0.0000 </r>
        <r>     4.9804     0.0336     0.0871     0.0871     0.0871     0.0000     0.0000     0.0000     0.0000     0.0000 </r>
        <r>     5.0618     0.0053     0.0606     0.0606     0.0606     0.0000     0.0000     0.0000     0.0000     0.0000 </r>
        <r>     5.1431     0.0299     0.0751     0.0751     0.0751     0.0000     0.0000     0.0000     0.0000     0.0000 </r>
        <r>     5.2244     0.0094     0.0721     0.0721     0.0721     0.0000     0.0000     0.0000     0.0000     0.0000 </r>
        <r>     5.3057     0.0207     0.0826     0.0826     0.0826     0.0000     0.0000     0.0000     0.0000     0.0000 </r>
        <r>     5.3871     0.0130     0.0676     0.0676     0.0676     0.0000     0.0000     0.0000     0.0000     0.0000 </r>
        <r>     5.4684     0.0158     0.0873     0.0873     0.0873     0.0000     0.0000     0.0000     0.0000     0.0000 </r>
        <r>     5.5497     0.0113     0.0868     0.0868     0.0868     0.0000     0.0000     0.0000     0.0000     0.0000 </r>
        <r>     5.6311     0.0137     0.0987     0.0987     0.0987     0.0000     0.0000     0.0000     0.0000     0.0000 </r>
        <r>     5.7124     0.0083     0.1017     0.1017     0.1017     0.0000     0.0000     0.0000     0.0000     0.0000 </r>
        <r>     5.7937     0.0085     0.1349     0.1349     0.1349     0.0000     0.0000     0.0000     0.0000     0.0000 </r>
        <r>     5.8750     0.0049     0.2317     0.2317     0.2317     0.0000     0.0000     0.0000     0.0000     0.0000 </r>
        <r>     5.9564     0.0010     0.1771     0.1771     0.1771     0.0000     0.0000     0.0000     0.0000     0.0000 </r>
        <r>     6.0377     0.0000     0.0069     0.0069     0.0069     0.0000     0.0000     0.0000     0.0000     0.0000 </r>
        <r>     6.1190     0.0000     0.0000     0.0000     0.0000     0.0000     0.0000     0.0000     0.0000     0.0000 </r>
        <r>     6.2003     0.0000     0.0000     0.0000     0.0000     0.0000     0.0000     0.0000     0.0000     0.0000 </r>
        <r>     6.2817     0.0000     0.0000     0.0000     0.0000     0.0000     0.0000     0.0000     0.0000     0.0000 </r>
        <r>     6.3630     0.0005     0.0001     0.0001     0.0001     0.0000     0.0000     0.0000     0.0000     0.0000 </r>
        <r>     6.4443     0.0593     0.0161     0.0161     0.0161     0.0000     0.0000     0.0000     0.0000     0.0000 </r>
        <r>     6.5256     0.2210     0.0606     0.0606     0.0606     0.0000     0.0000     0.0000     0.0000     0.0000 </r>
        <r>     6.6070     0.1638     0.0460     0.0460     0.0460     0.0000     0.0000     0.0000     0.0000     0.0000 </r>
        <r>     6.6883     0.1116     0.0335     0.0335     0.0335     0.0000     0.0000     0.0000     0.0000     0.0000 </r>
        <r>     6.7696     0.0821     0.0269     0.0269     0.0269     0.0000     0.0000     0.0000     0.0000     0.0000 </r>
        <r>     6.8510     0.0705     0.0246     0.0246     0.0246     0.0000     0.0000     0.0000     0.0000     0.0000 </r>
        <r>     6.9323     0.0623     0.0232     0.0232     0.0232     0.0000     0.0000     0.0000     0.0000     0.0000 </r>
        <r>     7.0136     0.0558     0.0221     0.0221     0.0221     0.0000     0.0000     0.0000     0.0000     0.0000 </r>
        <r>     7.0949     0.0500     0.0213     0.0213     0.0213     0.0000     0.0000     0.0000     0.0000     0.0000 </r>
        <r>     7.1763     0.0465     0.0210     0.0210     0.0210     0.0000     0.0000     0.0000     0.0000     0.0000 </r>
        <r>     7.2576     0.0452     0.0213     0.0213     0.0213     0.0000     0.0000     0.0000     0.0000     0.0000 </r>
        <r>     7.3389     0.0399     0.0208     0.0208     0.0208     0.0000     0.0000     0.0000     0.0000     0.0000 </r>
        <r>     7.4202     0.0349     0.0202     0.0202     0.0202     0.0000     0.0000     0.0000     0.0000     0.0000 </r>
        <r>     7.5016     0.0383     0.0215     0.0215     0.0215     0.0000     0.0000     0.0000     0.0000     0.0000 </r>
        <r>     7.5829     0.0305     0.0205     0.0205     0.0205     0.0000     0.0000     0.0000     0.0000     0.0000 </r>
        <r>     7.6642     0.0309     0.0216     0.0216     0.0216     0.0000     0.0000     0.0000     0.0000     0.0000 </r>
        <r>     7.7456     0.0320     0.0232     0.0232     0.0232     0.0000     0.0000     0.0000     0.0000     0.0000 </r>
        <r>     7.8269     0.0235     0.0225     0.0225     0.0225     0.0000     0.0000     0.0000     0.0000     0.0000 </r>
        <r>     7.9082     0.0312     0.0254     0.0254     0.0254     0.0000     0.0000     0.0000     0.0000     0.0000 </r>
        <r>     7.9895     0.0183     0.0238     0.0238     0.0238     0.0000     0.0000     0.0000     0.0000     0.0000 </r>
        <r>     8.0709     0.0292     0.0283     0.0283     0.0283     0.0000     0.0000     0.0000     0.0000     0.0000 </r>
        <r>     8.1522     0.0148     0.0277     0.0277     0.0277     0.0000     0.0000     0.0000     0.0000     0.0000 </r>
        <r>     8.2335     0.0268     0.0345     0.0345     0.0345     0.0000     0.0000     0.0000     0.0000     0.0000 </r>
        <r>     8.3148     0.0118     0.0371     0.0371     0.0371     0.0000     0.0000     0.0000     0.0000     0.0000 </r>
        <r>     8.3962     0.0228     0.0574     0.0574     0.0574     0.0000     0.0000     0.0000     0.0000     0.0000 </r>
        <r>     8.4775     0.0093     0.1582     0.1582     0.1582     0.0000     0.0000     0.0000     0.0000     0.0000 </r>
        <r>     8.5588     0.0151     0.1311     0.1311     0.1311     0.0000     0.0000     0.0000     0.0000     0.0000 </r>
        <r>     8.6401     0.0117     0.0648     0.0648     0.0648     0.0000     0.0000     0.0000     0.0000     0.0000 </r>
        <r>     8.7215     0.0087     0.0529     0.0529     0.0529     0.0000     0.0000     0.0000     0.0000     0.0000 </r>
        <r>     8.8028     0.0183     0.0401     0.0401     0.0401     0.0000     0.0000     0.0000     0.0000     0.0000 </r>
        <r>     8.8841     0.0038     0.0474     0.0474     0.0474     0.0000     0.0000     0.0000     0.0000     0.0000 </r>
        <r>     8.9655     0.0215     0.0383     0.0383     0.0383     0.0000     0.0000     0.0000     0.0000     0.0000 </r>
        <r>     9.0468     0.0050     0.0368     0.0368     0.0368     0.0000     0.0000     0.0000     0.0000     0.0000 </r>
        <r>     9.1281     0.0155     0.0389     0.0389     0.0389     0.0000     0.0000     0.0000     0.0000     0.0000 </r>
        <r>     9.2094     0.0144     0.0346     0.0346     0.0346     0.0000     0.0000     0.0000     0.0000     0.0000 </r>
        <r>     9.2908     0.0295     0.0326     0.0326     0.0326     0.0000     0.0000     0.0000     0.0000     0.0000 </r>
        <r>     9.3721     0.3451     0.0409     0.0409     0.0409     0.0000     0.0000     0.0000     0.0000     0.0000 </r>
        <r>     9.4534     0.2980     0.0234     0.0234     0.0234     0.0000     0.0000     0.0000     0.0000     0.0000 </r>
        <r>     9.5347     0.2068     0.0516     0.0516     0.0516     0.0000     0.0000     0.0000     0.0000     0.0000 </r>
        <r>     9.6161     0.1450     0.0162     0.0162     0.0162     0.0000     0.0000     0.0000     0.0000     0.0000 </r>
        <r>     9.6974     0.1270     0.0558     0.0558     0.0558     0.0000     0.0000     0.0000     0.0000     0.0000 </r>
        <r>     9.7787     0.1662     0.0220     0.0220     0.0220     0.0000     0.0000     0.0000     0.0000     0.0000 </r>
        <r>     9.8601     0.0769     0.0427     0.0427     0.0427     0.0000     0.0000     0.0000     0.0000     0.0000 </r>
        <r>     9.9414     0.1725     0.0421     0.0421     0.0421     0.0000     0.0000     0.0000     0.0000     0.0000 </r>
        <r>    10.0227     0.0764     0.0205     0.0205     0.0205     0.0000     0.0000     0.0000     0.0000     0.0000 </r>
        <r>    10.1040     0.1614     0.0651     0.0651     0.0651     0.0000     0.0000     0.0000     0.0000     0.0000 </r>
        <r>    10.1854     0.1148     0.0180     0.0180     0.0180     0.0000     0.0000     0.0000     0.0000     0.0000 </r>
        <r>    10.2667     0.1606     0.0596     0.0596     0.0596     0.0000     0.0000     0.0000     0.0000     0.0000 </r>
        <r>    10.3480     0.2320     0.0547     0.0547     0.0547     0.0000     0.0000     0.0000     0.0000     0.0000 </r>
        <r>    10.4293     0.2008     0.0371     0.0371     0.0371     0.0000     0.0000     0.0000     0.0000     0.0000 </r>
        <r>    10.5107     0.0135     0.0527     0.0527     0.0527     0.0000     0.0000     0.0000     0.0000     0.0000 </r>
        <r>    10.5920     0.0000     0.0074     0.0074     0.0074     0.0000     0.0000     0.0000     0.0000     0.0000 </r>
        <r>    10.6733     0.0000     0.0294     0.0294     0.0294     0.0000     0.0000     0.0000     0.0000     0.0000 </r>
        <r>    10.7546     0.0000     0.0374     0.0374     0.0374     0.0000     0.0000     0.0000     0.0000     0.0000 </r>
        <r>    10.8360     0.0000     0.0042     0.0042     0.0042     0.0000     0.0000     0.0000     0.0000     0.0000 </r>
        <r>    10.9173     0.0000     0.0468     0.0468     0.0468     0.0000     0.0000     0.0000     0.0000     0.0000 </r>
        <r>    10.9986     0.0000     0.0184     0.0184     0.0184     0.0000     0.0000     0.0000     0.0000     0.0000 </r>
        <r>    11.0800     0.0000     0.0109     0.0109     0.0109     0.0000     0.0000     0.0000     0.0000     0.0000 </r>
        <r>    11.1613     0.0000     0.0509     0.0509     0.0509     0.0000     0.0000     0.0000     0.0000     0.0000 </r>
        <r>    11.2426     0.0000     0.0069     0.0069     0.0069     0.0000     0.0000     0.0000     0.0000     0.0000 </r>
        <r>    11.3239     0.0000     0.0234     0.0234     0.0234     0.0000     0.0000     0.0000     0.0000     0.0000 </r>
        <r>    11.4053     0.0000     0.0428     0.0428     0.0428     0.0000     0.0000     0.0000     0.0000     0.0000 </r>
        <r>    11.4866     0.0000     0.0030     0.0030     0.0030     0.0000     0.0000     0.0000     0.0000     0.0000 </r>
        <r>    11.5679     0.0000     0.0374     0.0374     0.0374     0.0000     0.0000     0.0000     0.0000     0.0000 </r>
        <r>    11.6492     0.0000     0.0294     0.0294     0.0294     0.0000     0.0000     0.0000     0.0000     0.0000 </r>
        <r>    11.7306     0.0000     0.0037     0.0037     0.0037     0.0000     0.0000     0.0000     0.0000     0.0000 </r>
        <r>    11.8119     0.0000     0.0471     0.0471     0.0471     0.0000     0.0000     0.0000     0.0000     0.0000 </r>
        <r>    11.8932     0.0000     0.0179     0.0179     0.0179     0.0000     0.0000     0.0000     0.0000     0.0000 </r>
        <r>    11.9746     0.0000     0.0067     0.0067     0.0067     0.0000     0.0000     0.0000     0.0000     0.0000 </r>
        <r>    12.0559     0.0000     0.0509     0.0509     0.0509     0.0000     0.0000     0.0000     0.0000     0.0000 </r>
        <r>    12.1372     0.0000     0.0109     0.0109     0.0109     0.0000     0.0000     0.0000     0.0000     0.0000 </r>
        <r>    12.2185     0.0000     0.0119     0.0119     0.0119     0.0000     0.0000     0.0000     0.0000     0.0000 </r>
        <r>    12.2999     0.0000     0.0505     0.0505     0.0505     0.0000     0.0000     0.0000     0.0000     0.0000 </r>
        <r>    12.3812     0.0000     0.0060     0.0060     0.0060     0.0000     0.0000     0.0000     0.0000     0.0000 </r>
        <r>    12.4625     0.0000     0.0181     0.0181     0.0181     0.0000     0.0000     0.0000     0.0000     0.0000 </r>
        <r>    12.5438     0.0000     0.0468     0.0468     0.0468     0.0000     0.0000     0.0000     0.0000     0.0000 </r>
        <r>    12.6252     0.0000     0.0034     0.0034     0.0034     0.0000     0.0000     0.0000     0.0000     0.0000 </r>
        <r>    12.7065     0.0000     0.0243     0.0243     0.0243     0.0000     0.0000     0.0000     0.0000     0.0000 </r>
        <r>    12.7878     0.0000     0.0416     0.0416     0.0416     0.0000     0.0000     0.0000     0.0000     0.0000 </r>
        <r>    12.8691     0.0000     0.0023     0.0023     0.0023     0.0000     0.0000     0.0000     0.0000     0.0000 </r>
        <r>    12.9505     0.0000     0.0299     0.0299     0.0299     0.0000     0.0000     0.0000     0.0000     0.0000 </r>
        <r>    13.0318     0.0000     0.0364     0.0364     0.0364     0.0000     0.0000     0.0000     0.0000     0.0000 </r>
        <r>    13.1131     0.0000     0.0018     0.0018     0.0018     0.0000     0.0000     0.0000     0.0000     0.0000 </r>
        <r>    13.1945     0.0000     0.0343     0.0343     0.0343     0.0000     0.0000     0.0000     0.0000     0.0000 </r>
        <r>    13.2758     0.0000     0.0318     0.0318     0.0318     0.0000     0.0000     0.0000     0.0000     0.0000 </r>
        <r>    13.3571     0.0000     0.0018     0.0018     0.0018     0.0000     0.0000     0.0000     0.0000     0.0000 </r>
        <r>    13.4384     0.0000     0.0377     0.0377     0.0377     0.0000     0.0000     0.0000     0.0000     0.0000 </r>
        <r>    13.5198     0.0000     0.0282     0.0282     0.0282     0.0000     0.0000     0.0000     0.0000     0.0000 </r>
        <r>    13.6011     0.0000     0.0019     0.0019     0.0019     0.0000     0.0000     0.0000     0.0000     0.0000 </r>
        <r>    13.6824     0.0000     0.0400     0.0400     0.0400     0.0000     0.0000     0.0000     0.0000     0.0000 </r>
        <r>    13.7637     0.0000     0.0256     0.0256     0.0256     0.0000     0.0000     0.0000     0.0000     0.0000 </r>
        <r>    13.8451     0.0000     0.0020     0.0020     0.0020     0.0000     0.0000     0.0000     0.0000     0.0000 </r>
        <r>    13.9264     0.0000     0.0412     0.0412     0.0412     0.0000     0.0000     0.0000     0.0000     0.0000 </r>
        <r>    14.0077     0.0000     0.0243     0.0243     0.0243     0.0000     0.0000     0.0000     0.0000     0.0000 </r>
        <r>    14.0891     0.0000     0.0023     0.0023     0.0023     0.0000     0.0000     0.0000     0.0000     0.0000 </r>
        <r>    14.1704     0.0000     0.0426     0.0426     0.0426     0.0000     0.0000     0.0000     0.0000     0.0000 </r>
        <r>    14.2517     0.0000     0.0228     0.0228     0.0228     0.0000     0.0000     0.0000     0.0000     0.0000 </r>
        <r>    14.3330     0.0000     0.0023     0.0023     0.0023     0.0000     0.0000     0.0000     0.0000     0.0000 </r>
        <r>    14.4144     0.0000     0.0430     0.0430     0.0430     0.0000     0.0000     0.0000     0.0000     0.0000 </r>
        <r>    14.4957     0.0000     0.0225     0.0225     0.0225     0.0000     0.0000     0.0000     0.0000     0.0000 </r>
        <r>    14.5770     0.0000     0.0021     0.0021     0.0021     0.0000     0.0000     0.0000     0.0000     0.0000 </r>
        <r>    14.6583     0.0000     0.0427     0.0427     0.0427     0.0000     0.0000     0.0000     0.0000     0.0000 </r>
        <r>    14.7397     0.0000     0.0235     0.0235     0.0235     0.0000     0.0000     0.0000     0.0000     0.0000 </r>
        <r>    14.8210     0.0000     0.0022     0.0022     0.0022     0.0000     0.0000     0.0000     0.0000     0.0000 </r>
        <r>    14.9023     0.0000     0.0432     0.0432     0.0432     0.0000     0.0000     0.0000     0.0000     0.0000 </r>
        <r>    14.9836     0.0000     0.0238     0.0238     0.0238     0.0000     0.0000     0.0000     0.0000     0.0000 </r>
        <r>    15.0650     0.0000     0.0024     0.0024     0.0024     0.0000     0.0000     0.0000     0.0000     0.0000 </r>
        <r>    15.1463     0.0000     0.0447     0.0447     0.0447     0.0000     0.0000     0.0000     0.0000     0.0000 </r>
        <r>    15.2276     0.0000     0.0234     0.0234     0.0234     0.0000     0.0000     0.0000     0.0000     0.0000 </r>
        <r>    15.3090     0.0000     0.0031     0.0031     0.0031     0.0000     0.0000     0.0000     0.0000     0.0000 </r>
        <r>    15.3903     0.0000     0.0486     0.0486     0.0486     0.0000     0.0000     0.0000     0.0000     0.0000 </r>
        <r>    15.4716     0.0000     0.0210     0.0210     0.0210     0.0000     0.0000     0.0000     0.0000     0.0000 </r>
        <r>    15.5529     0.0000     0.0060     0.0060     0.0060     0.0000     0.0000     0.0000     0.0000     0.0000 </r>
        <r>    15.6343     0.0000     0.0558     0.0558     0.0558     0.0000     0.0000     0.0000     0.0000     0.0000 </r>
        <r>    15.7156     0.0000     0.0148     0.0148     0.0148     0.0000     0.0000     0.0000     0.0000     0.0000 </r>
        <r>    15.7969     0.0000     0.0213     0.0213     0.0213     0.0000     0.0000     0.0000     0.0000     0.0000 </r>
        <r>    15.8782     0.0000     0.0572     0.0572     0.0572     0.0000     0.0000     0.0000     0.0000     0.0000 </r>
        <r>    15.9596     0.0000     0.0188     0.0188     0.0188     0.0000     0.0000     0.0000     0.0000     0.0000 </r>
        <r>    16.0409     0.0000     0.0888     0.0888     0.0888     0.0000     0.0000     0.0000     0.0000     0.0000 </r>
        <r>    16.1222     0.0000     0.0798     0.0798     0.0798     0.0000     0.0000     0.0000     0.0000     0.0000 </r>
        <r>    16.2036     0.0000     0.0066     0.0066     0.0066     0.0000     0.0000     0.0000     0.0000     0.0000 </r>
        <r>    16.2849     0.0000     0.0000     0.0000     0.0000     0.0000     0.0000     0.0000     0.0000     0.0000 </r>
        <r>    16.3662     0.0000     0.0000     0.0000     0.0000     0.0000     0.0000     0.0000     0.0000     0.0000 </r>
        <r>    16.4475     0.0000     0.0000     0.0000     0.0000     0.0000     0.0000     0.0000     0.0000     0.0000 </r>
        <r>    16.5289     0.0000     0.0000     0.0000     0.0000     0.0000     0.0000     0.0000     0.0000     0.0000 </r>
        <r>    16.6102     0.0000     0.0000     0.0000     0.0000     0.0000     0.0000     0.0000     0.0000     0.0000 </r>
        <r>    16.6915     0.0000     0.0000     0.0000     0.0000     0.0000     0.0000     0.0000     0.0000     0.0000 </r>
        <r>    16.7728     0.0000     0.0000     0.0000     0.0000     0.0000     0.0000     0.0000     0.0000     0.0000 </r>
        <r>    16.8542     0.0000     0.0000     0.0000     0.0000     0.0000     0.0000     0.0000     0.0000     0.0000 </r>
        <r>    16.9355     0.0000     0.0000     0.0000     0.0000     0.0000     0.0000     0.0000     0.0000     0.0000 </r>
        <r>    17.0168     0.0000     0.0000     0.0000     0.0000     0.0000     0.0000     0.0000     0.0000     0.0000 </r>
        <r>    17.0982     0.0000     0.0000     0.0000     0.0000     0.0000     0.0000     0.0000     0.0000     0.0000 </r>
        <r>    17.1795     0.0000     0.0000     0.0000     0.0000     0.0000     0.0000     0.0000     0.0000     0.0000 </r>
       </set>
      </set>
      <set comment="ion 2">
       <set comment="spin 1">
        <r>    -7.2186     0.0000     0.0000     0.0000     0.0000     0.0000     0.0000     0.0000     0.0000     0.0000 </r>
        <r>    -7.1373     0.0000     0.0000     0.0000     0.0000     0.0000     0.0000     0.0000     0.0000     0.0000 </r>
        <r>    -7.0559     0.0000     0.0000     0.0000     0.0000     0.0000     0.0000     0.0000     0.0000     0.0000 </r>
        <r>    -6.9746     0.0000     0.0000     0.0000     0.0000     0.0000     0.0000     0.0000     0.0000     0.0000 </r>
        <r>    -6.8933     0.0000     0.0000     0.0000     0.0000     0.0000     0.0000     0.0000     0.0000     0.0000 </r>
        <r>    -6.8120     0.0000     0.0000     0.0000     0.0000     0.0000     0.0000     0.0000     0.0000     0.0000 </r>
        <r>    -6.7306     0.0000     0.0000     0.0000     0.0000     0.0000     0.0000     0.0000     0.0000     0.0000 </r>
        <r>    -6.6493     0.0000     0.0000     0.0000     0.0000     0.0000     0.0000     0.0000     0.0000     0.0000 </r>
        <r>    -6.5680     0.0000     0.0000     0.0000     0.0000     0.0000     0.0000     0.0000     0.0000     0.0000 </r>
        <r>    -6.4867     0.0000     0.0000     0.0000     0.0000     0.0000     0.0000     0.0000     0.0000     0.0000 </r>
        <r>    -6.4053     0.0000     0.0000     0.0000     0.0000     0.0000     0.0000     0.0000     0.0000     0.0000 </r>
        <r>    -6.3240     0.0000     0.0000     0.0000     0.0000     0.0000     0.0000     0.0000     0.0000     0.0000 </r>
        <r>    -6.2427     0.0000     0.0000     0.0000     0.0000     0.0000     0.0000     0.0000     0.0000     0.0000 </r>
        <r>    -6.1614     0.0245     0.0000     0.0000     0.0000     0.0000     0.0000     0.0000     0.0000     0.0000 </r>
        <r>    -6.0800     0.4037     0.0001     0.0001     0.0001     0.0000     0.0000     0.0000     0.0000     0.0000 </r>
        <r>    -5.9987     0.4392     0.0004     0.0004     0.0004     0.0000     0.0000     0.0000     0.0000     0.0000 </r>
        <r>    -5.9174     0.2644     0.0007     0.0007     0.0007     0.0000     0.0000     0.0000     0.0000     0.0000 </r>
        <r>    -5.8360     0.2082     0.0008     0.0008     0.0008     0.0000     0.0000     0.0000     0.0000     0.0000 </r>
        <r>    -5.7547     0.1781     0.0010     0.0010     0.0010     0.0000     0.0000     0.0000     0.0000     0.0000 </r>
        <r>    -5.6734     0.1582     0.0011     0.0011     0.0011     0.0000     0.0000     0.0000     0.0000     0.0000 </r>
        <r>    -5.5921     0.1437     0.0012     0.0012     0.0012     0.0000     0.0000     0.0000     0.0000     0.0000 </r>
        <r>    -5.5107     0.1327     0.0013     0.0013     0.0013     0.0000     0.0000     0.0000     0.0000     0.0000 </r>
        <r>    -5.4294     0.1245     0.0014     0.0014     0.0014     0.0000     0.0000     0.0000     0.0000     0.0000 </r>
        <r>    -5.3481     0.1178     0.0015     0.0015     0.0015     0.0000     0.0000     0.0000     0.0000     0.0000 </r>
        <r>    -5.2668     0.1106     0.0016     0.0016     0.0016     0.0000     0.0000     0.0000     0.0000     0.0000 </r>
        <r>    -5.1854     0.1017     0.0016     0.0016     0.0016     0.0000     0.0000     0.0000     0.0000     0.0000 </r>
        <r>    -5.1041     0.0967     0.0016     0.0016     0.0016     0.0000     0.0000     0.0000     0.0000     0.0000 </r>
        <r>    -5.0228     0.1011     0.0019     0.0019     0.0019     0.0000     0.0000     0.0000     0.0000     0.0000 </r>
        <r>    -4.9414     0.0987     0.0020     0.0020     0.0020     0.0000     0.0000     0.0000     0.0000     0.0000 </r>
        <r>    -4.8601     0.0802     0.0017     0.0017     0.0017     0.0000     0.0000     0.0000     0.0000     0.0000 </r>
        <r>    -4.7788     0.0856     0.0019     0.0019     0.0019     0.0000     0.0000     0.0000     0.0000     0.0000 </r>
        <r>    -4.6975     0.0968     0.0024     0.0024     0.0024     0.0000     0.0000     0.0000     0.0000     0.0000 </r>
        <r>    -4.6161     0.0682     0.0018     0.0018     0.0018     0.0000     0.0000     0.0000     0.0000     0.0000 </r>
        <r>    -4.5348     0.0830     0.0022     0.0022     0.0022     0.0000     0.0000     0.0000     0.0000     0.0000 </r>
        <r>    -4.4535     0.0871     0.0025     0.0025     0.0025     0.0000     0.0000     0.0000     0.0000     0.0000 </r>
        <r>    -4.3722     0.0566     0.0017     0.0017     0.0017     0.0000     0.0000     0.0000     0.0000     0.0000 </r>
        <r>    -4.2908     0.0947     0.0030     0.0030     0.0030     0.0000     0.0000     0.0000     0.0000     0.0000 </r>
        <r>    -4.2095     0.0545     0.0018     0.0018     0.0018     0.0000     0.0000     0.0000     0.0000     0.0000 </r>
        <r>    -4.1282     0.0812     0.0028     0.0028     0.0028     0.0000     0.0000     0.0000     0.0000     0.0000 </r>
        <r>    -4.0469     0.0668     0.0025     0.0025     0.0025     0.0000     0.0000     0.0000     0.0000     0.0000 </r>
        <r>    -3.9655     0.0628     0.0023     0.0023     0.0023     0.0000     0.0000     0.0000     0.0000     0.0000 </r>
        <r>    -3.8842     0.0780     0.0031     0.0031     0.0031     0.0000     0.0000     0.0000     0.0000     0.0000 </r>
        <r>    -3.8029     0.0492     0.0020     0.0020     0.0020     0.0000     0.0000     0.0000     0.0000     0.0000 </r>
        <r>    -3.7215     0.0837     0.0036     0.0036     0.0036     0.0000     0.0000     0.0000     0.0000     0.0000 </r>
        <r>    -3.6402     0.0414     0.0018     0.0018     0.0018     0.0000     0.0000     0.0000     0.0000     0.0000 </r>
        <r>    -3.5589     0.0850     0.0039     0.0039     0.0039     0.0000     0.0000     0.0000     0.0000     0.0000 </r>
        <r>    -3.4776     0.0380     0.0018     0.0018     0.0018     0.0000     0.0000     0.0000     0.0000     0.0000 </r>
        <r>    -3.3962     0.0823     0.0041     0.0041     0.0041     0.0000     0.0000     0.0000     0.0000     0.0000 </r>
        <r>    -3.3149     0.0392     0.0019     0.0019     0.0019     0.0000     0.0000     0.0000     0.0000     0.0000 </r>
        <r>    -3.2336     0.0749     0.0040     0.0040     0.0040     0.0000     0.0000     0.0000     0.0000     0.0000 </r>
        <r>    -3.1523     0.0459     0.0024     0.0024     0.0024     0.0000     0.0000     0.0000     0.0000     0.0000 </r>
        <r>    -3.0709     0.0610     0.0034     0.0034     0.0034     0.0000     0.0000     0.0000     0.0000     0.0000 </r>
        <r>    -2.9896     0.0595     0.0033     0.0033     0.0033     0.0000     0.0000     0.0000     0.0000     0.0000 </r>
        <r>    -2.9083     0.0415     0.0025     0.0025     0.0025     0.0000     0.0000     0.0000     0.0000     0.0000 </r>
        <r>    -2.8269     0.0774     0.0046     0.0046     0.0046     0.0000     0.0000     0.0000     0.0000     0.0000 </r>
        <r>    -2.7456     0.0232     0.0015     0.0015     0.0015     0.0000     0.0000     0.0000     0.0000     0.0000 </r>
        <r>    -2.6643     0.0902     0.0057     0.0057     0.0057     0.0000     0.0000     0.0000     0.0000     0.0000 </r>
        <r>    -2.5830     0.0173     0.0011     0.0011     0.0011     0.0000     0.0000     0.0000     0.0000     0.0000 </r>
        <r>    -2.5016     0.0832     0.0056     0.0056     0.0056     0.0000     0.0000     0.0000     0.0000     0.0000 </r>
        <r>    -2.4203     0.0324     0.0022     0.0022     0.0022     0.0000     0.0000     0.0000     0.0000     0.0000 </r>
        <r>    -2.3390     0.0521     0.0037     0.0037     0.0037     0.0000     0.0000     0.0000     0.0000     0.0000 </r>
        <r>    -2.2577     0.0655     0.0047     0.0047     0.0047     0.0000     0.0000     0.0000     0.0000     0.0000 </r>
        <r>    -2.1763     0.0195     0.0015     0.0015     0.0015     0.0000     0.0000     0.0000     0.0000     0.0000 </r>
        <r>    -2.0950     0.0893     0.0067     0.0067     0.0067     0.0000     0.0000     0.0000     0.0000     0.0000 </r>
        <r>    -2.0137     0.0174     0.0013     0.0013     0.0013     0.0000     0.0000     0.0000     0.0000     0.0000 </r>
        <r>    -1.9324     0.1384     0.0110     0.0110     0.0110     0.0000     0.0000     0.0000     0.0000     0.0000 </r>
        <r>    -1.8510     0.0933     0.0074     0.0074     0.0074     0.0000     0.0000     0.0000     0.0000     0.0000 </r>
        <r>    -1.7697     0.0251     0.0021     0.0021     0.0021     0.0000     0.0000     0.0000     0.0000     0.0000 </r>
        <r>    -1.6884     0.0859     0.0072     0.0072     0.0072     0.0000     0.0000     0.0000     0.0000     0.0000 </r>
        <r>    -1.6070     0.0109     0.0009     0.0009     0.0009     0.0000     0.0000     0.0000     0.0000     0.0000 </r>
        <r>    -1.5257     0.0693     0.0061     0.0061     0.0061     0.0000     0.0000     0.0000     0.0000     0.0000 </r>
        <r>    -1.4444     0.0452     0.0040     0.0040     0.0040     0.0000     0.0000     0.0000     0.0000     0.0000 </r>
        <r>    -1.3631     0.0193     0.0018     0.0018     0.0018     0.0000     0.0000     0.0000     0.0000     0.0000 </r>
        <r>    -1.2817     0.0869     0.0081     0.0081     0.0081     0.0000     0.0000     0.0000     0.0000     0.0000 </r>
        <r>    -1.2004     0.0122     0.0011     0.0011     0.0011     0.0000     0.0000     0.0000     0.0000     0.0000 </r>
        <r>    -1.1191     0.0548     0.0054     0.0054     0.0054     0.0000     0.0000     0.0000     0.0000     0.0000 </r>
        <r>    -1.0378     0.0589     0.0058     0.0058     0.0058     0.0000     0.0000     0.0000     0.0000     0.0000 </r>
        <r>    -0.9564     0.0094     0.0010     0.0010     0.0010     0.0000     0.0000     0.0000     0.0000     0.0000 </r>
        <r>    -0.8751     0.0835     0.0086     0.0086     0.0086     0.0000     0.0000     0.0000     0.0000     0.0000 </r>
        <r>    -0.7938     0.0239     0.0025     0.0025     0.0025     0.0000     0.0000     0.0000     0.0000     0.0000 </r>
        <r>    -0.7124     0.0280     0.0030     0.0030     0.0030     0.0000     0.0000     0.0000     0.0000     0.0000 </r>
        <r>    -0.6311     0.0803     0.0087     0.0087     0.0087     0.0000     0.0000     0.0000     0.0000     0.0000 </r>
        <r>    -0.5498     0.0075     0.0008     0.0008     0.0008     0.0000     0.0000     0.0000     0.0000     0.0000 </r>
        <r>    -0.4685     0.0570     0.0065     0.0065     0.0065     0.0000     0.0000     0.0000     0.0000     0.0000 </r>
        <r>    -0.3871     0.0542     0.0062     0.0062     0.0062     0.0000     0.0000     0.0000     0.0000     0.0000 </r>
        <r>    -0.3058     0.0072     0.0009     0.0009     0.0009     0.0000     0.0000     0.0000     0.0000     0.0000 </r>
        <r>    -0.2245     0.0792     0.0095     0.0095     0.0095     0.0000     0.0000     0.0000     0.0000     0.0000 </r>
        <r>    -0.1432     0.0273     0.0033     0.0033     0.0033     0.0000     0.0000     0.0000     0.0000     0.0000 </r>
        <r>    -0.0618     0.0179     0.0022     0.0022     0.0022     0.0000     0.0000     0.0000     0.0000     0.0000 </r>
        <r>     0.0195     0.0831     0.0104     0.0104     0.0104     0.0000     0.0000     0.0000     0.0000     0.0000 </r>
        <r>     0.1008     0.0111     0.0014     0.0014     0.0014     0.0000     0.0000     0.0000     0.0000     0.0000 </r>
        <r>     0.1821     0.0361     0.0048     0.0048     0.0048     0.0000     0.0000     0.0000     0.0000     0.0000 </r>
        <r>     0.2635     0.0707     0.0093     0.0093     0.0093     0.0000     0.0000     0.0000     0.0000     0.0000 </r>
        <r>     0.3448     0.0049     0.0007     0.0007     0.0007     0.0000     0.0000     0.0000     0.0000     0.0000 </r>
        <r>     0.4261     0.0563     0.0078     0.0078     0.0078     0.0000     0.0000     0.0000     0.0000     0.0000 </r>
        <r>     0.5075     0.0508     0.0070     0.0070     0.0070     0.0000     0.0000     0.0000     0.0000     0.0000 </r>
        <r>     0.5888     0.0052     0.0008     0.0008     0.0008     0.0000     0.0000     0.0000     0.0000     0.0000 </r>
        <r>     0.6701     0.0721     0.0105     0.0105     0.0105     0.0000     0.0000     0.0000     0.0000     0.0000 </r>
        <r>     0.7514     0.0317     0.0046     0.0046     0.0046     0.0000     0.0000     0.0000     0.0000     0.0000 </r>
        <r>     0.8328     0.0102     0.0016     0.0016     0.0016     0.0000     0.0000     0.0000     0.0000     0.0000 </r>
        <r>     0.9141     0.0794     0.0122     0.0122     0.0122     0.0000     0.0000     0.0000     0.0000     0.0000 </r>
        <r>     0.9954     0.0176     0.0027     0.0027     0.0027     0.0000     0.0000     0.0000     0.0000     0.0000 </r>
        <r>     1.0767     0.0190     0.0031     0.0031     0.0031     0.0000     0.0000     0.0000     0.0000     0.0000 </r>
        <r>     1.1581     0.0777     0.0125     0.0125     0.0125     0.0000     0.0000     0.0000     0.0000     0.0000 </r>
        <r>     1.2394     0.0090     0.0014     0.0014     0.0014     0.0000     0.0000     0.0000     0.0000     0.0000 </r>
        <r>     1.3207     0.0309     0.0052     0.0052     0.0052     0.0000     0.0000     0.0000     0.0000     0.0000 </r>
        <r>     1.4021     0.0688     0.0117     0.0117     0.0117     0.0000     0.0000     0.0000     0.0000     0.0000 </r>
        <r>     1.4834     0.0047     0.0008     0.0008     0.0008     0.0000     0.0000     0.0000     0.0000     0.0000 </r>
        <r>     1.5647     0.0441     0.0079     0.0079     0.0079     0.0000     0.0000     0.0000     0.0000     0.0000 </r>
        <r>     1.6460     0.0557     0.0100     0.0100     0.0100     0.0000     0.0000     0.0000     0.0000     0.0000 </r>
        <r>     1.7274     0.0034     0.0006     0.0006     0.0006     0.0000     0.0000     0.0000     0.0000     0.0000 </r>
        <r>     1.8087     0.0565     0.0107     0.0107     0.0107     0.0000     0.0000     0.0000     0.0000     0.0000 </r>
        <r>     1.8900     0.0414     0.0078     0.0078     0.0078     0.0000     0.0000     0.0000     0.0000     0.0000 </r>
        <r>     1.9713     0.0046     0.0009     0.0009     0.0009     0.0000     0.0000     0.0000     0.0000     0.0000 </r>
        <r>     2.0527     0.0660     0.0132     0.0132     0.0132     0.0000     0.0000     0.0000     0.0000     0.0000 </r>
        <r>     2.1340     0.0281     0.0056     0.0056     0.0056     0.0000     0.0000     0.0000     0.0000     0.0000 </r>
        <r>     2.2153     0.0082     0.0017     0.0017     0.0017     0.0000     0.0000     0.0000     0.0000     0.0000 </r>
        <r>     2.2966     0.0709     0.0150     0.0150     0.0150     0.0000     0.0000     0.0000     0.0000     0.0000 </r>
        <r>     2.3780     0.0172     0.0036     0.0036     0.0036     0.0000     0.0000     0.0000     0.0000     0.0000 </r>
        <r>     2.4593     0.0145     0.0033     0.0033     0.0033     0.0000     0.0000     0.0000     0.0000     0.0000 </r>
        <r>     2.5406     0.0699     0.0158     0.0158     0.0158     0.0000     0.0000     0.0000     0.0000     0.0000 </r>
        <r>     2.6220     0.0095     0.0021     0.0021     0.0021     0.0000     0.0000     0.0000     0.0000     0.0000 </r>
        <r>     2.7033     0.0235     0.0057     0.0057     0.0057     0.0000     0.0000     0.0000     0.0000     0.0000 </r>
        <r>     2.7846     0.0631     0.0152     0.0152     0.0152     0.0000     0.0000     0.0000     0.0000     0.0000 </r>
        <r>     2.8659     0.0049     0.0012     0.0012     0.0012     0.0000     0.0000     0.0000     0.0000     0.0000 </r>
        <r>     2.9473     0.0350     0.0115     0.0115     0.0115     0.0000     0.0000     0.0000     0.0000     0.0000 </r>
        <r>     3.0286     0.0511     0.1633     0.1633     0.1633     0.0000     0.0000     0.0000     0.0000     0.0000 </r>
        <r>     3.1099     0.0032     0.3365     0.3365     0.3365     0.0000     0.0000     0.0000     0.0000     0.0000 </r>
        <r>     3.1912     0.0472     0.2100     0.2100     0.2100     0.0000     0.0000     0.0000     0.0000     0.0000 </r>
        <r>     3.2726     0.0362     0.1567     0.1567     0.1567     0.0000     0.0000     0.0000     0.0000     0.0000 </r>
        <r>     3.3539     0.0045     0.1249     0.1249     0.1249     0.0000     0.0000     0.0000     0.0000     0.0000 </r>
        <r>     3.4352     0.0566     0.1259     0.1259     0.1259     0.0000     0.0000     0.0000     0.0000     0.0000 </r>
        <r>     3.5166     0.0214     0.1052     0.1052     0.1052     0.0000     0.0000     0.0000     0.0000     0.0000 </r>
        <r>     3.5979     0.0098     0.0945     0.0945     0.0945     0.0000     0.0000     0.0000     0.0000     0.0000 </r>
        <r>     3.6792     0.0588     0.1045     0.1045     0.1045     0.0000     0.0000     0.0000     0.0000     0.0000 </r>
        <r>     3.7605     0.0100     0.0836     0.0836     0.0836     0.0000     0.0000     0.0000     0.0000     0.0000 </r>
        <r>     3.8419     0.0205     0.0833     0.0833     0.0833     0.0000     0.0000     0.0000     0.0000     0.0000 </r>
        <r>     3.9232     0.0506     0.0908     0.0908     0.0908     0.0000     0.0000     0.0000     0.0000     0.0000 </r>
        <r>     4.0045     0.0041     0.0721     0.0721     0.0721     0.0000     0.0000     0.0000     0.0000     0.0000 </r>
        <r>     4.0858     0.0357     0.0840     0.0840     0.0840     0.0000     0.0000     0.0000     0.0000     0.0000 </r>
        <r>     4.1672     0.0329     0.0808     0.0808     0.0808     0.0000     0.0000     0.0000     0.0000     0.0000 </r>
        <r>     4.2485     0.0050     0.0643     0.0643     0.0643     0.0000     0.0000     0.0000     0.0000     0.0000 </r>
        <r>     4.3298     0.0471     0.0797     0.0797     0.0797     0.0000     0.0000     0.0000     0.0000     0.0000 </r>
        <r>     4.4111     0.0139     0.0697     0.0697     0.0697     0.0000     0.0000     0.0000     0.0000     0.0000 </r>
        <r>     4.4925     0.0158     0.0724     0.0724     0.0724     0.0000     0.0000     0.0000     0.0000     0.0000 </r>
        <r>     4.5738     0.0414     0.0753     0.0753     0.0753     0.0000     0.0000     0.0000     0.0000     0.0000 </r>
        <r>     4.6551     0.0044     0.0575     0.0575     0.0575     0.0000     0.0000     0.0000     0.0000     0.0000 </r>
        <r>     4.7365     0.0340     0.0845     0.0845     0.0845     0.0000     0.0000     0.0000     0.0000     0.0000 </r>
        <r>     4.8178     0.0187     0.0661     0.0661     0.0661     0.0000     0.0000     0.0000     0.0000     0.0000 </r>
        <r>     4.8991     0.0122     0.0588     0.0588     0.0588     0.0000     0.0000     0.0000     0.0000     0.0000 </r>
        <r>     4.9804     0.0336     0.0871     0.0871     0.0871     0.0000     0.0000     0.0000     0.0000     0.0000 </r>
        <r>     5.0618     0.0053     0.0606     0.0606     0.0606     0.0000     0.0000     0.0000     0.0000     0.0000 </r>
        <r>     5.1431     0.0299     0.0751     0.0751     0.0751     0.0000     0.0000     0.0000     0.0000     0.0000 </r>
        <r>     5.2244     0.0094     0.0721     0.0721     0.0721     0.0000     0.0000     0.0000     0.0000     0.0000 </r>
        <r>     5.3057     0.0207     0.0826     0.0826     0.0826     0.0000     0.0000     0.0000     0.0000     0.0000 </r>
        <r>     5.3871     0.0130     0.0676     0.0676     0.0676     0.0000     0.0000     0.0000     0.0000     0.0000 </r>
        <r>     5.4684     0.0158     0.0873     0.0873     0.0873     0.0000     0.0000     0.0000     0.0000     0.0000 </r>
        <r>     5.5497     0.0113     0.0868     0.0868     0.0868     0.0000     0.0000     0.0000     0.0000     0.0000 </r>
        <r>     5.6311     0.0137     0.0987     0.0987     0.0987     0.0000     0.0000     0.0000     0.0000     0.0000 </r>
        <r>     5.7124     0.0083     0.1017     0.1017     0.1017     0.0000     0.0000     0.0000     0.0000     0.0000 </r>
        <r>     5.7937     0.0085     0.1349     0.1349     0.1349     0.0000     0.0000     0.0000     0.0000     0.0000 </r>
        <r>     5.8750     0.0049     0.2317     0.2317     0.2317     0.0000     0.0000     0.0000     0.0000     0.0000 </r>
        <r>     5.9564     0.0010     0.1771     0.1771     0.1771     0.0000     0.0000     0.0000     0.0000     0.0000 </r>
        <r>     6.0377     0.0000     0.0069     0.0069     0.0069     0.0000     0.0000     0.0000     0.0000     0.0000 </r>
        <r>     6.1190     0.0000     0.0000     0.0000     0.0000     0.0000     0.0000     0.0000     0.0000     0.0000 </r>
        <r>     6.2003     0.0000     0.0000     0.0000     0.0000     0.0000     0.0000     0.0000     0.0000     0.0000 </r>
        <r>     6.2817     0.0000     0.0000     0.0000     0.0000     0.0000     0.0000     0.0000     0.0000     0.0000 </r>
        <r>     6.3630     0.0005     0.0001     0.0001     0.0001     0.0000     0.0000     0.0000     0.0000     0.0000 </r>
        <r>     6.4443     0.0593     0.0161     0.0161     0.0161     0.0000     0.0000     0.0000     0.0000     0.0000 </r>
        <r>     6.5256     0.2210     0.0606     0.0606     0.0606     0.0000     0.0000     0.0000     0.0000     0.0000 </r>
        <r>     6.6070     0.1638     0.0460     0.0460     0.0460     0.0000     0.0000     0.0000     0.0000     0.0000 </r>
        <r>     6.6883     0.1116     0.0335     0.0335     0.0335     0.0000     0.0000     0.0000     0.0000     0.0000 </r>
        <r>     6.7696     0.0821     0.0269     0.0269     0.0269     0.0000     0.0000     0.0000     0.0000     0.0000 </r>
        <r>     6.8510     0.0705     0.0246     0.0246     0.0246     0.0000     0.0000     0.0000     0.0000     0.0000 </r>
        <r>     6.9323     0.0623     0.0232     0.0232     0.0232     0.0000     0.0000     0.0000     0.0000     0.0000 </r>
        <r>     7.0136     0.0558     0.0221     0.0221     0.0221     0.0000     0.0000     0.0000     0.0000     0.0000 </r>
        <r>     7.0949     0.0500     0.0213     0.0213     0.0213     0.0000     0.0000     0.0000     0.0000     0.0000 </r>
        <r>     7.1763     0.0465     0.0210     0.0210     0.0210     0.0000     0.0000     0.0000     0.0000     0.0000 </r>
        <r>     7.2576     0.0452     0.0213     0.0213     0.0213     0.0000     0.0000     0.0000     0.0000     0.0000 </r>
        <r>     7.3389     0.0399     0.0208     0.0208     0.0208     0.0000     0.0000     0.0000     0.0000     0.0000 </r>
        <r>     7.4202     0.0349     0.0202     0.0202     0.0202     0.0000     0.0000     0.0000     0.0000     0.0000 </r>
        <r>     7.5016     0.0383     0.0215     0.0215     0.0215     0.0000     0.0000     0.0000     0.0000     0.0000 </r>
        <r>     7.5829     0.0305     0.0205     0.0205     0.0205     0.0000     0.0000     0.0000     0.0000     0.0000 </r>
        <r>     7.6642     0.0309     0.0216     0.0216     0.0216     0.0000     0.0000     0.0000     0.0000     0.0000 </r>
        <r>     7.7456     0.0320     0.0232     0.0232     0.0232     0.0000     0.0000     0.0000     0.0000     0.0000 </r>
        <r>     7.8269     0.0235     0.0225     0.0225     0.0225     0.0000     0.0000     0.0000     0.0000     0.0000 </r>
        <r>     7.9082     0.0312     0.0254     0.0254     0.0254     0.0000     0.0000     0.0000     0.0000     0.0000 </r>
        <r>     7.9895     0.0183     0.0238     0.0238     0.0238     0.0000     0.0000     0.0000     0.0000     0.0000 </r>
        <r>     8.0709     0.0292     0.0283     0.0283     0.0283     0.0000     0.0000     0.0000     0.0000     0.0000 </r>
        <r>     8.1522     0.0148     0.0277     0.0277     0.0277     0.0000     0.0000     0.0000     0.0000     0.0000 </r>
        <r>     8.2335     0.0268     0.0345     0.0345     0.0345     0.0000     0.0000     0.0000     0.0000     0.0000 </r>
        <r>     8.3148     0.0118     0.0371     0.0371     0.0371     0.0000     0.0000     0.0000     0.0000     0.0000 </r>
        <r>     8.3962     0.0228     0.0574     0.0574     0.0574     0.0000     0.0000     0.0000     0.0000     0.0000 </r>
        <r>     8.4775     0.0093     0.1582     0.1582     0.1582     0.0000     0.0000     0.0000     0.0000     0.0000 </r>
        <r>     8.5588     0.0151     0.1311     0.1311     0.1311     0.0000     0.0000     0.0000     0.0000     0.0000 </r>
        <r>     8.6401     0.0117     0.0648     0.0648     0.0648     0.0000     0.0000     0.0000     0.0000     0.0000 </r>
        <r>     8.7215     0.0087     0.0529     0.0529     0.0529     0.0000     0.0000     0.0000     0.0000     0.0000 </r>
        <r>     8.8028     0.0183     0.0401     0.0401     0.0401     0.0000     0.0000     0.0000     0.0000     0.0000 </r>
        <r>     8.8841     0.0038     0.0474     0.0474     0.0474     0.0000     0.0000     0.0000     0.0000     0.0000 </r>
        <r>     8.9655     0.0215     0.0383     0.0383     0.0383     0.0000     0.0000     0.0000     0.0000     0.0000 </r>
        <r>     9.0468     0.0050     0.0368     0.0368     0.0368     0.0000     0.0000     0.0000     0.0000     0.0000 </r>
        <r>     9.1281     0.0155     0.0389     0.0389     0.0389     0.0000     0.0000     0.0000     0.0000     0.0000 </r>
        <r>     9.2094     0.0144     0.0346     0.0346     0.0346     0.0000     0.0000     0.0000     0.0000     0.0000 </r>
        <r>     9.2908     0.0295     0.0326     0.0326     0.0326     0.0000     0.0000     0.0000     0.0000     0.0000 </r>
        <r>     9.3721     0.3451     0.0409     0.0409     0.0409     0.0000     0.0000     0.0000     0.0000     0.0000 </r>
        <r>     9.4534     0.2980     0.0234     0.0234     0.0234     0.0000     0.0000     0.0000     0.0000     0.0000 </r>
        <r>     9.5347     0.2068     0.0516     0.0516     0.0516     0.0000     0.0000     0.0000     0.0000     0.0000 </r>
        <r>     9.6161     0.1450     0.0162     0.0162     0.0162     0.0000     0.0000     0.0000     0.0000     0.0000 </r>
        <r>     9.6974     0.1270     0.0558     0.0558     0.0558     0.0000     0.0000     0.0000     0.0000     0.0000 </r>
        <r>     9.7787     0.1662     0.0220     0.0220     0.0220     0.0000     0.0000     0.0000     0.0000     0.0000 </r>
        <r>     9.8601     0.0769     0.0427     0.0427     0.0427     0.0000     0.0000     0.0000     0.0000     0.0000 </r>
        <r>     9.9414     0.1725     0.0421     0.0421     0.0421     0.0000     0.0000     0.0000     0.0000     0.0000 </r>
        <r>    10.0227     0.0764     0.0205     0.0205     0.0205     0.0000     0.0000     0.0000     0.0000     0.0000 </r>
        <r>    10.1040     0.1614     0.0651     0.0651     0.0651     0.0000     0.0000     0.0000     0.0000     0.0000 </r>
        <r>    10.1854     0.1148     0.0180     0.0180     0.0180     0.0000     0.0000     0.0000     0.0000     0.0000 </r>
        <r>    10.2667     0.1606     0.0596     0.0596     0.0596     0.0000     0.0000     0.0000     0.0000     0.0000 </r>
        <r>    10.3480     0.2320     0.0547     0.0547     0.0547     0.0000     0.0000     0.0000     0.0000     0.0000 </r>
        <r>    10.4293     0.2008     0.0371     0.0371     0.0371     0.0000     0.0000     0.0000     0.0000     0.0000 </r>
        <r>    10.5107     0.0135     0.0527     0.0527     0.0527     0.0000     0.0000     0.0000     0.0000     0.0000 </r>
        <r>    10.5920     0.0000     0.0074     0.0074     0.0074     0.0000     0.0000     0.0000     0.0000     0.0000 </r>
        <r>    10.6733     0.0000     0.0294     0.0294     0.0294     0.0000     0.0000     0.0000     0.0000     0.0000 </r>
        <r>    10.7546     0.0000     0.0374     0.0374     0.0374     0.0000     0.0000     0.0000     0.0000     0.0000 </r>
        <r>    10.8360     0.0000     0.0042     0.0042     0.0042     0.0000     0.0000     0.0000     0.0000     0.0000 </r>
        <r>    10.9173     0.0000     0.0468     0.0468     0.0468     0.0000     0.0000     0.0000     0.0000     0.0000 </r>
        <r>    10.9986     0.0000     0.0184     0.0184     0.0184     0.0000     0.0000     0.0000     0.0000     0.0000 </r>
        <r>    11.0800     0.0000     0.0109     0.0109     0.0109     0.0000     0.0000     0.0000     0.0000     0.0000 </r>
        <r>    11.1613     0.0000     0.0509     0.0509     0.0509     0.0000     0.0000     0.0000     0.0000     0.0000 </r>
        <r>    11.2426     0.0000     0.0069     0.0069     0.0069     0.0000     0.0000     0.0000     0.0000     0.0000 </r>
        <r>    11.3239     0.0000     0.0234     0.0234     0.0234     0.0000     0.0000     0.0000     0.0000     0.0000 </r>
        <r>    11.4053     0.0000     0.0428     0.0428     0.0428     0.0000     0.0000     0.0000     0.0000     0.0000 </r>
        <r>    11.4866     0.0000     0.0030     0.0030     0.0030     0.0000     0.0000     0.0000     0.0000     0.0000 </r>
        <r>    11.5679     0.0000     0.0374     0.0374     0.0374     0.0000     0.0000     0.0000     0.0000     0.0000 </r>
        <r>    11.6492     0.0000     0.0294     0.0294     0.0294     0.0000     0.0000     0.0000     0.0000     0.0000 </r>
        <r>    11.7306     0.0000     0.0037     0.0037     0.0037     0.0000     0.0000     0.0000     0.0000     0.0000 </r>
        <r>    11.8119     0.0000     0.0471     0.0471     0.0471     0.0000     0.0000     0.0000     0.0000     0.0000 </r>
        <r>    11.8932     0.0000     0.0179     0.0179     0.0179     0.0000     0.0000     0.0000     0.0000     0.0000 </r>
        <r>    11.9746     0.0000     0.0067     0.0067     0.0067     0.0000     0.0000     0.0000     0.0000     0.0000 </r>
        <r>    12.0559     0.0000     0.0509     0.0509     0.0509     0.0000     0.0000     0.0000     0.0000     0.0000 </r>
        <r>    12.1372     0.0000     0.0109     0.0109     0.0109     0.0000     0.0000     0.0000     0.0000     0.0000 </r>
        <r>    12.2185     0.0000     0.0119     0.0119     0.0119     0.0000     0.0000     0.0000     0.0000     0.0000 </r>
        <r>    12.2999     0.0000     0.0505     0.0505     0.0505     0.0000     0.0000     0.0000     0.0000     0.0000 </r>
        <r>    12.3812     0.0000     0.0060     0.0060     0.0060     0.0000     0.0000     0.0000     0.0000     0.0000 </r>
        <r>    12.4625     0.0000     0.0181     0.0181     0.0181     0.0000     0.0000     0.0000     0.0000     0.0000 </r>
        <r>    12.5438     0.0000     0.0468     0.0468     0.0468     0.0000     0.0000     0.0000     0.0000     0.0000 </r>
        <r>    12.6252     0.0000     0.0034     0.0034     0.0034     0.0000     0.0000     0.0000     0.0000     0.0000 </r>
        <r>    12.7065     0.0000     0.0243     0.0243     0.0243     0.0000     0.0000     0.0000     0.0000     0.0000 </r>
        <r>    12.7878     0.0000     0.0416     0.0416     0.0416     0.0000     0.0000     0.0000     0.0000     0.0000 </r>
        <r>    12.8691     0.0000     0.0023     0.0023     0.0023     0.0000     0.0000     0.0000     0.0000     0.0000 </r>
        <r>    12.9505     0.0000     0.0299     0.0299     0.0299     0.0000     0.0000     0.0000     0.0000     0.0000 </r>
        <r>    13.0318     0.0000     0.0364     0.0364     0.0364     0.0000     0.0000     0.0000     0.0000     0.0000 </r>
        <r>    13.1131     0.0000     0.0018     0.0018     0.0018     0.0000     0.0000     0.0000     0.0000     0.0000 </r>
        <r>    13.1945     0.0000     0.0343     0.0343     0.0343     0.0000     0.0000     0.0000     0.0000     0.0000 </r>
        <r>    13.2758     0.0000     0.0318     0.0318     0.0318     0.0000     0.0000     0.0000     0.0000     0.0000 </r>
        <r>    13.3571     0.0000     0.0018     0.0018     0.0018     0.0000     0.0000     0.0000     0.0000     0.0000 </r>
        <r>    13.4384     0.0000     0.0377     0.0377     0.0377     0.0000     0.0000     0.0000     0.0000     0.0000 </r>
        <r>    13.5198     0.0000     0.0282     0.0282     0.0282     0.0000     0.0000     0.0000     0.0000     0.0000 </r>
        <r>    13.6011     0.0000     0.0019     0.0019     0.0019     0.0000     0.0000     0.0000     0.0000     0.0000 </r>
        <r>    13.6824     0.0000     0.0400     0.0400     0.0400     0.0000     0.0000     0.0000     0.0000     0.0000 </r>
        <r>    13.7637     0.0000     0.0256     0.0256     0.0256     0.0000     0.0000     0.0000     0.0000     0.0000 </r>
        <r>    13.8451     0.0000     0.0020     0.0020     0.0020     0.0000     0.0000     0.0000     0.0000     0.0000 </r>
        <r>    13.9264     0.0000     0.0412     0.0412     0.0412     0.0000     0.0000     0.0000     0.0000     0.0000 </r>
        <r>    14.0077     0.0000     0.0243     0.0243     0.0243     0.0000     0.0000     0.0000     0.0000     0.0000 </r>
        <r>    14.0891     0.0000     0.0023     0.0023     0.0023     0.0000     0.0000     0.0000     0.0000     0.0000 </r>
        <r>    14.1704     0.0000     0.0426     0.0426     0.0426     0.0000     0.0000     0.0000     0.0000     0.0000 </r>
        <r>    14.2517     0.0000     0.0228     0.0228     0.0228     0.0000     0.0000     0.0000     0.0000     0.0000 </r>
        <r>    14.3330     0.0000     0.0023     0.0023     0.0023     0.0000     0.0000     0.0000     0.0000     0.0000 </r>
        <r>    14.4144     0.0000     0.0430     0.0430     0.0430     0.0000     0.0000     0.0000     0.0000     0.0000 </r>
        <r>    14.4957     0.0000     0.0225     0.0225     0.0225     0.0000     0.0000     0.0000     0.0000     0.0000 </r>
        <r>    14.5770     0.0000     0.0021     0.0021     0.0021     0.0000     0.0000     0.0000     0.0000     0.0000 </r>
        <r>    14.6583     0.0000     0.0427     0.0427     0.0427     0.0000     0.0000     0.0000     0.0000     0.0000 </r>
        <r>    14.7397     0.0000     0.0235     0.0235     0.0235     0.0000     0.0000     0.0000     0.0000     0.0000 </r>
        <r>    14.8210     0.0000     0.0022     0.0022     0.0022     0.0000     0.0000     0.0000     0.0000     0.0000 </r>
        <r>    14.9023     0.0000     0.0432     0.0432     0.0432     0.0000     0.0000     0.0000     0.0000     0.0000 </r>
        <r>    14.9836     0.0000     0.0238     0.0238     0.0238     0.0000     0.0000     0.0000     0.0000     0.0000 </r>
        <r>    15.0650     0.0000     0.0024     0.0024     0.0024     0.0000     0.0000     0.0000     0.0000     0.0000 </r>
        <r>    15.1463     0.0000     0.0447     0.0447     0.0447     0.0000     0.0000     0.0000     0.0000     0.0000 </r>
        <r>    15.2276     0.0000     0.0234     0.0234     0.0234     0.0000     0.0000     0.0000     0.0000     0.0000 </r>
        <r>    15.3090     0.0000     0.0031     0.0031     0.0031     0.0000     0.0000     0.0000     0.0000     0.0000 </r>
        <r>    15.3903     0.0000     0.0486     0.0486     0.0486     0.0000     0.0000     0.0000     0.0000     0.0000 </r>
        <r>    15.4716     0.0000     0.0210     0.0210     0.0210     0.0000     0.0000     0.0000     0.0000     0.0000 </r>
        <r>    15.5529     0.0000     0.0060     0.0060     0.0060     0.0000     0.0000     0.0000     0.0000     0.0000 </r>
        <r>    15.6343     0.0000     0.0558     0.0558     0.0558     0.0000     0.0000     0.0000     0.0000     0.0000 </r>
        <r>    15.7156     0.0000     0.0148     0.0148     0.0148     0.0000     0.0000     0.0000     0.0000     0.0000 </r>
        <r>    15.7969     0.0000     0.0213     0.0213     0.0213     0.0000     0.0000     0.0000     0.0000     0.0000 </r>
        <r>    15.8782     0.0000     0.0572     0.0572     0.0572     0.0000     0.0000     0.0000     0.0000     0.0000 </r>
        <r>    15.9596     0.0000     0.0188     0.0188     0.0188     0.0000     0.0000     0.0000     0.0000     0.0000 </r>
        <r>    16.0409     0.0000     0.0888     0.0888     0.0888     0.0000     0.0000     0.0000     0.0000     0.0000 </r>
        <r>    16.1222     0.0000     0.0798     0.0798     0.0798     0.0000     0.0000     0.0000     0.0000     0.0000 </r>
        <r>    16.2036     0.0000     0.0066     0.0066     0.0066     0.0000     0.0000     0.0000     0.0000     0.0000 </r>
        <r>    16.2849     0.0000     0.0000     0.0000     0.0000     0.0000     0.0000     0.0000     0.0000     0.0000 </r>
        <r>    16.3662     0.0000     0.0000     0.0000     0.0000     0.0000     0.0000     0.0000     0.0000     0.0000 </r>
        <r>    16.4475     0.0000     0.0000     0.0000     0.0000     0.0000     0.0000     0.0000     0.0000     0.0000 </r>
        <r>    16.5289     0.0000     0.0000     0.0000     0.0000     0.0000     0.0000     0.0000     0.0000     0.0000 </r>
        <r>    16.6102     0.0000     0.0000     0.0000     0.0000     0.0000     0.0000     0.0000     0.0000     0.0000 </r>
        <r>    16.6915     0.0000     0.0000     0.0000     0.0000     0.0000     0.0000     0.0000     0.0000     0.0000 </r>
        <r>    16.7728     0.0000     0.0000     0.0000     0.0000     0.0000     0.0000     0.0000     0.0000     0.0000 </r>
        <r>    16.8542     0.0000     0.0000     0.0000     0.0000     0.0000     0.0000     0.0000     0.0000     0.0000 </r>
        <r>    16.9355     0.0000     0.0000     0.0000     0.0000     0.0000     0.0000     0.0000     0.0000     0.0000 </r>
        <r>    17.0168     0.0000     0.0000     0.0000     0.0000     0.0000     0.0000     0.0000     0.0000     0.0000 </r>
        <r>    17.0982     0.0000     0.0000     0.0000     0.0000     0.0000     0.0000     0.0000     0.0000     0.0000 </r>
        <r>    17.1795     0.0000     0.0000     0.0000     0.0000     0.0000     0.0000     0.0000     0.0000     0.0000 </r>
       </set>
      </set>
     </set>
    </array>
   </partial>
  </dos>
  <projected>
   <eigenvalues>
    <array>
     <dimension dim="1">band</dimension>
     <dimension dim="2">kpoint</dimension>
     <dimension dim="3">spin</dimension>
     <field>eigene</field>
     <field>occ</field>
     <set>
      <set comment="spin 1">
       <set comment="kpoint 1">
        <r>   -1.9416    1.0000 </r>
        <r>   -1.9416    1.0000 </r>
        <r>    3.0264    1.0000 </r>
        <r>    3.0264    1.0000 </r>
        <r>    6.5928    0.0000 </r>
        <r>    6.5928    0.0000 </r>
        <r>   16.0687    0.0000 </r>
        <r>   16.0705    0.0000 </r>
       </set>
       <set comment="kpoint 2">
        <r>   -2.1394    1.0000 </r>
        <r>   -1.7403    1.0000 </r>
        <r>    3.0290    1.0000 </r>
        <r>    3.0290    1.0000 </r>
        <r>    6.5510    0.0000 </r>
        <r>    6.6423    0.0000 </r>
        <r>   15.9939    0.0000 </r>
        <r>   15.9971    0.0000 </r>
       </set>
       <set comment="kpoint 3">
        <r>   -2.3336    1.0000 </r>
        <r>   -1.5357    1.0000 </r>
        <r>    3.0369    1.0000 </r>
        <r>    3.0369    1.0000 </r>
        <r>    6.5171    0.0000 </r>
        <r>    6.7001    0.0000 </r>
        <r>   15.8197    0.0000 </r>
        <r>   15.8197    0.0000 </r>
       </set>
       <set comment="kpoint 4">
        <r>   -2.5240    1.0000 </r>
        <r>   -1.3280    1.0000 </r>
        <r>    3.0499    1.0000 </r>
        <r>    3.0499    1.0000 </r>
        <r>    6.4906    0.0000 </r>
        <r>    6.7656    0.0000 </r>
        <r>   15.6035    0.0000 </r>
        <r>   15.6036    0.0000 </r>
       </set>
       <set comment="kpoint 5">
        <r>   -2.7106    1.0000 </r>
        <r>   -1.1174    1.0000 </r>
        <r>    3.0682    1.0000 </r>
        <r>    3.0682    1.0000 </r>
        <r>    6.4716    0.0000 </r>
        <r>    6.8393    0.0000 </r>
        <r>   15.3708    0.0000 </r>
        <r>   15.3708    0.0000 </r>
       </set>
       <set comment="kpoint 6">
        <r>   -2.8931    1.0000 </r>
        <r>   -0.9040    1.0000 </r>
        <r>    3.0916    1.0000 </r>
        <r>    3.0916    1.0000 </r>
        <r>    6.4599    0.0000 </r>
        <r>    6.9212    0.0000 </r>
        <r>   15.1312    0.0000 </r>
        <r>   15.1312    0.0000 </r>
       </set>
       <set comment="kpoint 7">
        <r>   -3.0715    1.0000 </r>
        <r>   -0.6880    1.0000 </r>
        <r>    3.1203    1.0000 </r>
        <r>    3.1203    1.0000 </r>
        <r>    6.4555    0.0000 </r>
        <r>    7.0114    0.0000 </r>
        <r>   14.8884    0.0000 </r>
        <r>   14.8884    0.0000 </r>
       </set>
       <set comment="kpoint 8">
        <r>   -3.2456    1.0000 </r>
        <r>   -0.4697    1.0000 </r>
        <r>    3.1541    1.0000 </r>
        <r>    3.1541    1.0000 </r>
        <r>    6.4581    0.0000 </r>
        <r>    7.1100    0.0000 </r>
        <r>   14.6445    0.0000 </r>
        <r>   14.6445    0.0000 </r>
       </set>
       <set comment="kpoint 9">
        <r>   -3.4153    1.0000 </r>
        <r>   -0.2491    1.0000 </r>
        <r>    3.1930    1.0000 </r>
        <r>    3.1930    1.0000 </r>
        <r>    6.4676    0.0000 </r>
        <r>    7.2169    0.0000 </r>
        <r>   14.3993    0.0000 </r>
        <r>   14.3993    0.0000 </r>
       </set>
       <set comment="kpoint 10">
        <r>   -3.5805    1.0000 </r>
        <r>   -0.0266    1.0000 </r>
        <r>    3.2370    1.0000 </r>
        <r>    3.2370    1.0000 </r>
        <r>    6.4837    0.0000 </r>
        <r>    7.3322    0.0000 </r>
        <r>   14.1558    0.0000 </r>
        <r>   14.1558    0.0000 </r>
       </set>
       <set comment="kpoint 11">
        <r>   -3.7411    1.0000 </r>
        <r>    0.1978    1.0000 </r>
        <r>    3.2861    1.0000 </r>
        <r>    3.2861    1.0000 </r>
        <r>    6.5074    0.0000 </r>
        <r>    7.4563    0.0000 </r>
        <r>   13.9142    0.0000 </r>
        <r>   13.9142    0.0000 </r>
       </set>
       <set comment="kpoint 12">
        <r>   -3.8971    1.0000 </r>
        <r>    0.4237    1.0000 </r>
        <r>    3.3402    1.0000 </r>
        <r>    3.3402    1.0000 </r>
        <r>    6.5368    0.0000 </r>
        <r>    7.5886    0.0000 </r>
        <r>   13.6721    0.0000 </r>
        <r>   13.6721    0.0000 </r>
       </set>
       <set comment="kpoint 13">
        <r>   -4.0482    1.0000 </r>
        <r>    0.6510    1.0000 </r>
        <r>    3.3992    1.0000 </r>
        <r>    3.3992    1.0000 </r>
        <r>    6.5725    0.0000 </r>
        <r>    7.7294    0.0000 </r>
        <r>   13.4317    0.0000 </r>
        <r>   13.4318    0.0000 </r>
       </set>
       <set comment="kpoint 14">
        <r>   -4.1945    1.0000 </r>
        <r>    0.8795    1.0000 </r>
        <r>    3.4632    1.0000 </r>
        <r>    3.4632    1.0000 </r>
        <r>    6.6143    0.0000 </r>
        <r>    7.8785    0.0000 </r>
        <r>   13.1927    0.0000 </r>
        <r>   13.1927    0.0000 </r>
       </set>
       <set comment="kpoint 15">
        <r>   -4.3358    1.0000 </r>
        <r>    1.1090    1.0000 </r>
        <r>    3.5320    1.0000 </r>
        <r>    3.5320    1.0000 </r>
        <r>    6.6620    0.0000 </r>
        <r>    8.0357    0.0000 </r>
        <r>   12.9551    0.0000 </r>
        <r>   12.9551    0.0000 </r>
       </set>
       <set comment="kpoint 16">
        <r>   -4.4721    1.0000 </r>
        <r>    1.3393    1.0000 </r>
        <r>    3.6056    1.0000 </r>
        <r>    3.6056    1.0000 </r>
        <r>    6.7156    0.0000 </r>
        <r>    8.2008    0.0000 </r>
        <r>   12.7190    0.0000 </r>
        <r>   12.7190    0.0000 </r>
       </set>
       <set comment="kpoint 17">
        <r>   -4.6033    1.0000 </r>
        <r>    1.5702    1.0000 </r>
        <r>    3.6839    1.0000 </r>
        <r>    3.6839    1.0000 </r>
        <r>    6.7746    0.0000 </r>
        <r>    8.3734    0.0000 </r>
        <r>   12.4845    0.0000 </r>
        <r>   12.4845    0.0000 </r>
       </set>
       <set comment="kpoint 18">
        <r>   -4.7293    1.0000 </r>
        <r>    1.8014    1.0000 </r>
        <r>    3.7668    1.0000 </r>
        <r>    3.7668    1.0000 </r>
        <r>    6.8388    0.0000 </r>
        <r>    8.5531    0.0000 </r>
        <r>   12.2516    0.0000 </r>
        <r>   12.2516    0.0000 </r>
       </set>
       <set comment="kpoint 19">
        <r>   -4.8501    1.0000 </r>
        <r>    2.0329    1.0000 </r>
        <r>    3.8542    1.0000 </r>
        <r>    3.8542    1.0000 </r>
        <r>    6.9081    0.0000 </r>
        <r>    8.7391    0.0000 </r>
        <r>   12.0205    0.0000 </r>
        <r>   12.0205    0.0000 </r>
       </set>
       <set comment="kpoint 20">
        <r>   -4.9657    1.0000 </r>
        <r>    2.2642    1.0000 </r>
        <r>    3.9458    1.0000 </r>
        <r>    3.9458    1.0000 </r>
        <r>    6.9816    0.0000 </r>
        <r>    8.9304    0.0000 </r>
        <r>   11.7895    0.0000 </r>
        <r>   11.7895    0.0000 </r>
       </set>
       <set comment="kpoint 21">
        <r>   -5.0759    1.0000 </r>
        <r>    2.4953    1.0000 </r>
        <r>    4.0417    1.0000 </r>
        <r>    4.0417    1.0000 </r>
        <r>    7.0600    0.0000 </r>
        <r>    9.1263    0.0000 </r>
        <r>   11.5623    0.0000 </r>
        <r>   11.5623    0.0000 </r>
       </set>
       <set comment="kpoint 22">
        <r>   -5.1808    1.0000 </r>
        <r>    2.7261    1.0000 </r>
        <r>    4.1418    1.0000 </r>
        <r>    4.1418    1.0000 </r>
        <r>    7.1427    0.0000 </r>
        <r>    9.3250    0.0000 </r>
        <r>   11.3379    0.0000 </r>
        <r>   11.3379    0.0000 </r>
       </set>
       <set comment="kpoint 23">
        <r>   -5.2802    1.0000 </r>
        <r>    2.9561    1.0000 </r>
        <r>    4.2456    1.0000 </r>
        <r>    4.2456    1.0000 </r>
        <r>    7.2287    0.0000 </r>
        <r>    9.5240    0.0000 </r>
        <r>   11.1154    0.0000 </r>
        <r>   11.1154    0.0000 </r>
       </set>
       <set comment="kpoint 24">
        <r>   -5.3741    1.0000 </r>
        <r>    3.1851    1.0000 </r>
        <r>    4.3530    1.0000 </r>
        <r>    4.3530    1.0000 </r>
        <r>    7.3180    0.0000 </r>
        <r>    9.7198    0.0000 </r>
        <r>   10.8957    0.0000 </r>
        <r>   10.8957    0.0000 </r>
       </set>
       <set comment="kpoint 25">
        <r>   -5.4625    1.0000 </r>
        <r>    3.4128    1.0000 </r>
        <r>    4.4637    1.0000 </r>
        <r>    4.4637    1.0000 </r>
        <r>    7.4098    0.0000 </r>
        <r>    9.9076    0.0000 </r>
        <r>   10.6790    0.0000 </r>
        <r>   10.6790    0.0000 </r>
       </set>
       <set comment="kpoint 26">
        <r>   -5.5454    1.0000 </r>
        <r>    3.6388    1.0000 </r>
        <r>    4.5774    1.0000 </r>
        <r>    4.5774    1.0000 </r>
        <r>    7.5037    0.0000 </r>
        <r>   10.0796    0.0000 </r>
        <r>   10.4657    0.0000 </r>
        <r>   10.4657    0.0000 </r>
       </set>
       <set comment="kpoint 27">
        <r>   -5.6227    1.0000 </r>
        <r>    3.8628    1.0000 </r>
        <r>    4.6935    1.0000 </r>
        <r>    4.6935    1.0000 </r>
        <r>    7.5989    0.0000 </r>
        <r>   10.2265    0.0000 </r>
        <r>   10.2564    0.0000 </r>
        <r>   10.2564    0.0000 </r>
       </set>
       <set comment="kpoint 28">
        <r>   -5.6944    1.0000 </r>
        <r>    4.0840    1.0000 </r>
        <r>    4.8118    1.0000 </r>
        <r>    4.8118    1.0000 </r>
        <r>    7.6948    0.0000 </r>
        <r>   10.0518    0.0000 </r>
        <r>   10.0518    0.0000 </r>
        <r>   10.3311    0.0000 </r>
       </set>
       <set comment="kpoint 29">
        <r>   -5.7605    1.0000 </r>
        <r>    4.3016    1.0000 </r>
        <r>    4.9314    1.0000 </r>
        <r>    4.9314    1.0000 </r>
        <r>    7.7904    0.0000 </r>
        <r>    9.8522    0.0000 </r>
        <r>    9.8522    0.0000 </r>
        <r>   10.3797    0.0000 </r>
       </set>
       <set comment="kpoint 30">
        <r>   -5.8209    1.0000 </r>
        <r>    4.5148    1.0000 </r>
        <r>    5.0517    1.0000 </r>
        <r>    5.0517    1.0000 </r>
        <r>    7.8847    0.0000 </r>
        <r>    9.6586    0.0000 </r>
        <r>    9.6586    0.0000 </r>
        <r>   10.3657    0.0000 </r>
       </set>
       <set comment="kpoint 31">
        <r>   -5.8756    1.0000 </r>
        <r>    4.7225    1.0000 </r>
        <r>    5.1715    1.0000 </r>
        <r>    5.1715    1.0000 </r>
        <r>    7.9764    0.0000 </r>
        <r>    9.4714    0.0000 </r>
        <r>    9.4714    0.0000 </r>
        <r>   10.2947    0.0000 </r>
       </set>
       <set comment="kpoint 32">
        <r>   -5.9247    1.0000 </r>
        <r>    4.9229    1.0000 </r>
        <r>    5.2898    1.0000 </r>
        <r>    5.2898    1.0000 </r>
        <r>    8.0645    0.0000 </r>
        <r>    9.2934    0.0000 </r>
        <r>    9.2934    0.0000 </r>
        <r>   10.1823    0.0000 </r>
       </set>
       <set comment="kpoint 33">
        <r>   -5.9679    1.0000 </r>
        <r>    5.1142    1.0000 </r>
        <r>    5.4048    1.0000 </r>
        <r>    5.4048    1.0000 </r>
        <r>    8.1476    0.0000 </r>
        <r>    9.1254    0.0000 </r>
        <r>    9.1254    0.0000 </r>
        <r>   10.0455    0.0000 </r>
       </set>
       <set comment="kpoint 34">
        <r>   -6.0055    1.0000 </r>
        <r>    5.2938    1.0000 </r>
        <r>    5.5146    1.0000 </r>
        <r>    5.5146    1.0000 </r>
        <r>    8.2242    0.0000 </r>
        <r>    8.9696    0.0000 </r>
        <r>    8.9696    0.0000 </r>
        <r>    9.8989    0.0000 </r>
       </set>
       <set comment="kpoint 35">
        <r>   -6.0373    1.0000 </r>
        <r>    5.4582    1.0000 </r>
        <r>    5.6167    1.0000 </r>
        <r>    5.6167    1.0000 </r>
        <r>    8.2926    0.0000 </r>
        <r>    8.8285    0.0000 </r>
        <r>    8.8285    0.0000 </r>
        <r>    9.7538    0.0000 </r>
       </set>
       <set comment="kpoint 36">
        <r>   -6.0633    1.0000 </r>
        <r>    5.6033    1.0000 </r>
        <r>    5.7080    1.0000 </r>
        <r>    5.7080    1.0000 </r>
        <r>    8.3514    0.0000 </r>
        <r>    8.7052    0.0000 </r>
        <r>    8.7052    0.0000 </r>
        <r>    9.6195    0.0000 </r>
       </set>
       <set comment="kpoint 37">
        <r>   -6.0836    1.0000 </r>
        <r>    5.7244    1.0000 </r>
        <r>    5.7849    1.0000 </r>
        <r>    5.7849    1.0000 </r>
        <r>    8.3990    0.0000 </r>
        <r>    8.6033    0.0000 </r>
        <r>    8.6033    0.0000 </r>
        <r>    9.5043    0.0000 </r>
       </set>
       <set comment="kpoint 38">
        <r>   -6.0980    1.0000 </r>
        <r>    5.8162    1.0000 </r>
        <r>    5.8437    1.0000 </r>
        <r>    5.8437    1.0000 </r>
        <r>    8.4340    0.0000 </r>
        <r>    8.5267    0.0000 </r>
        <r>    8.5267    0.0000 </r>
        <r>    9.4155    0.0000 </r>
       </set>
       <set comment="kpoint 39">
        <r>   -6.1067    1.0000 </r>
        <r>    5.8738    1.0000 </r>
        <r>    5.8807    1.0000 </r>
        <r>    5.8807    1.0000 </r>
        <r>    8.4555    0.0000 </r>
        <r>    8.4790    0.0000 </r>
        <r>    8.4790    0.0000 </r>
        <r>    9.3593    0.0000 </r>
       </set>
       <set comment="kpoint 40">
        <r>   -6.1096    1.0000 </r>
        <r>    5.8934    1.0000 </r>
        <r>    5.8934    1.0000 </r>
        <r>    5.8934    1.0000 </r>
        <r>    8.4628    0.0000 </r>
        <r>    8.4628    0.0000 </r>
        <r>    8.4628    0.0000 </r>
        <r>    9.3400    0.0000 </r>
       </set>
       <set comment="kpoint 41">
        <r>   -6.1096    1.0000 </r>
        <r>    5.8934    1.0000 </r>
        <r>    5.8934    1.0000 </r>
        <r>    5.8934    1.0000 </r>
        <r>    8.4628    0.0000 </r>
        <r>    8.4628    0.0000 </r>
        <r>    8.4628    0.0000 </r>
        <r>    9.3400    0.0000 </r>
       </set>
       <set comment="kpoint 42">
        <r>   -6.1067    1.0000 </r>
        <r>    5.8738    1.0000 </r>
        <r>    5.8807    1.0000 </r>
        <r>    5.8807    1.0000 </r>
        <r>    8.4555    0.0000 </r>
        <r>    8.4790    0.0000 </r>
        <r>    8.4790    0.0000 </r>
        <r>    9.3593    0.0000 </r>
       </set>
       <set comment="kpoint 43">
        <r>   -6.0980    1.0000 </r>
        <r>    5.8162    1.0000 </r>
        <r>    5.8437    1.0000 </r>
        <r>    5.8437    1.0000 </r>
        <r>    8.4340    0.0000 </r>
        <r>    8.5267    0.0000 </r>
        <r>    8.5267    0.0000 </r>
        <r>    9.4155    0.0000 </r>
       </set>
       <set comment="kpoint 44">
        <r>   -6.0836    1.0000 </r>
        <r>    5.7244    1.0000 </r>
        <r>    5.7849    1.0000 </r>
        <r>    5.7849    1.0000 </r>
        <r>    8.3990    0.0000 </r>
        <r>    8.6033    0.0000 </r>
        <r>    8.6033    0.0000 </r>
        <r>    9.5043    0.0000 </r>
       </set>
       <set comment="kpoint 45">
        <r>   -6.0633    1.0000 </r>
        <r>    5.6033    1.0000 </r>
        <r>    5.7080    1.0000 </r>
        <r>    5.7080    1.0000 </r>
        <r>    8.3514    0.0000 </r>
        <r>    8.7052    0.0000 </r>
        <r>    8.7052    0.0000 </r>
        <r>    9.6195    0.0000 </r>
       </set>
       <set comment="kpoint 46">
        <r>   -6.0373    1.0000 </r>
        <r>    5.4582    1.0000 </r>
        <r>    5.6167    1.0000 </r>
        <r>    5.6167    1.0000 </r>
        <r>    8.2926    0.0000 </r>
        <r>    8.8285    0.0000 </r>
        <r>    8.8285    0.0000 </r>
        <r>    9.7538    0.0000 </r>
       </set>
       <set comment="kpoint 47">
        <r>   -6.0055    1.0000 </r>
        <r>    5.2938    1.0000 </r>
        <r>    5.5146    1.0000 </r>
        <r>    5.5146    1.0000 </r>
        <r>    8.2242    0.0000 </r>
        <r>    8.9696    0.0000 </r>
        <r>    8.9696    0.0000 </r>
        <r>    9.8989    0.0000 </r>
       </set>
       <set comment="kpoint 48">
        <r>   -5.9679    1.0000 </r>
        <r>    5.1142    1.0000 </r>
        <r>    5.4048    1.0000 </r>
        <r>    5.4048    1.0000 </r>
        <r>    8.1476    0.0000 </r>
        <r>    9.1254    0.0000 </r>
        <r>    9.1254    0.0000 </r>
        <r>   10.0455    0.0000 </r>
       </set>
       <set comment="kpoint 49">
        <r>   -5.9247    1.0000 </r>
        <r>    4.9229    1.0000 </r>
        <r>    5.2898    1.0000 </r>
        <r>    5.2898    1.0000 </r>
        <r>    8.0645    0.0000 </r>
        <r>    9.2934    0.0000 </r>
        <r>    9.2934    0.0000 </r>
        <r>   10.1823    0.0000 </r>
       </set>
       <set comment="kpoint 50">
        <r>   -5.8756    1.0000 </r>
        <r>    4.7225    1.0000 </r>
        <r>    5.1715    1.0000 </r>
        <r>    5.1715    1.0000 </r>
        <r>    7.9764    0.0000 </r>
        <r>    9.4714    0.0000 </r>
        <r>    9.4714    0.0000 </r>
        <r>   10.2947    0.0000 </r>
       </set>
       <set comment="kpoint 51">
        <r>   -5.8209    1.0000 </r>
        <r>    4.5148    1.0000 </r>
        <r>    5.0517    1.0000 </r>
        <r>    5.0517    1.0000 </r>
        <r>    7.8847    0.0000 </r>
        <r>    9.6586    0.0000 </r>
        <r>    9.6586    0.0000 </r>
        <r>   10.3657    0.0000 </r>
       </set>
       <set comment="kpoint 52">
        <r>   -5.7605    1.0000 </r>
        <r>    4.3016    1.0000 </r>
        <r>    4.9314    1.0000 </r>
        <r>    4.9314    1.0000 </r>
        <r>    7.7904    0.0000 </r>
        <r>    9.8522    0.0000 </r>
        <r>    9.8522    0.0000 </r>
        <r>   10.3797    0.0000 </r>
       </set>
       <set comment="kpoint 53">
        <r>   -5.6944    1.0000 </r>
        <r>    4.0840    1.0000 </r>
        <r>    4.8118    1.0000 </r>
        <r>    4.8118    1.0000 </r>
        <r>    7.6948    0.0000 </r>
        <r>   10.0518    0.0000 </r>
        <r>   10.0518    0.0000 </r>
        <r>   10.3311    0.0000 </r>
       </set>
       <set comment="kpoint 54">
        <r>   -5.6227    1.0000 </r>
        <r>    3.8628    1.0000 </r>
        <r>    4.6935    1.0000 </r>
        <r>    4.6935    1.0000 </r>
        <r>    7.5989    0.0000 </r>
        <r>   10.2265    0.0000 </r>
        <r>   10.2564    0.0000 </r>
        <r>   10.2564    0.0000 </r>
       </set>
       <set comment="kpoint 55">
        <r>   -5.5454    1.0000 </r>
        <r>    3.6388    1.0000 </r>
        <r>    4.5774    1.0000 </r>
        <r>    4.5774    1.0000 </r>
        <r>    7.5037    0.0000 </r>
        <r>   10.0796    0.0000 </r>
        <r>   10.4657    0.0000 </r>
        <r>   10.4657    0.0000 </r>
       </set>
       <set comment="kpoint 56">
        <r>   -5.4625    1.0000 </r>
        <r>    3.4128    1.0000 </r>
        <r>    4.4637    1.0000 </r>
        <r>    4.4637    1.0000 </r>
        <r>    7.4098    0.0000 </r>
        <r>    9.9076    0.0000 </r>
        <r>   10.6790    0.0000 </r>
        <r>   10.6790    0.0000 </r>
       </set>
       <set comment="kpoint 57">
        <r>   -5.3741    1.0000 </r>
        <r>    3.1851    1.0000 </r>
        <r>    4.3530    1.0000 </r>
        <r>    4.3530    1.0000 </r>
        <r>    7.3180    0.0000 </r>
        <r>    9.7198    0.0000 </r>
        <r>   10.8957    0.0000 </r>
        <r>   10.8957    0.0000 </r>
       </set>
       <set comment="kpoint 58">
        <r>   -5.2802    1.0000 </r>
        <r>    2.9561    1.0000 </r>
        <r>    4.2456    1.0000 </r>
        <r>    4.2456    1.0000 </r>
        <r>    7.2287    0.0000 </r>
        <r>    9.5240    0.0000 </r>
        <r>   11.1154    0.0000 </r>
        <r>   11.1154    0.0000 </r>
       </set>
       <set comment="kpoint 59">
        <r>   -5.1808    1.0000 </r>
        <r>    2.7261    1.0000 </r>
        <r>    4.1418    1.0000 </r>
        <r>    4.1418    1.0000 </r>
        <r>    7.1427    0.0000 </r>
        <r>    9.3250    0.0000 </r>
        <r>   11.3379    0.0000 </r>
        <r>   11.3379    0.0000 </r>
       </set>
       <set comment="kpoint 60">
        <r>   -5.0759    1.0000 </r>
        <r>    2.4953    1.0000 </r>
        <r>    4.0417    1.0000 </r>
        <r>    4.0417    1.0000 </r>
        <r>    7.0600    0.0000 </r>
        <r>    9.1263    0.0000 </r>
        <r>   11.5623    0.0000 </r>
        <r>   11.5623    0.0000 </r>
       </set>
       <set comment="kpoint 61">
        <r>   -4.9657    1.0000 </r>
        <r>    2.2642    1.0000 </r>
        <r>    3.9458    1.0000 </r>
        <r>    3.9458    1.0000 </r>
        <r>    6.9816    0.0000 </r>
        <r>    8.9304    0.0000 </r>
        <r>   11.7895    0.0000 </r>
        <r>   11.7895    0.0000 </r>
       </set>
       <set comment="kpoint 62">
        <r>   -4.8501    1.0000 </r>
        <r>    2.0329    1.0000 </r>
        <r>    3.8542    1.0000 </r>
        <r>    3.8542    1.0000 </r>
        <r>    6.9081    0.0000 </r>
        <r>    8.7391    0.0000 </r>
        <r>   12.0205    0.0000 </r>
        <r>   12.0205    0.0000 </r>
       </set>
       <set comment="kpoint 63">
        <r>   -4.7293    1.0000 </r>
        <r>    1.8014    1.0000 </r>
        <r>    3.7668    1.0000 </r>
        <r>    3.7668    1.0000 </r>
        <r>    6.8388    0.0000 </r>
        <r>    8.5531    0.0000 </r>
        <r>   12.2516    0.0000 </r>
        <r>   12.2516    0.0000 </r>
       </set>
       <set comment="kpoint 64">
        <r>   -4.6033    1.0000 </r>
        <r>    1.5702    1.0000 </r>
        <r>    3.6839    1.0000 </r>
        <r>    3.6839    1.0000 </r>
        <r>    6.7746    0.0000 </r>
        <r>    8.3734    0.0000 </r>
        <r>   12.4845    0.0000 </r>
        <r>   12.4845    0.0000 </r>
       </set>
       <set comment="kpoint 65">
        <r>   -4.4721    1.0000 </r>
        <r>    1.3393    1.0000 </r>
        <r>    3.6056    1.0000 </r>
        <r>    3.6056    1.0000 </r>
        <r>    6.7156    0.0000 </r>
        <r>    8.2008    0.0000 </r>
        <r>   12.7190    0.0000 </r>
        <r>   12.7190    0.0000 </r>
       </set>
       <set comment="kpoint 66">
        <r>   -4.3358    1.0000 </r>
        <r>    1.1090    1.0000 </r>
        <r>    3.5320    1.0000 </r>
        <r>    3.5320    1.0000 </r>
        <r>    6.6620    0.0000 </r>
        <r>    8.0357    0.0000 </r>
        <r>   12.9551    0.0000 </r>
        <r>   12.9551    0.0000 </r>
       </set>
       <set comment="kpoint 67">
        <r>   -4.1945    1.0000 </r>
        <r>    0.8795    1.0000 </r>
        <r>    3.4632    1.0000 </r>
        <r>    3.4632    1.0000 </r>
        <r>    6.6143    0.0000 </r>
        <r>    7.8785    0.0000 </r>
        <r>   13.1927    0.0000 </r>
        <r>   13.1927    0.0000 </r>
       </set>
       <set comment="kpoint 68">
        <r>   -4.0482    1.0000 </r>
        <r>    0.6510    1.0000 </r>
        <r>    3.3992    1.0000 </r>
        <r>    3.3992    1.0000 </r>
        <r>    6.5725    0.0000 </r>
        <r>    7.7294    0.0000 </r>
        <r>   13.4317    0.0000 </r>
        <r>   13.4318    0.0000 </r>
       </set>
       <set comment="kpoint 69">
        <r>   -3.8971    1.0000 </r>
        <r>    0.4237    1.0000 </r>
        <r>    3.3402    1.0000 </r>
        <r>    3.3402    1.0000 </r>
        <r>    6.5368    0.0000 </r>
        <r>    7.5886    0.0000 </r>
        <r>   13.6721    0.0000 </r>
        <r>   13.6721    0.0000 </r>
       </set>
       <set comment="kpoint 70">
        <r>   -3.7411    1.0000 </r>
        <r>    0.1978    1.0000 </r>
        <r>    3.2861    1.0000 </r>
        <r>    3.2861    1.0000 </r>
        <r>    6.5074    0.0000 </r>
        <r>    7.4563    0.0000 </r>
        <r>   13.9142    0.0000 </r>
        <r>   13.9142    0.0000 </r>
       </set>
       <set comment="kpoint 71">
        <r>   -3.5805    1.0000 </r>
        <r>   -0.0266    1.0000 </r>
        <r>    3.2370    1.0000 </r>
        <r>    3.2370    1.0000 </r>
        <r>    6.4837    0.0000 </r>
        <r>    7.3322    0.0000 </r>
        <r>   14.1558    0.0000 </r>
        <r>   14.1558    0.0000 </r>
       </set>
       <set comment="kpoint 72">
        <r>   -3.4153    1.0000 </r>
        <r>   -0.2491    1.0000 </r>
        <r>    3.1930    1.0000 </r>
        <r>    3.1930    1.0000 </r>
        <r>    6.4676    0.0000 </r>
        <r>    7.2169    0.0000 </r>
        <r>   14.3993    0.0000 </r>
        <r>   14.3993    0.0000 </r>
       </set>
       <set comment="kpoint 73">
        <r>   -3.2456    1.0000 </r>
        <r>   -0.4697    1.0000 </r>
        <r>    3.1541    1.0000 </r>
        <r>    3.1541    1.0000 </r>
        <r>    6.4581    0.0000 </r>
        <r>    7.1100    0.0000 </r>
        <r>   14.6445    0.0000 </r>
        <r>   14.6445    0.0000 </r>
       </set>
       <set comment="kpoint 74">
        <r>   -3.0715    1.0000 </r>
        <r>   -0.6880    1.0000 </r>
        <r>    3.1203    1.0000 </r>
        <r>    3.1203    1.0000 </r>
        <r>    6.4555    0.0000 </r>
        <r>    7.0114    0.0000 </r>
        <r>   14.8884    0.0000 </r>
        <r>   14.8885    0.0000 </r>
       </set>
       <set comment="kpoint 75">
        <r>   -2.8931    1.0000 </r>
        <r>   -0.9040    1.0000 </r>
        <r>    3.0916    1.0000 </r>
        <r>    3.0916    1.0000 </r>
        <r>    6.4599    0.0000 </r>
        <r>    6.9212    0.0000 </r>
        <r>   15.1312    0.0000 </r>
        <r>   15.1312    0.0000 </r>
       </set>
       <set comment="kpoint 76">
        <r>   -2.7106    1.0000 </r>
        <r>   -1.1174    1.0000 </r>
        <r>    3.0682    1.0000 </r>
        <r>    3.0682    1.0000 </r>
        <r>    6.4716    0.0000 </r>
        <r>    6.8393    0.0000 </r>
        <r>   15.3708    0.0000 </r>
        <r>   15.3708    0.0000 </r>
       </set>
       <set comment="kpoint 77">
        <r>   -2.5240    1.0000 </r>
        <r>   -1.3280    1.0000 </r>
        <r>    3.0499    1.0000 </r>
        <r>    3.0499    1.0000 </r>
        <r>    6.4906    0.0000 </r>
        <r>    6.7656    0.0000 </r>
        <r>   15.6035    0.0000 </r>
        <r>   15.6035    0.0000 </r>
       </set>
       <set comment="kpoint 78">
        <r>   -2.3336    1.0000 </r>
        <r>   -1.5357    1.0000 </r>
        <r>    3.0369    1.0000 </r>
        <r>    3.0369    1.0000 </r>
        <r>    6.5171    0.0000 </r>
        <r>    6.7001    0.0000 </r>
        <r>   15.8196    0.0000 </r>
        <r>   15.8201    0.0000 </r>
       </set>
       <set comment="kpoint 79">
        <r>   -2.1394    1.0000 </r>
        <r>   -1.7403    1.0000 </r>
        <r>    3.0290    1.0000 </r>
        <r>    3.0290    1.0000 </r>
        <r>    6.5510    0.0000 </r>
        <r>    6.6423    0.0000 </r>
        <r>   15.9938    0.0000 </r>
        <r>   15.9942    0.0000 </r>
       </set>
       <set comment="kpoint 80">
        <r>   -1.9416    1.0000 </r>
        <r>   -1.9416    1.0000 </r>
        <r>    3.0264    1.0000 </r>
        <r>    3.0264    1.0000 </r>
        <r>    6.5928    0.0000 </r>
        <r>    6.5928    0.0000 </r>
        <r>   16.0684    0.0000 </r>
        <r>   16.0695    0.0000 </r>
       </set>
      </set>
     </set>
    </array>
   </eigenvalues>
   <array>
    <dimension dim="1">ion</dimension>
    <dimension dim="2">band</dimension>
    <dimension dim="3">kpoint</dimension>
    <dimension dim="4">spin</dimension>
    <field>    s</field>
    <field>   py</field>
    <field>   pz</field>
    <field>   px</field>
    <field>  dxy</field>
    <field>  dyz</field>
    <field>  dz2</field>
    <field>  dxz</field>
    <field>x2-y2</field>
    <set>
     <set comment="spin1">
      <set comment="kpoint 1">
       <set comment="band 1">
        <r>  0.1988  0.0000  0.0000  0.0448  0.0000  0.0000  0.0000  0.0000  0.0000 </r>
        <r>  0.1879  0.0000  0.0000  0.0474  0.0000  0.0000  0.0000  0.0000  0.0000 </r>
       </set>
       <set comment="band 2">
        <r>  0.1879  0.0000  0.0000  0.0474  0.0000  0.0000  0.0000  0.0000  0.0000 </r>
        <r>  0.1988  0.0000  0.0000  0.0448  0.0000  0.0000  0.0000  0.0000  0.0000 </r>
       </set>
       <set comment="band 3">
        <r>  0.0000  0.0994  0.0994  0.0000  0.0000  0.0000  0.0000  0.0000  0.0000 </r>
        <r>  0.0000  0.0994  0.0994  0.0000  0.0000  0.0000  0.0000  0.0000  0.0000 </r>
       </set>
       <set comment="band 4">
        <r>  0.0000  0.0994  0.0994  0.0000  0.0000  0.0000  0.0000  0.0000  0.0000 </r>
        <r>  0.0000  0.0994  0.0994  0.0000  0.0000  0.0000  0.0000  0.0000  0.0000 </r>
       </set>
       <set comment="band 5">
        <r>  0.0524  0.0000  0.0000  0.0344  0.0000  0.0000  0.0000  0.0000  0.0000 </r>
        <r>  0.0515  0.0000  0.0000  0.0350  0.0000  0.0000  0.0000  0.0000  0.0000 </r>
       </set>
       <set comment="band 6">
        <r>  0.0515  0.0000  0.0000  0.0350  0.0000  0.0000  0.0000  0.0000  0.0000 </r>
        <r>  0.0524  0.0000  0.0000  0.0344  0.0000  0.0000  0.0000  0.0000  0.0000 </r>
       </set>
       <set comment="band 7">
        <r>  0.0000  0.0047  0.2354  0.0000  0.0000  0.0000  0.0000  0.0000  0.0000 </r>
        <r>  0.0000  0.2356  0.0047  0.0000  0.0000  0.0000  0.0000  0.0000  0.0000 </r>
       </set>
       <set comment="band 8">
        <r>  0.0000  0.2353  0.0046  0.0000  0.0000  0.0000  0.0000  0.0000  0.0000 </r>
        <r>  0.0000  0.0048  0.2355  0.0000  0.0000  0.0000  0.0000  0.0000  0.0000 </r>
       </set>
      </set>
      <set comment="kpoint 2">
       <set comment="band 1">
        <r>  0.1944  0.0000  0.0000  0.0439  0.0000  0.0000  0.0000  0.0000  0.0000 </r>
        <r>  0.1944  0.0000  0.0000  0.0439  0.0000  0.0000  0.0000  0.0000  0.0000 </r>
       </set>
       <set comment="band 2">
        <r>  0.1923  0.0000  0.0000  0.0484  0.0000  0.0000  0.0000  0.0000  0.0000 </r>
        <r>  0.1923  0.0000  0.0000  0.0484  0.0000  0.0000  0.0000  0.0000  0.0000 </r>
       </set>
       <set comment="band 3">
        <r>  0.0000  0.0994  0.0994  0.0000  0.0000  0.0000  0.0000  0.0000  0.0000 </r>
        <r>  0.0000  0.0994  0.0994  0.0000  0.0000  0.0000  0.0000  0.0000  0.0000 </r>
       </set>
       <set comment="band 4">
        <r>  0.0000  0.0994  0.0994  0.0000  0.0000  0.0000  0.0000  0.0000  0.0000 </r>
        <r>  0.0000  0.0994  0.0994  0.0000  0.0000  0.0000  0.0000  0.0000  0.0000 </r>
       </set>
       <set comment="band 5">
        <r>  0.0524  0.0000  0.0000  0.0358  0.0000  0.0000  0.0000  0.0000  0.0000 </r>
        <r>  0.0524  0.0000  0.0000  0.0358  0.0000  0.0000  0.0000  0.0000  0.0000 </r>
       </set>
       <set comment="band 6">
        <r>  0.0514  0.0000  0.0000  0.0337  0.0000  0.0000  0.0000  0.0000  0.0000 </r>
        <r>  0.0514  0.0000  0.0000  0.0337  0.0000  0.0000  0.0000  0.0000  0.0000 </r>
       </set>
       <set comment="band 7">
        <r>  0.0000  0.0393  0.1851  0.0000  0.0000  0.0000  0.0000  0.0000  0.0000 </r>
        <r>  0.0000  0.2028  0.0221  0.0000  0.0000  0.0000  0.0000  0.0000  0.0000 </r>
       </set>
       <set comment="band 8">
        <r>  0.0000  0.1813  0.0401  0.0000  0.0000  0.0000  0.0000  0.0000  0.0000 </r>
        <r>  0.0000  0.0214  0.1980  0.0000  0.0000  0.0000  0.0000  0.0000  0.0000 </r>
       </set>
      </set>
      <set comment="kpoint 3">
       <set comment="band 1">
        <r>  0.1953  0.0000  0.0000  0.0417  0.0000  0.0000  0.0000  0.0000  0.0000 </r>
        <r>  0.1953  0.0000  0.0000  0.0417  0.0000  0.0000  0.0000  0.0000  0.0000 </r>
       </set>
       <set comment="band 2">
        <r>  0.1912  0.0000  0.0000  0.0507  0.0000  0.0000  0.0000  0.0000  0.0000 </r>
        <r>  0.1912  0.0000  0.0000  0.0507  0.0000  0.0000  0.0000  0.0000  0.0000 </r>
       </set>
       <set comment="band 3">
        <r>  0.0000  0.0994  0.0994  0.0000  0.0000  0.0000  0.0000  0.0000  0.0000 </r>
        <r>  0.0000  0.0994  0.0994  0.0000  0.0000  0.0000  0.0000  0.0000  0.0000 </r>
       </set>
       <set comment="band 4">
        <r>  0.0000  0.0994  0.0994  0.0000  0.0000  0.0000  0.0000  0.0000  0.0000 </r>
        <r>  0.0000  0.0994  0.0994  0.0000  0.0000  0.0000  0.0000  0.0000  0.0000 </r>
       </set>
       <set comment="band 5">
        <r>  0.0528  0.0000  0.0000  0.0370  0.0000  0.0000  0.0000  0.0000  0.0000 </r>
        <r>  0.0528  0.0000  0.0000  0.0370  0.0000  0.0000  0.0000  0.0000  0.0000 </r>
       </set>
       <set comment="band 6">
        <r>  0.0508  0.0000  0.0000  0.0329  0.0000  0.0000  0.0000  0.0000  0.0000 </r>
        <r>  0.0508  0.0000  0.0000  0.0329  0.0000  0.0000  0.0000  0.0000  0.0000 </r>
       </set>
       <set comment="band 7">
        <r>  0.0000  0.0649  0.1369  0.0000  0.0000  0.0000  0.0000  0.0000  0.0000 </r>
        <r>  0.0000  0.0980  0.1037  0.0000  0.0000  0.0000  0.0000  0.0000  0.0000 </r>
       </set>
       <set comment="band 8">
        <r>  0.0000  0.1370  0.0647  0.0000  0.0000  0.0000  0.0000  0.0000  0.0000 </r>
        <r>  0.0000  0.1036  0.0980  0.0000  0.0000  0.0000  0.0000  0.0000  0.0000 </r>
       </set>
      </set>
      <set comment="kpoint 4">
       <set comment="band 1">
        <r>  0.1963  0.0000  0.0000  0.0396  0.0000  0.0000  0.0000  0.0000  0.0000 </r>
        <r>  0.1963  0.0000  0.0000  0.0396  0.0000  0.0000  0.0000  0.0000  0.0000 </r>
       </set>
       <set comment="band 2">
        <r>  0.1901  0.0000  0.0000  0.0531  0.0000  0.0000  0.0000  0.0000  0.0000 </r>
        <r>  0.1901  0.0000  0.0000  0.0531  0.0000  0.0000  0.0000  0.0000  0.0000 </r>
       </set>
       <set comment="band 3">
        <r>  0.0000  0.0994  0.0994  0.0000  0.0000  0.0000  0.0000  0.0000  0.0000 </r>
        <r>  0.0000  0.0994  0.0994  0.0000  0.0000  0.0000  0.0000  0.0000  0.0000 </r>
       </set>
       <set comment="band 4">
        <r>  0.0000  0.0994  0.0994  0.0000  0.0000  0.0000  0.0000  0.0000  0.0000 </r>
        <r>  0.0000  0.0994  0.0994  0.0000  0.0000  0.0000  0.0000  0.0000  0.0000 </r>
       </set>
       <set comment="band 5">
        <r>  0.0531  0.0000  0.0000  0.0383  0.0000  0.0000  0.0000  0.0000  0.0000 </r>
        <r>  0.0531  0.0000  0.0000  0.0383  0.0000  0.0000  0.0000  0.0000  0.0000 </r>
       </set>
       <set comment="band 6">
        <r>  0.0501  0.0000  0.0000  0.0321  0.0000  0.0000  0.0000  0.0000  0.0000 </r>
        <r>  0.0501  0.0000  0.0000  0.0321  0.0000  0.0000  0.0000  0.0000  0.0000 </r>
       </set>
       <set comment="band 7">
        <r>  0.0000  0.1504  0.0358  0.0000  0.0000  0.0000  0.0000  0.0000  0.0000 </r>
        <r>  0.0000  0.0632  0.1231  0.0000  0.0000  0.0000  0.0000  0.0000  0.0000 </r>
       </set>
       <set comment="band 8">
        <r>  0.0000  0.0356  0.1500  0.0000  0.0000  0.0000  0.0000  0.0000  0.0000 </r>
        <r>  0.0000  0.1227  0.0630  0.0000  0.0000  0.0000  0.0000  0.0000  0.0000 </r>
       </set>
      </set>
      <set comment="kpoint 5">
       <set comment="band 1">
        <r>  0.1972  0.0000  0.0000  0.0375  0.0000  0.0000  0.0000  0.0000  0.0000 </r>
        <r>  0.1972  0.0000  0.0000  0.0375  0.0000  0.0000  0.0000  0.0000  0.0000 </r>
       </set>
       <set comment="band 2">
        <r>  0.1889  0.0000  0.0000  0.0555  0.0000  0.0000  0.0000  0.0000  0.0000 </r>
        <r>  0.1889  0.0000  0.0000  0.0555  0.0000  0.0000  0.0000  0.0000  0.0000 </r>
       </set>
       <set comment="band 3">
        <r>  0.0000  0.0994  0.0994  0.0000  0.0000  0.0000  0.0000  0.0000  0.0000 </r>
        <r>  0.0000  0.0994  0.0994  0.0000  0.0000  0.0000  0.0000  0.0000  0.0000 </r>
       </set>
       <set comment="band 4">
        <r>  0.0000  0.0994  0.0994  0.0000  0.0000  0.0000  0.0000  0.0000  0.0000 </r>
        <r>  0.0000  0.0994  0.0994  0.0000  0.0000  0.0000  0.0000  0.0000  0.0000 </r>
       </set>
       <set comment="band 5">
        <r>  0.0534  0.0000  0.0000  0.0397  0.0000  0.0000  0.0000  0.0000  0.0000 </r>
        <r>  0.0534  0.0000  0.0000  0.0397  0.0000  0.0000  0.0000  0.0000  0.0000 </r>
       </set>
       <set comment="band 6">
        <r>  0.0494  0.0000  0.0000  0.0314  0.0000  0.0000  0.0000  0.0000  0.0000 </r>
        <r>  0.0494  0.0000  0.0000  0.0314  0.0000  0.0000  0.0000  0.0000  0.0000 </r>
       </set>
       <set comment="band 7">
        <r>  0.0000  0.1539  0.0234  0.0000  0.0000  0.0000  0.0000  0.0000  0.0000 </r>
        <r>  0.0000  0.0464  0.1309  0.0000  0.0000  0.0000  0.0000  0.0000  0.0000 </r>
       </set>
       <set comment="band 8">
        <r>  0.0000  0.0235  0.1539  0.0000  0.0000  0.0000  0.0000  0.0000  0.0000 </r>
        <r>  0.0000  0.1310  0.0465  0.0000  0.0000  0.0000  0.0000  0.0000  0.0000 </r>
       </set>
      </set>
      <set comment="kpoint 6">
       <set comment="band 1">
        <r>  0.1980  0.0000  0.0000  0.0355  0.0000  0.0000  0.0000  0.0000  0.0000 </r>
        <r>  0.1980  0.0000  0.0000  0.0355  0.0000  0.0000  0.0000  0.0000  0.0000 </r>
       </set>
       <set comment="band 2">
        <r>  0.1876  0.0000  0.0000  0.0580  0.0000  0.0000  0.0000  0.0000  0.0000 </r>
        <r>  0.1876  0.0000  0.0000  0.0580  0.0000  0.0000  0.0000  0.0000  0.0000 </r>
       </set>
       <set comment="band 3">
        <r>  0.0000  0.0994  0.0994  0.0000  0.0000  0.0000  0.0000  0.0000  0.0000 </r>
        <r>  0.0000  0.0994  0.0994  0.0000  0.0000  0.0000  0.0000  0.0000  0.0000 </r>
       </set>
       <set comment="band 4">
        <r>  0.0000  0.0994  0.0994  0.0000  0.0000  0.0000  0.0000  0.0000  0.0000 </r>
        <r>  0.0000  0.0994  0.0994  0.0000  0.0000  0.0000  0.0000  0.0000  0.0000 </r>
       </set>
       <set comment="band 5">
        <r>  0.0535  0.0000  0.0000  0.0413  0.0000  0.0000  0.0000  0.0000  0.0000 </r>
        <r>  0.0535  0.0000  0.0000  0.0413  0.0000  0.0000  0.0000  0.0000  0.0000 </r>
       </set>
       <set comment="band 6">
        <r>  0.0487  0.0000  0.0000  0.0308  0.0000  0.0000  0.0000  0.0000  0.0000 </r>
        <r>  0.0487  0.0000  0.0000  0.0308  0.0000  0.0000  0.0000  0.0000  0.0000 </r>
       </set>
       <set comment="band 7">
        <r>  0.0000  0.1002  0.0717  0.0000  0.0000  0.0000  0.0000  0.0000  0.0000 </r>
        <r>  0.0000  0.0715  0.1005  0.0000  0.0000  0.0000  0.0000  0.0000  0.0000 </r>
       </set>
       <set comment="band 8">
        <r>  0.0000  0.0717  0.1002  0.0000  0.0000  0.0000  0.0000  0.0000  0.0000 </r>
        <r>  0.0000  0.1005  0.0715  0.0000  0.0000  0.0000  0.0000  0.0000  0.0000 </r>
       </set>
      </set>
      <set comment="kpoint 7">
       <set comment="band 1">
        <r>  0.1989  0.0000  0.0000  0.0335  0.0000  0.0000  0.0000  0.0000  0.0000 </r>
        <r>  0.1989  0.0000  0.0000  0.0335  0.0000  0.0000  0.0000  0.0000  0.0000 </r>
       </set>
       <set comment="band 2">
        <r>  0.1863  0.0000  0.0000  0.0605  0.0000  0.0000  0.0000  0.0000  0.0000 </r>
        <r>  0.1863  0.0000  0.0000  0.0605  0.0000  0.0000  0.0000  0.0000  0.0000 </r>
       </set>
       <set comment="band 3">
        <r>  0.0000  0.0994  0.0994  0.0000  0.0000  0.0000  0.0000  0.0000  0.0000 </r>
        <r>  0.0000  0.0994  0.0994  0.0000  0.0000  0.0000  0.0000  0.0000  0.0000 </r>
       </set>
       <set comment="band 4">
        <r>  0.0000  0.0994  0.0994  0.0000  0.0000  0.0000  0.0000  0.0000  0.0000 </r>
        <r>  0.0000  0.0994  0.0994  0.0000  0.0000  0.0000  0.0000  0.0000  0.0000 </r>
       </set>
       <set comment="band 5">
        <r>  0.0536  0.0000  0.0000  0.0429  0.0000  0.0000  0.0000  0.0000  0.0000 </r>
        <r>  0.0536  0.0000  0.0000  0.0429  0.0000  0.0000  0.0000  0.0000  0.0000 </r>
       </set>
       <set comment="band 6">
        <r>  0.0479  0.0000  0.0000  0.0303  0.0000  0.0000  0.0000  0.0000  0.0000 </r>
        <r>  0.0479  0.0000  0.0000  0.0303  0.0000  0.0000  0.0000  0.0000  0.0000 </r>
       </set>
       <set comment="band 7">
        <r>  0.0000  0.1000  0.0688  0.0000  0.0000  0.0000  0.0000  0.0000  0.0000 </r>
        <r>  0.0000  0.0512  0.1176  0.0000  0.0000  0.0000  0.0000  0.0000  0.0000 </r>
       </set>
       <set comment="band 8">
        <r>  0.0000  0.0688  0.1000  0.0000  0.0000  0.0000  0.0000  0.0000  0.0000 </r>
        <r>  0.0000  0.1175  0.0512  0.0000  0.0000  0.0000  0.0000  0.0000  0.0000 </r>
       </set>
      </set>
      <set comment="kpoint 8">
       <set comment="band 1">
        <r>  0.1997  0.0000  0.0000  0.0316  0.0000  0.0000  0.0000  0.0000  0.0000 </r>
        <r>  0.1997  0.0000  0.0000  0.0316  0.0000  0.0000  0.0000  0.0000  0.0000 </r>
       </set>
       <set comment="band 2">
        <r>  0.1848  0.0000  0.0000  0.0631  0.0000  0.0000  0.0000  0.0000  0.0000 </r>
        <r>  0.1848  0.0000  0.0000  0.0631  0.0000  0.0000  0.0000  0.0000  0.0000 </r>
       </set>
       <set comment="band 3">
        <r>  0.0000  0.0994  0.0994  0.0000  0.0000  0.0000  0.0000  0.0000  0.0000 </r>
        <r>  0.0000  0.0994  0.0994  0.0000  0.0000  0.0000  0.0000  0.0000  0.0000 </r>
       </set>
       <set comment="band 4">
        <r>  0.0000  0.0994  0.0994  0.0000  0.0000  0.0000  0.0000  0.0000  0.0000 </r>
        <r>  0.0000  0.0994  0.0994  0.0000  0.0000  0.0000  0.0000  0.0000  0.0000 </r>
       </set>
       <set comment="band 5">
        <r>  0.0535  0.0000  0.0000  0.0447  0.0000  0.0000  0.0000  0.0000  0.0000 </r>
        <r>  0.0535  0.0000  0.0000  0.0447  0.0000  0.0000  0.0000  0.0000  0.0000 </r>
       </set>
       <set comment="band 6">
        <r>  0.0472  0.0000  0.0000  0.0300  0.0000  0.0000  0.0000  0.0000  0.0000 </r>
        <r>  0.0472  0.0000  0.0000  0.0300  0.0000  0.0000  0.0000  0.0000  0.0000 </r>
       </set>
       <set comment="band 7">
        <r>  0.0000  0.1239  0.0429  0.0000  0.0000  0.0000  0.0000  0.0000  0.0000 </r>
        <r>  0.0000  0.0545  0.1123  0.0000  0.0000  0.0000  0.0000  0.0000  0.0000 </r>
       </set>
       <set comment="band 8">
        <r>  0.0000  0.0429  0.1239  0.0000  0.0000  0.0000  0.0000  0.0000  0.0000 </r>
        <r>  0.0000  0.1123  0.0545  0.0000  0.0000  0.0000  0.0000  0.0000  0.0000 </r>
       </set>
      </set>
      <set comment="kpoint 9">
       <set comment="band 1">
        <r>  0.2006  0.0000  0.0000  0.0297  0.0000  0.0000  0.0000  0.0000  0.0000 </r>
        <r>  0.2006  0.0000  0.0000  0.0297  0.0000  0.0000  0.0000  0.0000  0.0000 </r>
       </set>
       <set comment="band 2">
        <r>  0.1833  0.0000  0.0000  0.0657  0.0000  0.0000  0.0000  0.0000  0.0000 </r>
        <r>  0.1833  0.0000  0.0000  0.0657  0.0000  0.0000  0.0000  0.0000  0.0000 </r>
       </set>
       <set comment="band 3">
        <r>  0.0000  0.0994  0.0994  0.0000  0.0000  0.0000  0.0000  0.0000  0.0000 </r>
        <r>  0.0000  0.0994  0.0994  0.0000  0.0000  0.0000  0.0000  0.0000  0.0000 </r>
       </set>
       <set comment="band 4">
        <r>  0.0000  0.0994  0.0994  0.0000  0.0000  0.0000  0.0000  0.0000  0.0000 </r>
        <r>  0.0000  0.0994  0.0994  0.0000  0.0000  0.0000  0.0000  0.0000  0.0000 </r>
       </set>
       <set comment="band 5">
        <r>  0.0533  0.0000  0.0000  0.0465  0.0000  0.0000  0.0000  0.0000  0.0000 </r>
        <r>  0.0533  0.0000  0.0000  0.0465  0.0000  0.0000  0.0000  0.0000  0.0000 </r>
       </set>
       <set comment="band 6">
        <r>  0.0464  0.0000  0.0000  0.0298  0.0000  0.0000  0.0000  0.0000  0.0000 </r>
        <r>  0.0464  0.0000  0.0000  0.0298  0.0000  0.0000  0.0000  0.0000  0.0000 </r>
       </set>
       <set comment="band 7">
        <r>  0.0000  0.0681  0.0974  0.0000  0.0000  0.0000  0.0000  0.0000  0.0000 </r>
        <r>  0.0000  0.0517  0.1139  0.0000  0.0000  0.0000  0.0000  0.0000  0.0000 </r>
       </set>
       <set comment="band 8">
        <r>  0.0000  0.0974  0.0682  0.0000  0.0000  0.0000  0.0000  0.0000  0.0000 </r>
        <r>  0.0000  0.1139  0.0517  0.0000  0.0000  0.0000  0.0000  0.0000  0.0000 </r>
       </set>
      </set>
      <set comment="kpoint 10">
       <set comment="band 1">
        <r>  0.2013  0.0000  0.0000  0.0279  0.0000  0.0000  0.0000  0.0000  0.0000 </r>
        <r>  0.2013  0.0000  0.0000  0.0279  0.0000  0.0000  0.0000  0.0000  0.0000 </r>
       </set>
       <set comment="band 2">
        <r>  0.1817  0.0000  0.0000  0.0684  0.0000  0.0000  0.0000  0.0000  0.0000 </r>
        <r>  0.1817  0.0000  0.0000  0.0684  0.0000  0.0000  0.0000  0.0000  0.0000 </r>
       </set>
       <set comment="band 3">
        <r>  0.0000  0.0994  0.0994  0.0000  0.0000  0.0000  0.0000  0.0000  0.0000 </r>
        <r>  0.0000  0.0994  0.0994  0.0000  0.0000  0.0000  0.0000  0.0000  0.0000 </r>
       </set>
       <set comment="band 4">
        <r>  0.0000  0.0994  0.0994  0.0000  0.0000  0.0000  0.0000  0.0000  0.0000 </r>
        <r>  0.0000  0.0994  0.0994  0.0000  0.0000  0.0000  0.0000  0.0000  0.0000 </r>
       </set>
       <set comment="band 5">
        <r>  0.0531  0.0000  0.0000  0.0485  0.0000  0.0000  0.0000  0.0000  0.0000 </r>
        <r>  0.0531  0.0000  0.0000  0.0485  0.0000  0.0000  0.0000  0.0000  0.0000 </r>
       </set>
       <set comment="band 6">
        <r>  0.0457  0.0000  0.0000  0.0297  0.0000  0.0000  0.0000  0.0000  0.0000 </r>
        <r>  0.0457  0.0000  0.0000  0.0297  0.0000  0.0000  0.0000  0.0000  0.0000 </r>
       </set>
       <set comment="band 7">
        <r>  0.0000  0.0210  0.1440  0.0000  0.0000  0.0000  0.0000  0.0000  0.0000 </r>
        <r>  0.0000  0.1635  0.0016  0.0000  0.0000  0.0000  0.0000  0.0000  0.0000 </r>
       </set>
       <set comment="band 8">
        <r>  0.0000  0.1440  0.0210  0.0000  0.0000  0.0000  0.0000  0.0000  0.0000 </r>
        <r>  0.0000  0.0016  0.1635  0.0000  0.0000  0.0000  0.0000  0.0000  0.0000 </r>
       </set>
      </set>
      <set comment="kpoint 11">
       <set comment="band 1">
        <r>  0.2021  0.0000  0.0000  0.0261  0.0000  0.0000  0.0000  0.0000  0.0000 </r>
        <r>  0.2021  0.0000  0.0000  0.0261  0.0000  0.0000  0.0000  0.0000  0.0000 </r>
       </set>
       <set comment="band 2">
        <r>  0.1800  0.0000  0.0000  0.0712  0.0000  0.0000  0.0000  0.0000  0.0000 </r>
        <r>  0.1800  0.0000  0.0000  0.0712  0.0000  0.0000  0.0000  0.0000  0.0000 </r>
       </set>
       <set comment="band 3">
        <r>  0.0000  0.0995  0.0995  0.0000  0.0000  0.0000  0.0000  0.0000  0.0000 </r>
        <r>  0.0000  0.0995  0.0995  0.0000  0.0000  0.0000  0.0000  0.0000  0.0000 </r>
       </set>
       <set comment="band 4">
        <r>  0.0000  0.0995  0.0995  0.0000  0.0000  0.0000  0.0000  0.0000  0.0000 </r>
        <r>  0.0000  0.0995  0.0995  0.0000  0.0000  0.0000  0.0000  0.0000  0.0000 </r>
       </set>
       <set comment="band 5">
        <r>  0.0527  0.0000  0.0000  0.0506  0.0000  0.0000  0.0000  0.0000  0.0000 </r>
        <r>  0.0527  0.0000  0.0000  0.0506  0.0000  0.0000  0.0000  0.0000  0.0000 </r>
       </set>
       <set comment="band 6">
        <r>  0.0451  0.0000  0.0000  0.0296  0.0000  0.0000  0.0000  0.0000  0.0000 </r>
        <r>  0.0451  0.0000  0.0000  0.0296  0.0000  0.0000  0.0000  0.0000  0.0000 </r>
       </set>
       <set comment="band 7">
        <r>  0.0000  0.0353  0.1293  0.0000  0.0000  0.0000  0.0000  0.0000  0.0000 </r>
        <r>  0.0000  0.1338  0.0308  0.0000  0.0000  0.0000  0.0000  0.0000  0.0000 </r>
       </set>
       <set comment="band 8">
        <r>  0.0000  0.1293  0.0353  0.0000  0.0000  0.0000  0.0000  0.0000  0.0000 </r>
        <r>  0.0000  0.0308  0.1338  0.0000  0.0000  0.0000  0.0000  0.0000  0.0000 </r>
       </set>
      </set>
      <set comment="kpoint 12">
       <set comment="band 1">
        <r>  0.2028  0.0000  0.0000  0.0244  0.0000  0.0000  0.0000  0.0000  0.0000 </r>
        <r>  0.2028  0.0000  0.0000  0.0244  0.0000  0.0000  0.0000  0.0000  0.0000 </r>
       </set>
       <set comment="band 2">
        <r>  0.1781  0.0000  0.0000  0.0740  0.0000  0.0000  0.0000  0.0000  0.0000 </r>
        <r>  0.1781  0.0000  0.0000  0.0740  0.0000  0.0000  0.0000  0.0000  0.0000 </r>
       </set>
       <set comment="band 3">
        <r>  0.0000  0.0995  0.0995  0.0000  0.0000  0.0000  0.0000  0.0000  0.0000 </r>
        <r>  0.0000  0.0995  0.0995  0.0000  0.0000  0.0000  0.0000  0.0000  0.0000 </r>
       </set>
       <set comment="band 4">
        <r>  0.0000  0.0995  0.0995  0.0000  0.0000  0.0000  0.0000  0.0000  0.0000 </r>
        <r>  0.0000  0.0995  0.0995  0.0000  0.0000  0.0000  0.0000  0.0000  0.0000 </r>
       </set>
       <set comment="band 5">
        <r>  0.0522  0.0000  0.0000  0.0528  0.0000  0.0000  0.0000  0.0000  0.0000 </r>
        <r>  0.0522  0.0000  0.0000  0.0528  0.0000  0.0000  0.0000  0.0000  0.0000 </r>
       </set>
       <set comment="band 6">
        <r>  0.0445  0.0000  0.0000  0.0297  0.0000  0.0000  0.0000  0.0000  0.0000 </r>
        <r>  0.0445  0.0000  0.0000  0.0297  0.0000  0.0000  0.0000  0.0000  0.0000 </r>
       </set>
       <set comment="band 7">
        <r>  0.0000  0.0960  0.0685  0.0000  0.0000  0.0000  0.0000  0.0000  0.0000 </r>
        <r>  0.0000  0.0710  0.0935  0.0000  0.0000  0.0000  0.0000  0.0000  0.0000 </r>
       </set>
       <set comment="band 8">
        <r>  0.0000  0.0685  0.0960  0.0000  0.0000  0.0000  0.0000  0.0000  0.0000 </r>
        <r>  0.0000  0.0935  0.0710  0.0000  0.0000  0.0000  0.0000  0.0000  0.0000 </r>
       </set>
      </set>
      <set comment="kpoint 13">
       <set comment="band 1">
        <r>  0.2035  0.0000  0.0000  0.0227  0.0000  0.0000  0.0000  0.0000  0.0000 </r>
        <r>  0.2035  0.0000  0.0000  0.0227  0.0000  0.0000  0.0000  0.0000  0.0000 </r>
       </set>
       <set comment="band 2">
        <r>  0.1761  0.0000  0.0000  0.0769  0.0000  0.0000  0.0000  0.0000  0.0000 </r>
        <r>  0.1761  0.0000  0.0000  0.0769  0.0000  0.0000  0.0000  0.0000  0.0000 </r>
       </set>
       <set comment="band 3">
        <r>  0.0000  0.0995  0.0995  0.0000  0.0000  0.0000  0.0000  0.0000  0.0000 </r>
        <r>  0.0000  0.0995  0.0995  0.0000  0.0000  0.0000  0.0000  0.0000  0.0000 </r>
       </set>
       <set comment="band 4">
        <r>  0.0000  0.0995  0.0995  0.0000  0.0000  0.0000  0.0000  0.0000  0.0000 </r>
        <r>  0.0000  0.0995  0.0995  0.0000  0.0000  0.0000  0.0000  0.0000  0.0000 </r>
       </set>
       <set comment="band 5">
        <r>  0.0516  0.0000  0.0000  0.0551  0.0000  0.0000  0.0000  0.0000  0.0000 </r>
        <r>  0.0516  0.0000  0.0000  0.0551  0.0000  0.0000  0.0000  0.0000  0.0000 </r>
       </set>
       <set comment="band 6">
        <r>  0.0439  0.0000  0.0000  0.0299  0.0000  0.0000  0.0000  0.0000  0.0000 </r>
        <r>  0.0439  0.0000  0.0000  0.0299  0.0000  0.0000  0.0000  0.0000  0.0000 </r>
       </set>
       <set comment="band 7">
        <r>  0.0000  0.1040  0.0607  0.0000  0.0000  0.0000  0.0000  0.0000  0.0000 </r>
        <r>  0.0000  0.0960  0.0687  0.0000  0.0000  0.0000  0.0000  0.0000  0.0000 </r>
       </set>
       <set comment="band 8">
        <r>  0.0000  0.0606  0.1041  0.0000  0.0000  0.0000  0.0000  0.0000  0.0000 </r>
        <r>  0.0000  0.0687  0.0960  0.0000  0.0000  0.0000  0.0000  0.0000  0.0000 </r>
       </set>
      </set>
      <set comment="kpoint 14">
       <set comment="band 1">
        <r>  0.2042  0.0000  0.0000  0.0211  0.0000  0.0000  0.0000  0.0000  0.0000 </r>
        <r>  0.2042  0.0000  0.0000  0.0211  0.0000  0.0000  0.0000  0.0000  0.0000 </r>
       </set>
       <set comment="band 2">
        <r>  0.1739  0.0000  0.0000  0.0799  0.0000  0.0000  0.0000  0.0000  0.0000 </r>
        <r>  0.1739  0.0000  0.0000  0.0799  0.0000  0.0000  0.0000  0.0000  0.0000 </r>
       </set>
       <set comment="band 3">
        <r>  0.0000  0.0995  0.0995  0.0000  0.0000  0.0000  0.0000  0.0000  0.0000 </r>
        <r>  0.0000  0.0995  0.0995  0.0000  0.0000  0.0000  0.0000  0.0000  0.0000 </r>
       </set>
       <set comment="band 4">
        <r>  0.0000  0.0995  0.0995  0.0000  0.0000  0.0000  0.0000  0.0000  0.0000 </r>
        <r>  0.0000  0.0995  0.0995  0.0000  0.0000  0.0000  0.0000  0.0000  0.0000 </r>
       </set>
       <set comment="band 5">
        <r>  0.0509  0.0000  0.0000  0.0576  0.0000  0.0000  0.0000  0.0000  0.0000 </r>
        <r>  0.0509  0.0000  0.0000  0.0576  0.0000  0.0000  0.0000  0.0000  0.0000 </r>
       </set>
       <set comment="band 6">
        <r>  0.0436  0.0000  0.0000  0.0303  0.0000  0.0000  0.0000  0.0000  0.0000 </r>
        <r>  0.0436  0.0000  0.0000  0.0303  0.0000  0.0000  0.0000  0.0000  0.0000 </r>
       </set>
       <set comment="band 7">
        <r>  0.0000  0.1177  0.0473  0.0000  0.0000  0.0000  0.0000  0.0000  0.0000 </r>
        <r>  0.0000  0.0558  0.1093  0.0000  0.0000  0.0000  0.0000  0.0000  0.0000 </r>
       </set>
       <set comment="band 8">
        <r>  0.0000  0.0473  0.1177  0.0000  0.0000  0.0000  0.0000  0.0000  0.0000 </r>
        <r>  0.0000  0.1093  0.0557  0.0000  0.0000  0.0000  0.0000  0.0000  0.0000 </r>
       </set>
      </set>
      <set comment="kpoint 15">
       <set comment="band 1">
        <r>  0.2049  0.0000  0.0000  0.0196  0.0000  0.0000  0.0000  0.0000  0.0000 </r>
        <r>  0.2049  0.0000  0.0000  0.0196  0.0000  0.0000  0.0000  0.0000  0.0000 </r>
       </set>
       <set comment="band 2">
        <r>  0.1715  0.0000  0.0000  0.0829  0.0000  0.0000  0.0000  0.0000  0.0000 </r>
        <r>  0.1715  0.0000  0.0000  0.0829  0.0000  0.0000  0.0000  0.0000  0.0000 </r>
       </set>
       <set comment="band 3">
        <r>  0.0000  0.0996  0.0996  0.0000  0.0000  0.0000  0.0000  0.0000  0.0000 </r>
        <r>  0.0000  0.0996  0.0996  0.0000  0.0000  0.0000  0.0000  0.0000  0.0000 </r>
       </set>
       <set comment="band 4">
        <r>  0.0000  0.0996  0.0996  0.0000  0.0000  0.0000  0.0000  0.0000  0.0000 </r>
        <r>  0.0000  0.0996  0.0996  0.0000  0.0000  0.0000  0.0000  0.0000  0.0000 </r>
       </set>
       <set comment="band 5">
        <r>  0.0501  0.0000  0.0000  0.0602  0.0000  0.0000  0.0000  0.0000  0.0000 </r>
        <r>  0.0501  0.0000  0.0000  0.0602  0.0000  0.0000  0.0000  0.0000  0.0000 </r>
       </set>
       <set comment="band 6">
        <r>  0.0433  0.0000  0.0000  0.0308  0.0000  0.0000  0.0000  0.0000  0.0000 </r>
        <r>  0.0433  0.0000  0.0000  0.0308  0.0000  0.0000  0.0000  0.0000  0.0000 </r>
       </set>
       <set comment="band 7">
        <r>  0.0000  0.0650  0.1004  0.0000  0.0000  0.0000  0.0000  0.0000  0.0000 </r>
        <r>  0.0000  0.0879  0.0775  0.0000  0.0000  0.0000  0.0000  0.0000  0.0000 </r>
       </set>
       <set comment="band 8">
        <r>  0.0000  0.1004  0.0650  0.0000  0.0000  0.0000  0.0000  0.0000  0.0000 </r>
        <r>  0.0000  0.0775  0.0879  0.0000  0.0000  0.0000  0.0000  0.0000  0.0000 </r>
       </set>
      </set>
      <set comment="kpoint 16">
       <set comment="band 1">
        <r>  0.2056  0.0000  0.0000  0.0181  0.0000  0.0000  0.0000  0.0000  0.0000 </r>
        <r>  0.2056  0.0000  0.0000  0.0181  0.0000  0.0000  0.0000  0.0000  0.0000 </r>
       </set>
       <set comment="band 2">
        <r>  0.1690  0.0000  0.0000  0.0860  0.0000  0.0000  0.0000  0.0000  0.0000 </r>
        <r>  0.1690  0.0000  0.0000  0.0860  0.0000  0.0000  0.0000  0.0000  0.0000 </r>
       </set>
       <set comment="band 3">
        <r>  0.0000  0.0996  0.0996  0.0000  0.0000  0.0000  0.0000  0.0000  0.0000 </r>
        <r>  0.0000  0.0996  0.0996  0.0000  0.0000  0.0000  0.0000  0.0000  0.0000 </r>
       </set>
       <set comment="band 4">
        <r>  0.0000  0.0996  0.0996  0.0000  0.0000  0.0000  0.0000  0.0000  0.0000 </r>
        <r>  0.0000  0.0996  0.0996  0.0000  0.0000  0.0000  0.0000  0.0000  0.0000 </r>
       </set>
       <set comment="band 5">
        <r>  0.0491  0.0000  0.0000  0.0629  0.0000  0.0000  0.0000  0.0000  0.0000 </r>
        <r>  0.0491  0.0000  0.0000  0.0629  0.0000  0.0000  0.0000  0.0000  0.0000 </r>
       </set>
       <set comment="band 6">
        <r>  0.0433  0.0000  0.0000  0.0315  0.0000  0.0000  0.0000  0.0000  0.0000 </r>
        <r>  0.0433  0.0000  0.0000  0.0315  0.0000  0.0000  0.0000  0.0000  0.0000 </r>
       </set>
       <set comment="band 7">
        <r>  0.0000  0.0431  0.1227  0.0000  0.0000  0.0000  0.0000  0.0000  0.0000 </r>
        <r>  0.0000  0.1114  0.0544  0.0000  0.0000  0.0000  0.0000  0.0000  0.0000 </r>
       </set>
       <set comment="band 8">
        <r>  0.0000  0.1227  0.0431  0.0000  0.0000  0.0000  0.0000  0.0000  0.0000 </r>
        <r>  0.0000  0.0544  0.1114  0.0000  0.0000  0.0000  0.0000  0.0000  0.0000 </r>
       </set>
      </set>
      <set comment="kpoint 17">
       <set comment="band 1">
        <r>  0.2062  0.0000  0.0000  0.0167  0.0000  0.0000  0.0000  0.0000  0.0000 </r>
        <r>  0.2062  0.0000  0.0000  0.0167  0.0000  0.0000  0.0000  0.0000  0.0000 </r>
       </set>
       <set comment="band 2">
        <r>  0.1662  0.0000  0.0000  0.0892  0.0000  0.0000  0.0000  0.0000  0.0000 </r>
        <r>  0.1662  0.0000  0.0000  0.0892  0.0000  0.0000  0.0000  0.0000  0.0000 </r>
       </set>
       <set comment="band 3">
        <r>  0.0000  0.0996  0.0996  0.0000  0.0000  0.0000  0.0000  0.0000  0.0000 </r>
        <r>  0.0000  0.0996  0.0996  0.0000  0.0000  0.0000  0.0000  0.0000  0.0000 </r>
       </set>
       <set comment="band 4">
        <r>  0.0000  0.0996  0.0996  0.0000  0.0000  0.0000  0.0000  0.0000  0.0000 </r>
        <r>  0.0000  0.0996  0.0996  0.0000  0.0000  0.0000  0.0000  0.0000  0.0000 </r>
       </set>
       <set comment="band 5">
        <r>  0.0480  0.0000  0.0000  0.0658  0.0000  0.0000  0.0000  0.0000  0.0000 </r>
        <r>  0.0480  0.0000  0.0000  0.0658  0.0000  0.0000  0.0000  0.0000  0.0000 </r>
       </set>
       <set comment="band 6">
        <r>  0.0436  0.0000  0.0000  0.0323  0.0000  0.0000  0.0000  0.0000  0.0000 </r>
        <r>  0.0436  0.0000  0.0000  0.0323  0.0000  0.0000  0.0000  0.0000  0.0000 </r>
       </set>
       <set comment="band 7">
        <r>  0.0000  0.0848  0.0814  0.0000  0.0000  0.0000  0.0000  0.0000  0.0000 </r>
        <r>  0.0000  0.0837  0.0825  0.0000  0.0000  0.0000  0.0000  0.0000  0.0000 </r>
       </set>
       <set comment="band 8">
        <r>  0.0000  0.0814  0.0848  0.0000  0.0000  0.0000  0.0000  0.0000  0.0000 </r>
        <r>  0.0000  0.0825  0.0837  0.0000  0.0000  0.0000  0.0000  0.0000  0.0000 </r>
       </set>
      </set>
      <set comment="kpoint 18">
       <set comment="band 1">
        <r>  0.2069  0.0000  0.0000  0.0153  0.0000  0.0000  0.0000  0.0000  0.0000 </r>
        <r>  0.2069  0.0000  0.0000  0.0153  0.0000  0.0000  0.0000  0.0000  0.0000 </r>
       </set>
       <set comment="band 2">
        <r>  0.1632  0.0000  0.0000  0.0925  0.0000  0.0000  0.0000  0.0000  0.0000 </r>
        <r>  0.1632  0.0000  0.0000  0.0925  0.0000  0.0000  0.0000  0.0000  0.0000 </r>
       </set>
       <set comment="band 3">
        <r>  0.0000  0.0997  0.0997  0.0000  0.0000  0.0000  0.0000  0.0000  0.0000 </r>
        <r>  0.0000  0.0997  0.0997  0.0000  0.0000  0.0000  0.0000  0.0000  0.0000 </r>
       </set>
       <set comment="band 4">
        <r>  0.0000  0.0997  0.0997  0.0000  0.0000  0.0000  0.0000  0.0000  0.0000 </r>
        <r>  0.0000  0.0997  0.0997  0.0000  0.0000  0.0000  0.0000  0.0000  0.0000 </r>
       </set>
       <set comment="band 5">
        <r>  0.0467  0.0000  0.0000  0.0688  0.0000  0.0000  0.0000  0.0000  0.0000 </r>
        <r>  0.0467  0.0000  0.0000  0.0688  0.0000  0.0000  0.0000  0.0000  0.0000 </r>
       </set>
       <set comment="band 6">
        <r>  0.0443  0.0000  0.0000  0.0334  0.0000  0.0000  0.0000  0.0000  0.0000 </r>
        <r>  0.0443  0.0000  0.0000  0.0334  0.0000  0.0000  0.0000  0.0000  0.0000 </r>
       </set>
       <set comment="band 7">
        <r>  0.0000  0.1105  0.0560  0.0000  0.0000  0.0000  0.0000  0.0000  0.0000 </r>
        <r>  0.0000  0.0515  0.1151  0.0000  0.0000  0.0000  0.0000  0.0000  0.0000 </r>
       </set>
       <set comment="band 8">
        <r>  0.0000  0.0560  0.1105  0.0000  0.0000  0.0000  0.0000  0.0000  0.0000 </r>
        <r>  0.0000  0.1151  0.0515  0.0000  0.0000  0.0000  0.0000  0.0000  0.0000 </r>
       </set>
      </set>
      <set comment="kpoint 19">
       <set comment="band 1">
        <r>  0.2075  0.0000  0.0000  0.0139  0.0000  0.0000  0.0000  0.0000  0.0000 </r>
        <r>  0.2075  0.0000  0.0000  0.0139  0.0000  0.0000  0.0000  0.0000  0.0000 </r>
       </set>
       <set comment="band 2">
        <r>  0.1599  0.0000  0.0000  0.0960  0.0000  0.0000  0.0000  0.0000  0.0000 </r>
        <r>  0.1599  0.0000  0.0000  0.0960  0.0000  0.0000  0.0000  0.0000  0.0000 </r>
       </set>
       <set comment="band 3">
        <r>  0.0000  0.0998  0.0998  0.0000  0.0000  0.0000  0.0000  0.0000  0.0000 </r>
        <r>  0.0000  0.0998  0.0998  0.0000  0.0000  0.0000  0.0000  0.0000  0.0000 </r>
       </set>
       <set comment="band 4">
        <r>  0.0000  0.0998  0.0998  0.0000  0.0000  0.0000  0.0000  0.0000  0.0000 </r>
        <r>  0.0000  0.0998  0.0998  0.0000  0.0000  0.0000  0.0000  0.0000  0.0000 </r>
       </set>
       <set comment="band 5">
        <r>  0.0454  0.0000  0.0000  0.0720  0.0000  0.0000  0.0000  0.0000  0.0000 </r>
        <r>  0.0454  0.0000  0.0000  0.0720  0.0000  0.0000  0.0000  0.0000  0.0000 </r>
       </set>
       <set comment="band 6">
        <r>  0.0454  0.0000  0.0000  0.0346  0.0000  0.0000  0.0000  0.0000  0.0000 </r>
        <r>  0.0454  0.0000  0.0000  0.0346  0.0000  0.0000  0.0000  0.0000  0.0000 </r>
       </set>
       <set comment="band 7">
        <r>  0.0000  0.0968  0.0702  0.0000  0.0000  0.0000  0.0000  0.0000  0.0000 </r>
        <r>  0.0000  0.0747  0.0922  0.0000  0.0000  0.0000  0.0000  0.0000  0.0000 </r>
       </set>
       <set comment="band 8">
        <r>  0.0000  0.0702  0.0967  0.0000  0.0000  0.0000  0.0000  0.0000  0.0000 </r>
        <r>  0.0000  0.0922  0.0747  0.0000  0.0000  0.0000  0.0000  0.0000  0.0000 </r>
       </set>
      </set>
      <set comment="kpoint 20">
       <set comment="band 1">
        <r>  0.2080  0.0000  0.0000  0.0126  0.0000  0.0000  0.0000  0.0000  0.0000 </r>
        <r>  0.2080  0.0000  0.0000  0.0126  0.0000  0.0000  0.0000  0.0000  0.0000 </r>
       </set>
       <set comment="band 2">
        <r>  0.1564  0.0000  0.0000  0.0995  0.0000  0.0000  0.0000  0.0000  0.0000 </r>
        <r>  0.1564  0.0000  0.0000  0.0995  0.0000  0.0000  0.0000  0.0000  0.0000 </r>
       </set>
       <set comment="band 3">
        <r>  0.0000  0.0999  0.0999  0.0000  0.0000  0.0000  0.0000  0.0000  0.0000 </r>
        <r>  0.0000  0.0999  0.0999  0.0000  0.0000  0.0000  0.0000  0.0000  0.0000 </r>
       </set>
       <set comment="band 4">
        <r>  0.0000  0.0999  0.0999  0.0000  0.0000  0.0000  0.0000  0.0000  0.0000 </r>
        <r>  0.0000  0.0999  0.0999  0.0000  0.0000  0.0000  0.0000  0.0000  0.0000 </r>
       </set>
       <set comment="band 5">
        <r>  0.0439  0.0000  0.0000  0.0752  0.0000  0.0000  0.0000  0.0000  0.0000 </r>
        <r>  0.0439  0.0000  0.0000  0.0752  0.0000  0.0000  0.0000  0.0000  0.0000 </r>
       </set>
       <set comment="band 6">
        <r>  0.0470  0.0000  0.0000  0.0361  0.0000  0.0000  0.0000  0.0000  0.0000 </r>
        <r>  0.0470  0.0000  0.0000  0.0361  0.0000  0.0000  0.0000  0.0000  0.0000 </r>
       </set>
       <set comment="band 7">
        <r>  0.0000  0.1057  0.0609  0.0000  0.0000  0.0000  0.0000  0.0000  0.0000 </r>
        <r>  0.0000  0.0684  0.0982  0.0000  0.0000  0.0000  0.0000  0.0000  0.0000 </r>
       </set>
       <set comment="band 8">
        <r>  0.0000  0.0609  0.1057  0.0000  0.0000  0.0000  0.0000  0.0000  0.0000 </r>
        <r>  0.0000  0.0982  0.0684  0.0000  0.0000  0.0000  0.0000  0.0000  0.0000 </r>
       </set>
      </set>
      <set comment="kpoint 21">
       <set comment="band 1">
        <r>  0.2085  0.0000  0.0000  0.0114  0.0000  0.0000  0.0000  0.0000  0.0000 </r>
        <r>  0.2085  0.0000  0.0000  0.0114  0.0000  0.0000  0.0000  0.0000  0.0000 </r>
       </set>
       <set comment="band 2">
        <r>  0.1525  0.0000  0.0000  0.1032  0.0000  0.0000  0.0000  0.0000  0.0000 </r>
        <r>  0.1525  0.0000  0.0000  0.1032  0.0000  0.0000  0.0000  0.0000  0.0000 </r>
       </set>
       <set comment="band 3">
        <r>  0.0000  0.1000  0.1000  0.0000  0.0000  0.0000  0.0000  0.0000  0.0000 </r>
        <r>  0.0000  0.1000  0.1000  0.0000  0.0000  0.0000  0.0000  0.0000  0.0000 </r>
       </set>
       <set comment="band 4">
        <r>  0.0000  0.1000  0.1000  0.0000  0.0000  0.0000  0.0000  0.0000  0.0000 </r>
        <r>  0.0000  0.1000  0.1000  0.0000  0.0000  0.0000  0.0000  0.0000  0.0000 </r>
       </set>
       <set comment="band 5">
        <r>  0.0423  0.0000  0.0000  0.0786  0.0000  0.0000  0.0000  0.0000  0.0000 </r>
        <r>  0.0423  0.0000  0.0000  0.0786  0.0000  0.0000  0.0000  0.0000  0.0000 </r>
       </set>
       <set comment="band 6">
        <r>  0.0496  0.0000  0.0000  0.0380  0.0000  0.0000  0.0000  0.0000  0.0000 </r>
        <r>  0.0496  0.0000  0.0000  0.0380  0.0000  0.0000  0.0000  0.0000  0.0000 </r>
       </set>
       <set comment="band 7">
        <r>  0.0000  0.0617  0.1051  0.0000  0.0000  0.0000  0.0000  0.0000  0.0000 </r>
        <r>  0.0000  0.0932  0.0736  0.0000  0.0000  0.0000  0.0000  0.0000  0.0000 </r>
       </set>
       <set comment="band 8">
        <r>  0.0000  0.1051  0.0617  0.0000  0.0000  0.0000  0.0000  0.0000  0.0000 </r>
        <r>  0.0000  0.0736  0.0933  0.0000  0.0000  0.0000  0.0000  0.0000  0.0000 </r>
       </set>
      </set>
      <set comment="kpoint 22">
       <set comment="band 1">
        <r>  0.2090  0.0000  0.0000  0.0103  0.0000  0.0000  0.0000  0.0000  0.0000 </r>
        <r>  0.2090  0.0000  0.0000  0.0103  0.0000  0.0000  0.0000  0.0000  0.0000 </r>
       </set>
       <set comment="band 2">
        <r>  0.1484  0.0000  0.0000  0.1072  0.0000  0.0000  0.0000  0.0000  0.0000 </r>
        <r>  0.1484  0.0000  0.0000  0.1072  0.0000  0.0000  0.0000  0.0000  0.0000 </r>
       </set>
       <set comment="band 3">
        <r>  0.0000  0.1001  0.1001  0.0000  0.0000  0.0000  0.0000  0.0000  0.0000 </r>
        <r>  0.0000  0.1001  0.1001  0.0000  0.0000  0.0000  0.0000  0.0000  0.0000 </r>
       </set>
       <set comment="band 4">
        <r>  0.0000  0.1001  0.1001  0.0000  0.0000  0.0000  0.0000  0.0000  0.0000 </r>
        <r>  0.0000  0.1001  0.1001  0.0000  0.0000  0.0000  0.0000  0.0000  0.0000 </r>
       </set>
       <set comment="band 5">
        <r>  0.0405  0.0000  0.0000  0.0823  0.0000  0.0000  0.0000  0.0000  0.0000 </r>
        <r>  0.0405  0.0000  0.0000  0.0823  0.0000  0.0000  0.0000  0.0000  0.0000 </r>
       </set>
       <set comment="band 6">
        <r>  0.0532  0.0000  0.0000  0.0404  0.0000  0.0000  0.0000  0.0000  0.0000 </r>
        <r>  0.0532  0.0000  0.0000  0.0404  0.0000  0.0000  0.0000  0.0000  0.0000 </r>
       </set>
       <set comment="band 7">
        <r>  0.0000  0.1239  0.0430  0.0000  0.0000  0.0000  0.0000  0.0000  0.0000 </r>
        <r>  0.0000  0.0431  0.1237  0.0000  0.0000  0.0000  0.0000  0.0000  0.0000 </r>
       </set>
       <set comment="band 8">
        <r>  0.0000  0.0430  0.1239  0.0000  0.0000  0.0000  0.0000  0.0000  0.0000 </r>
        <r>  0.0000  0.1237  0.0431  0.0000  0.0000  0.0000  0.0000  0.0000  0.0000 </r>
       </set>
      </set>
      <set comment="kpoint 23">
       <set comment="band 1">
        <r>  0.2095  0.0000  0.0000  0.0092  0.0000  0.0000  0.0000  0.0000  0.0000 </r>
        <r>  0.2095  0.0000  0.0000  0.0092  0.0000  0.0000  0.0000  0.0000  0.0000 </r>
       </set>
       <set comment="band 2">
        <r>  0.1438  0.0000  0.0000  0.1112  0.0000  0.0000  0.0000  0.0000  0.0000 </r>
        <r>  0.1438  0.0000  0.0000  0.1112  0.0000  0.0000  0.0000  0.0000  0.0000 </r>
       </set>
       <set comment="band 3">
        <r>  0.0000  0.1003  0.1002  0.0000  0.0000  0.0000  0.0000  0.0000  0.0000 </r>
        <r>  0.0000  0.1003  0.1002  0.0000  0.0000  0.0000  0.0000  0.0000  0.0000 </r>
       </set>
       <set comment="band 4">
        <r>  0.0000  0.1002  0.1003  0.0000  0.0000  0.0000  0.0000  0.0000  0.0000 </r>
        <r>  0.0000  0.1002  0.1003  0.0000  0.0000  0.0000  0.0000  0.0000  0.0000 </r>
       </set>
       <set comment="band 5">
        <r>  0.0386  0.0000  0.0000  0.0861  0.0000  0.0000  0.0000  0.0000  0.0000 </r>
        <r>  0.0386  0.0000  0.0000  0.0861  0.0000  0.0000  0.0000  0.0000  0.0000 </r>
       </set>
       <set comment="band 6">
        <r>  0.0584  0.0000  0.0000  0.0433  0.0000  0.0000  0.0000  0.0000  0.0000 </r>
        <r>  0.0584  0.0000  0.0000  0.0433  0.0000  0.0000  0.0000  0.0000  0.0000 </r>
       </set>
       <set comment="band 7">
        <r>  0.0000  0.0856  0.0813  0.0000  0.0000  0.0000  0.0000  0.0000  0.0000 </r>
        <r>  0.0000  0.0813  0.0856  0.0000  0.0000  0.0000  0.0000  0.0000  0.0000 </r>
       </set>
       <set comment="band 8">
        <r>  0.0000  0.0813  0.0856  0.0000  0.0000  0.0000  0.0000  0.0000  0.0000 </r>
        <r>  0.0000  0.0856  0.0813  0.0000  0.0000  0.0000  0.0000  0.0000  0.0000 </r>
       </set>
      </set>
      <set comment="kpoint 24">
       <set comment="band 1">
        <r>  0.2100  0.0000  0.0000  0.0081  0.0000  0.0000  0.0000  0.0000  0.0000 </r>
        <r>  0.2100  0.0000  0.0000  0.0081  0.0000  0.0000  0.0000  0.0000  0.0000 </r>
       </set>
       <set comment="band 2">
        <r>  0.1388  0.0000  0.0000  0.1155  0.0000  0.0000  0.0000  0.0000  0.0000 </r>
        <r>  0.1388  0.0000  0.0000  0.1155  0.0000  0.0000  0.0000  0.0000  0.0000 </r>
       </set>
       <set comment="band 3">
        <r>  0.0000  0.1004  0.1004  0.0000  0.0000  0.0000  0.0000  0.0000  0.0000 </r>
        <r>  0.0000  0.1004  0.1004  0.0000  0.0000  0.0000  0.0000  0.0000  0.0000 </r>
       </set>
       <set comment="band 4">
        <r>  0.0000  0.1004  0.1004  0.0000  0.0000  0.0000  0.0000  0.0000  0.0000 </r>
        <r>  0.0000  0.1004  0.1004  0.0000  0.0000  0.0000  0.0000  0.0000  0.0000 </r>
       </set>
       <set comment="band 5">
        <r>  0.0365  0.0000  0.0000  0.0901  0.0000  0.0000  0.0000  0.0000  0.0000 </r>
        <r>  0.0365  0.0000  0.0000  0.0901  0.0000  0.0000  0.0000  0.0000  0.0000 </r>
       </set>
       <set comment="band 6">
        <r>  0.0659  0.0000  0.0000  0.0468  0.0000  0.0000  0.0000  0.0000  0.0000 </r>
        <r>  0.0659  0.0000  0.0000  0.0468  0.0000  0.0000  0.0000  0.0000  0.0000 </r>
       </set>
       <set comment="band 7">
        <r>  0.0000  0.0331  0.1338  0.0000  0.0000  0.0000  0.0000  0.0000  0.0000 </r>
        <r>  0.0000  0.1365  0.0303  0.0000  0.0000  0.0000  0.0000  0.0000  0.0000 </r>
       </set>
       <set comment="band 8">
        <r>  0.0000  0.1338  0.0331  0.0000  0.0000  0.0000  0.0000  0.0000  0.0000 </r>
        <r>  0.0000  0.0303  0.1365  0.0000  0.0000  0.0000  0.0000  0.0000  0.0000 </r>
       </set>
      </set>
      <set comment="kpoint 25">
       <set comment="band 1">
        <r>  0.2105  0.0000  0.0000  0.0072  0.0000  0.0000  0.0000  0.0000  0.0000 </r>
        <r>  0.2105  0.0000  0.0000  0.0072  0.0000  0.0000  0.0000  0.0000  0.0000 </r>
       </set>
       <set comment="band 2">
        <r>  0.1334  0.0000  0.0000  0.1200  0.0000  0.0000  0.0000  0.0000  0.0000 </r>
        <r>  0.1334  0.0000  0.0000  0.1200  0.0000  0.0000  0.0000  0.0000  0.0000 </r>
       </set>
       <set comment="band 3">
        <r>  0.0000  0.1006  0.1006  0.0000  0.0000  0.0000  0.0000  0.0000  0.0000 </r>
        <r>  0.0000  0.1006  0.1006  0.0000  0.0000  0.0000  0.0000  0.0000  0.0000 </r>
       </set>
       <set comment="band 4">
        <r>  0.0000  0.1006  0.1006  0.0000  0.0000  0.0000  0.0000  0.0000  0.0000 </r>
        <r>  0.0000  0.1006  0.1006  0.0000  0.0000  0.0000  0.0000  0.0000  0.0000 </r>
       </set>
       <set comment="band 5">
        <r>  0.0343  0.0000  0.0000  0.0942  0.0000  0.0000  0.0000  0.0000  0.0000 </r>
        <r>  0.0343  0.0000  0.0000  0.0942  0.0000  0.0000  0.0000  0.0000  0.0000 </r>
       </set>
       <set comment="band 6">
        <r>  0.0766  0.0000  0.0000  0.0512  0.0000  0.0000  0.0000  0.0000  0.0000 </r>
        <r>  0.0766  0.0000  0.0000  0.0512  0.0000  0.0000  0.0000  0.0000  0.0000 </r>
       </set>
       <set comment="band 7">
        <r>  0.0000  0.0953  0.0714  0.0000  0.0000  0.0000  0.0000  0.0000  0.0000 </r>
        <r>  0.0000  0.0689  0.0978  0.0000  0.0000  0.0000  0.0000  0.0000  0.0000 </r>
       </set>
       <set comment="band 8">
        <r>  0.0000  0.0714  0.0953  0.0000  0.0000  0.0000  0.0000  0.0000  0.0000 </r>
        <r>  0.0000  0.0978  0.0689  0.0000  0.0000  0.0000  0.0000  0.0000  0.0000 </r>
       </set>
      </set>
      <set comment="kpoint 26">
       <set comment="band 1">
        <r>  0.2109  0.0000  0.0000  0.0063  0.0000  0.0000  0.0000  0.0000  0.0000 </r>
        <r>  0.2109  0.0000  0.0000  0.0063  0.0000  0.0000  0.0000  0.0000  0.0000 </r>
       </set>
       <set comment="band 2">
        <r>  0.1275  0.0000  0.0000  0.1248  0.0000  0.0000  0.0000  0.0000  0.0000 </r>
        <r>  0.1275  0.0000  0.0000  0.1248  0.0000  0.0000  0.0000  0.0000  0.0000 </r>
       </set>
       <set comment="band 3">
        <r>  0.0000  0.1009  0.1009  0.0000  0.0000  0.0000  0.0000  0.0000  0.0000 </r>
        <r>  0.0000  0.1009  0.1009  0.0000  0.0000  0.0000  0.0000  0.0000  0.0000 </r>
       </set>
       <set comment="band 4">
        <r>  0.0000  0.1009  0.1009  0.0000  0.0000  0.0000  0.0000  0.0000  0.0000 </r>
        <r>  0.0000  0.1009  0.1009  0.0000  0.0000  0.0000  0.0000  0.0000  0.0000 </r>
       </set>
       <set comment="band 5">
        <r>  0.0319  0.0000  0.0000  0.0985  0.0000  0.0000  0.0000  0.0000  0.0000 </r>
        <r>  0.0319  0.0000  0.0000  0.0985  0.0000  0.0000  0.0000  0.0000  0.0000 </r>
       </set>
       <set comment="band 6">
        <r>  0.0919  0.0000  0.0000  0.0566  0.0000  0.0000  0.0000  0.0000  0.0000 </r>
        <r>  0.0919  0.0000  0.0000  0.0566  0.0000  0.0000  0.0000  0.0000  0.0000 </r>
       </set>
       <set comment="band 7">
        <r>  0.0000  0.1141  0.0523  0.0000  0.0000  0.0000  0.0000  0.0000  0.0000 </r>
        <r>  0.0000  0.0579  0.1085  0.0000  0.0000  0.0000  0.0000  0.0000  0.0000 </r>
       </set>
       <set comment="band 8">
        <r>  0.0000  0.0523  0.1141  0.0000  0.0000  0.0000  0.0000  0.0000  0.0000 </r>
        <r>  0.0000  0.1085  0.0579  0.0000  0.0000  0.0000  0.0000  0.0000  0.0000 </r>
       </set>
      </set>
      <set comment="kpoint 27">
       <set comment="band 1">
        <r>  0.2113  0.0000  0.0000  0.0054  0.0000  0.0000  0.0000  0.0000  0.0000 </r>
        <r>  0.2113  0.0000  0.0000  0.0054  0.0000  0.0000  0.0000  0.0000  0.0000 </r>
       </set>
       <set comment="band 2">
        <r>  0.1211  0.0000  0.0000  0.1302  0.0000  0.0000  0.0000  0.0000  0.0000 </r>
        <r>  0.1211  0.0000  0.0000  0.1302  0.0000  0.0000  0.0000  0.0000  0.0000 </r>
       </set>
       <set comment="band 3">
        <r>  0.0000  0.1012  0.1012  0.0000  0.0000  0.0000  0.0000  0.0000  0.0000 </r>
        <r>  0.0000  0.1012  0.1012  0.0000  0.0000  0.0000  0.0000  0.0000  0.0000 </r>
       </set>
       <set comment="band 4">
        <r>  0.0000  0.1012  0.1012  0.0000  0.0000  0.0000  0.0000  0.0000  0.0000 </r>
        <r>  0.0000  0.1012  0.1012  0.0000  0.0000  0.0000  0.0000  0.0000  0.0000 </r>
       </set>
       <set comment="band 5">
        <r>  0.0294  0.0000  0.0000  0.1030  0.0000  0.0000  0.0000  0.0000  0.0000 </r>
        <r>  0.0294  0.0000  0.0000  0.1030  0.0000  0.0000  0.0000  0.0000  0.0000 </r>
       </set>
       <set comment="band 6">
        <r>  0.1134  0.0000  0.0000  0.0632  0.0000  0.0000  0.0000  0.0000  0.0000 </r>
        <r>  0.1134  0.0000  0.0000  0.0632  0.0000  0.0000  0.0000  0.0000  0.0000 </r>
       </set>
       <set comment="band 7">
        <r>  0.0000  0.0801  0.0859  0.0000  0.0000  0.0000  0.0000  0.0000  0.0000 </r>
        <r>  0.0000  0.0670  0.0990  0.0000  0.0000  0.0000  0.0000  0.0000  0.0000 </r>
       </set>
       <set comment="band 8">
        <r>  0.0000  0.0859  0.0801  0.0000  0.0000  0.0000  0.0000  0.0000  0.0000 </r>
        <r>  0.0000  0.0991  0.0670  0.0000  0.0000  0.0000  0.0000  0.0000  0.0000 </r>
       </set>
      </set>
      <set comment="kpoint 28">
       <set comment="band 1">
        <r>  0.2117  0.0000  0.0000  0.0046  0.0000  0.0000  0.0000  0.0000  0.0000 </r>
        <r>  0.2117  0.0000  0.0000  0.0046  0.0000  0.0000  0.0000  0.0000  0.0000 </r>
       </set>
       <set comment="band 2">
        <r>  0.1140  0.0000  0.0000  0.1357  0.0000  0.0000  0.0000  0.0000  0.0000 </r>
        <r>  0.1140  0.0000  0.0000  0.1357  0.0000  0.0000  0.0000  0.0000  0.0000 </r>
       </set>
       <set comment="band 3">
        <r>  0.0000  0.1015  0.1015  0.0000  0.0000  0.0000  0.0000  0.0000  0.0000 </r>
        <r>  0.0000  0.1015  0.1015  0.0000  0.0000  0.0000  0.0000  0.0000  0.0000 </r>
       </set>
       <set comment="band 4">
        <r>  0.0000  0.1015  0.1015  0.0000  0.0000  0.0000  0.0000  0.0000  0.0000 </r>
        <r>  0.0000  0.1015  0.1015  0.0000  0.0000  0.0000  0.0000  0.0000  0.0000 </r>
       </set>
       <set comment="band 5">
        <r>  0.0268  0.0000  0.0000  0.1076  0.0000  0.0000  0.0000  0.0000  0.0000 </r>
        <r>  0.0268  0.0000  0.0000  0.1076  0.0000  0.0000  0.0000  0.0000  0.0000 </r>
       </set>
       <set comment="band 6">
        <r>  0.0000  0.0342  0.1312  0.0000  0.0000  0.0000  0.0000  0.0000  0.0000 </r>
        <r>  0.0000  0.1253  0.0402  0.0000  0.0000  0.0000  0.0000  0.0000  0.0000 </r>
       </set>
       <set comment="band 7">
        <r>  0.0000  0.1312  0.0342  0.0000  0.0000  0.0000  0.0000  0.0000  0.0000 </r>
        <r>  0.0000  0.0402  0.1253  0.0000  0.0000  0.0000  0.0000  0.0000  0.0000 </r>
       </set>
       <set comment="band 8">
        <r>  0.1421  0.0000  0.0000  0.0695  0.0000  0.0000  0.0000  0.0000  0.0000 </r>
        <r>  0.1421  0.0000  0.0000  0.0695  0.0000  0.0000  0.0000  0.0000  0.0000 </r>
       </set>
      </set>
      <set comment="kpoint 29">
       <set comment="band 1">
        <r>  0.2120  0.0000  0.0000  0.0039  0.0000  0.0000  0.0000  0.0000  0.0000 </r>
        <r>  0.2120  0.0000  0.0000  0.0039  0.0000  0.0000  0.0000  0.0000  0.0000 </r>
       </set>
       <set comment="band 2">
        <r>  0.1062  0.0000  0.0000  0.1416  0.0000  0.0000  0.0000  0.0000  0.0000 </r>
        <r>  0.1062  0.0000  0.0000  0.1416  0.0000  0.0000  0.0000  0.0000  0.0000 </r>
       </set>
       <set comment="band 3">
        <r>  0.0000  0.1019  0.1019  0.0000  0.0000  0.0000  0.0000  0.0000  0.0000 </r>
        <r>  0.0000  0.1019  0.1019  0.0000  0.0000  0.0000  0.0000  0.0000  0.0000 </r>
       </set>
       <set comment="band 4">
        <r>  0.0000  0.1019  0.1019  0.0000  0.0000  0.0000  0.0000  0.0000  0.0000 </r>
        <r>  0.0000  0.1019  0.1019  0.0000  0.0000  0.0000  0.0000  0.0000  0.0000 </r>
       </set>
       <set comment="band 5">
        <r>  0.0240  0.0000  0.0000  0.1123  0.0000  0.0000  0.0000  0.0000  0.0000 </r>
        <r>  0.0240  0.0000  0.0000  0.1123  0.0000  0.0000  0.0000  0.0000  0.0000 </r>
       </set>
       <set comment="band 6">
        <r>  0.0000  0.1346  0.0302  0.0000  0.0000  0.0000  0.0000  0.0000  0.0000 </r>
        <r>  0.0000  0.0591  0.1057  0.0000  0.0000  0.0000  0.0000  0.0000  0.0000 </r>
       </set>
       <set comment="band 7">
        <r>  0.0000  0.0302  0.1346  0.0000  0.0000  0.0000  0.0000  0.0000  0.0000 </r>
        <r>  0.0000  0.1057  0.0591  0.0000  0.0000  0.0000  0.0000  0.0000  0.0000 </r>
       </set>
       <set comment="band 8">
        <r>  0.1755  0.0000  0.0000  0.0737  0.0000  0.0000  0.0000  0.0000  0.0000 </r>
        <r>  0.1755  0.0000  0.0000  0.0737  0.0000  0.0000  0.0000  0.0000  0.0000 </r>
       </set>
      </set>
      <set comment="kpoint 30">
       <set comment="band 1">
        <r>  0.2123  0.0000  0.0000  0.0032  0.0000  0.0000  0.0000  0.0000  0.0000 </r>
        <r>  0.2123  0.0000  0.0000  0.0032  0.0000  0.0000  0.0000  0.0000  0.0000 </r>
       </set>
       <set comment="band 2">
        <r>  0.0977  0.0000  0.0000  0.1479  0.0000  0.0000  0.0000  0.0000  0.0000 </r>
        <r>  0.0977  0.0000  0.0000  0.1479  0.0000  0.0000  0.0000  0.0000  0.0000 </r>
       </set>
       <set comment="band 3">
        <r>  0.0000  0.1024  0.1023  0.0000  0.0000  0.0000  0.0000  0.0000  0.0000 </r>
        <r>  0.0000  0.1024  0.1023  0.0000  0.0000  0.0000  0.0000  0.0000  0.0000 </r>
       </set>
       <set comment="band 4">
        <r>  0.0000  0.1023  0.1024  0.0000  0.0000  0.0000  0.0000  0.0000  0.0000 </r>
        <r>  0.0000  0.1023  0.1024  0.0000  0.0000  0.0000  0.0000  0.0000  0.0000 </r>
       </set>
       <set comment="band 5">
        <r>  0.0212  0.0000  0.0000  0.1172  0.0000  0.0000  0.0000  0.0000  0.0000 </r>
        <r>  0.0212  0.0000  0.0000  0.1172  0.0000  0.0000  0.0000  0.0000  0.0000 </r>
       </set>
       <set comment="band 6">
        <r>  0.0000  0.1191  0.0449  0.0000  0.0000  0.0000  0.0000  0.0000  0.0000 </r>
        <r>  0.0000  0.0398  0.1242  0.0000  0.0000  0.0000  0.0000  0.0000  0.0000 </r>
       </set>
       <set comment="band 7">
        <r>  0.0000  0.0449  0.1191  0.0000  0.0000  0.0000  0.0000  0.0000  0.0000 </r>
        <r>  0.0000  0.1242  0.0398  0.0000  0.0000  0.0000  0.0000  0.0000  0.0000 </r>
       </set>
       <set comment="band 8">
        <r>  0.2095  0.0000  0.0000  0.0742  0.0000  0.0000  0.0000  0.0000  0.0000 </r>
        <r>  0.2096  0.0000  0.0000  0.0742  0.0000  0.0000  0.0000  0.0000  0.0000 </r>
       </set>
      </set>
      <set comment="kpoint 31">
       <set comment="band 1">
        <r>  0.2126  0.0000  0.0000  0.0026  0.0000  0.0000  0.0000  0.0000  0.0000 </r>
        <r>  0.2126  0.0000  0.0000  0.0026  0.0000  0.0000  0.0000  0.0000  0.0000 </r>
       </set>
       <set comment="band 2">
        <r>  0.0884  0.0000  0.0000  0.1547  0.0000  0.0000  0.0000  0.0000  0.0000 </r>
        <r>  0.0884  0.0000  0.0000  0.1547  0.0000  0.0000  0.0000  0.0000  0.0000 </r>
       </set>
       <set comment="band 3">
        <r>  0.0000  0.1029  0.1029  0.0000  0.0000  0.0000  0.0000  0.0000  0.0000 </r>
        <r>  0.0000  0.1029  0.1029  0.0000  0.0000  0.0000  0.0000  0.0000  0.0000 </r>
       </set>
       <set comment="band 4">
        <r>  0.0000  0.1029  0.1029  0.0000  0.0000  0.0000  0.0000  0.0000  0.0000 </r>
        <r>  0.0000  0.1029  0.1029  0.0000  0.0000  0.0000  0.0000  0.0000  0.0000 </r>
       </set>
       <set comment="band 5">
        <r>  0.0183  0.0000  0.0000  0.1219  0.0000  0.0000  0.0000  0.0000  0.0000 </r>
        <r>  0.0183  0.0000  0.0000  0.1219  0.0000  0.0000  0.0000  0.0000  0.0000 </r>
       </set>
       <set comment="band 6">
        <r>  0.0000  0.0908  0.0721  0.0000  0.0000  0.0000  0.0000  0.0000  0.0000 </r>
        <r>  0.0000  0.0739  0.0890  0.0000  0.0000  0.0000  0.0000  0.0000  0.0000 </r>
       </set>
       <set comment="band 7">
        <r>  0.0000  0.0721  0.0908  0.0000  0.0000  0.0000  0.0000  0.0000  0.0000 </r>
        <r>  0.0000  0.0890  0.0739  0.0000  0.0000  0.0000  0.0000  0.0000  0.0000 </r>
       </set>
       <set comment="band 8">
        <r>  0.2386  0.0000  0.0000  0.0703  0.0000  0.0000  0.0000  0.0000  0.0000 </r>
        <r>  0.2386  0.0000  0.0000  0.0703  0.0000  0.0000  0.0000  0.0000  0.0000 </r>
       </set>
      </set>
      <set comment="kpoint 32">
       <set comment="band 1">
        <r>  0.2129  0.0000  0.0000  0.0020  0.0000  0.0000  0.0000  0.0000  0.0000 </r>
        <r>  0.2129  0.0000  0.0000  0.0020  0.0000  0.0000  0.0000  0.0000  0.0000 </r>
       </set>
       <set comment="band 2">
        <r>  0.0783  0.0000  0.0000  0.1621  0.0000  0.0000  0.0000  0.0000  0.0000 </r>
        <r>  0.0783  0.0000  0.0000  0.1621  0.0000  0.0000  0.0000  0.0000  0.0000 </r>
       </set>
       <set comment="band 3">
        <r>  0.0000  0.1035  0.1034  0.0000  0.0000  0.0000  0.0000  0.0000  0.0000 </r>
        <r>  0.0000  0.1035  0.1034  0.0000  0.0000  0.0000  0.0000  0.0000  0.0000 </r>
       </set>
       <set comment="band 4">
        <r>  0.0000  0.1034  0.1035  0.0000  0.0000  0.0000  0.0000  0.0000  0.0000 </r>
        <r>  0.0000  0.1034  0.1035  0.0000  0.0000  0.0000  0.0000  0.0000  0.0000 </r>
       </set>
       <set comment="band 5">
        <r>  0.0154  0.0000  0.0000  0.1268  0.0000  0.0000  0.0000  0.0000  0.0000 </r>
        <r>  0.0154  0.0000  0.0000  0.1268  0.0000  0.0000  0.0000  0.0000  0.0000 </r>
       </set>
       <set comment="band 6">
        <r>  0.0000  0.0798  0.0820  0.0000  0.0000  0.0000  0.0000  0.0000  0.0000 </r>
        <r>  0.0000  0.0813  0.0805  0.0000  0.0000  0.0000  0.0000  0.0000  0.0000 </r>
       </set>
       <set comment="band 7">
        <r>  0.0000  0.0820  0.0798  0.0000  0.0000  0.0000  0.0000  0.0000  0.0000 </r>
        <r>  0.0000  0.0805  0.0813  0.0000  0.0000  0.0000  0.0000  0.0000  0.0000 </r>
       </set>
       <set comment="band 8">
        <r>  0.2620  0.0000  0.0000  0.0631  0.0000  0.0000  0.0000  0.0000  0.0000 </r>
        <r>  0.2620  0.0000  0.0000  0.0631  0.0000  0.0000  0.0000  0.0000  0.0000 </r>
       </set>
      </set>
      <set comment="kpoint 33">
       <set comment="band 1">
        <r>  0.2131  0.0000  0.0000  0.0016  0.0000  0.0000  0.0000  0.0000  0.0000 </r>
        <r>  0.2131  0.0000  0.0000  0.0016  0.0000  0.0000  0.0000  0.0000  0.0000 </r>
       </set>
       <set comment="band 2">
        <r>  0.0672  0.0000  0.0000  0.1700  0.0000  0.0000  0.0000  0.0000  0.0000 </r>
        <r>  0.0672  0.0000  0.0000  0.1700  0.0000  0.0000  0.0000  0.0000  0.0000 </r>
       </set>
       <set comment="band 3">
        <r>  0.0000  0.1042  0.1041  0.0000  0.0000  0.0000  0.0000  0.0000  0.0000 </r>
        <r>  0.0000  0.1042  0.1041  0.0000  0.0000  0.0000  0.0000  0.0000  0.0000 </r>
       </set>
       <set comment="band 4">
        <r>  0.0000  0.1041  0.1042  0.0000  0.0000  0.0000  0.0000  0.0000  0.0000 </r>
        <r>  0.0000  0.1041  0.1042  0.0000  0.0000  0.0000  0.0000  0.0000  0.0000 </r>
       </set>
       <set comment="band 5">
        <r>  0.0125  0.0000  0.0000  0.1315  0.0000  0.0000  0.0000  0.0000  0.0000 </r>
        <r>  0.0125  0.0000  0.0000  0.1315  0.0000  0.0000  0.0000  0.0000  0.0000 </r>
       </set>
       <set comment="band 6">
        <r>  0.0000  0.0778  0.0827  0.0000  0.0000  0.0000  0.0000  0.0000  0.0000 </r>
        <r>  0.0000  0.0803  0.0801  0.0000  0.0000  0.0000  0.0000  0.0000  0.0000 </r>
       </set>
       <set comment="band 7">
        <r>  0.0000  0.0827  0.0778  0.0000  0.0000  0.0000  0.0000  0.0000  0.0000 </r>
        <r>  0.0000  0.0801  0.0803  0.0000  0.0000  0.0000  0.0000  0.0000  0.0000 </r>
       </set>
       <set comment="band 8">
        <r>  0.2811  0.0000  0.0000  0.0540  0.0000  0.0000  0.0000  0.0000  0.0000 </r>
        <r>  0.2811  0.0000  0.0000  0.0540  0.0000  0.0000  0.0000  0.0000  0.0000 </r>
       </set>
      </set>
      <set comment="kpoint 34">
       <set comment="band 1">
        <r>  0.2133  0.0000  0.0000  0.0012  0.0000  0.0000  0.0000  0.0000  0.0000 </r>
        <r>  0.2133  0.0000  0.0000  0.0012  0.0000  0.0000  0.0000  0.0000  0.0000 </r>
       </set>
       <set comment="band 2">
        <r>  0.0554  0.0000  0.0000  0.1784  0.0000  0.0000  0.0000  0.0000  0.0000 </r>
        <r>  0.0554  0.0000  0.0000  0.1784  0.0000  0.0000  0.0000  0.0000  0.0000 </r>
       </set>
       <set comment="band 3">
        <r>  0.0000  0.1049  0.1049  0.0000  0.0000  0.0000  0.0000  0.0000  0.0000 </r>
        <r>  0.0000  0.1049  0.1049  0.0000  0.0000  0.0000  0.0000  0.0000  0.0000 </r>
       </set>
       <set comment="band 4">
        <r>  0.0000  0.1049  0.1049  0.0000  0.0000  0.0000  0.0000  0.0000  0.0000 </r>
        <r>  0.0000  0.1049  0.1049  0.0000  0.0000  0.0000  0.0000  0.0000  0.0000 </r>
       </set>
       <set comment="band 5">
        <r>  0.0097  0.0000  0.0000  0.1361  0.0000  0.0000  0.0000  0.0000  0.0000 </r>
        <r>  0.0097  0.0000  0.0000  0.1361  0.0000  0.0000  0.0000  0.0000  0.0000 </r>
       </set>
       <set comment="band 6">
        <r>  0.0000  0.0786  0.0804  0.0000  0.0000  0.0000  0.0000  0.0000  0.0000 </r>
        <r>  0.0000  0.0794  0.0796  0.0000  0.0000  0.0000  0.0000  0.0000  0.0000 </r>
       </set>
       <set comment="band 7">
        <r>  0.0000  0.0804  0.0786  0.0000  0.0000  0.0000  0.0000  0.0000  0.0000 </r>
        <r>  0.0000  0.0796  0.0794  0.0000  0.0000  0.0000  0.0000  0.0000  0.0000 </r>
       </set>
       <set comment="band 8">
        <r>  0.2976  0.0000  0.0000  0.0441  0.0000  0.0000  0.0000  0.0000  0.0000 </r>
        <r>  0.2976  0.0000  0.0000  0.0441  0.0000  0.0000  0.0000  0.0000  0.0000 </r>
       </set>
      </set>
      <set comment="kpoint 35">
       <set comment="band 1">
        <r>  0.2135  0.0000  0.0000  0.0008  0.0000  0.0000  0.0000  0.0000  0.0000 </r>
        <r>  0.2135  0.0000  0.0000  0.0008  0.0000  0.0000  0.0000  0.0000  0.0000 </r>
       </set>
       <set comment="band 2">
        <r>  0.0430  0.0000  0.0000  0.1872  0.0000  0.0000  0.0000  0.0000  0.0000 </r>
        <r>  0.0430  0.0000  0.0000  0.1872  0.0000  0.0000  0.0000  0.0000  0.0000 </r>
       </set>
       <set comment="band 3">
        <r>  0.0000  0.1057  0.1056  0.0000  0.0000  0.0000  0.0000  0.0000  0.0000 </r>
        <r>  0.0000  0.1058  0.1056  0.0000  0.0000  0.0000  0.0000  0.0000  0.0000 </r>
       </set>
       <set comment="band 4">
        <r>  0.0000  0.1056  0.1057  0.0000  0.0000  0.0000  0.0000  0.0000  0.0000 </r>
        <r>  0.0000  0.1056  0.1058  0.0000  0.0000  0.0000  0.0000  0.0000  0.0000 </r>
       </set>
       <set comment="band 5">
        <r>  0.0070  0.0000  0.0000  0.1403  0.0000  0.0000  0.0000  0.0000  0.0000 </r>
        <r>  0.0070  0.0000  0.0000  0.1403  0.0000  0.0000  0.0000  0.0000  0.0000 </r>
       </set>
       <set comment="band 6">
        <r>  0.0000  0.0801  0.0774  0.0000  0.0000  0.0000  0.0000  0.0000  0.0000 </r>
        <r>  0.0000  0.0749  0.0825  0.0000  0.0000  0.0000  0.0000  0.0000  0.0000 </r>
       </set>
       <set comment="band 7">
        <r>  0.0000  0.0774  0.0801  0.0000  0.0000  0.0000  0.0000  0.0000  0.0000 </r>
        <r>  0.0000  0.0825  0.0749  0.0000  0.0000  0.0000  0.0000  0.0000  0.0000 </r>
       </set>
       <set comment="band 8">
        <r>  0.3126  0.0000  0.0000  0.0338  0.0000  0.0000  0.0000  0.0000  0.0000 </r>
        <r>  0.3127  0.0000  0.0000  0.0338  0.0000  0.0000  0.0000  0.0000  0.0000 </r>
       </set>
      </set>
      <set comment="kpoint 36">
       <set comment="band 1">
        <r>  0.2136  0.0000  0.0000  0.0005  0.0000  0.0000  0.0000  0.0000  0.0000 </r>
        <r>  0.2136  0.0000  0.0000  0.0005  0.0000  0.0000  0.0000  0.0000  0.0000 </r>
       </set>
       <set comment="band 2">
        <r>  0.0306  0.0000  0.0000  0.1959  0.0000  0.0000  0.0000  0.0000  0.0000 </r>
        <r>  0.0306  0.0000  0.0000  0.1959  0.0000  0.0000  0.0000  0.0000  0.0000 </r>
       </set>
       <set comment="band 3">
        <r>  0.0000  0.1062  0.1068  0.0000  0.0000  0.0000  0.0000  0.0000  0.0000 </r>
        <r>  0.0000  0.1031  0.1099  0.0000  0.0000  0.0000  0.0000  0.0000  0.0000 </r>
       </set>
       <set comment="band 4">
        <r>  0.0000  0.1068  0.1062  0.0000  0.0000  0.0000  0.0000  0.0000  0.0000 </r>
        <r>  0.0000  0.1099  0.1031  0.0000  0.0000  0.0000  0.0000  0.0000  0.0000 </r>
       </set>
       <set comment="band 5">
        <r>  0.0047  0.0000  0.0000  0.1441  0.0000  0.0000  0.0000  0.0000  0.0000 </r>
        <r>  0.0047  0.0000  0.0000  0.1441  0.0000  0.0000  0.0000  0.0000  0.0000 </r>
       </set>
       <set comment="band 6">
        <r>  0.0000  0.0426  0.1132  0.0000  0.0000  0.0000  0.0000  0.0000  0.0000 </r>
        <r>  0.0000  0.0839  0.0719  0.0000  0.0000  0.0000  0.0000  0.0000  0.0000 </r>
       </set>
       <set comment="band 7">
        <r>  0.0000  0.1132  0.0426  0.0000  0.0000  0.0000  0.0000  0.0000  0.0000 </r>
        <r>  0.0000  0.0719  0.0839  0.0000  0.0000  0.0000  0.0000  0.0000  0.0000 </r>
       </set>
       <set comment="band 8">
        <r>  0.3266  0.0000  0.0000  0.0237  0.0000  0.0000  0.0000  0.0000  0.0000 </r>
        <r>  0.3266  0.0000  0.0000  0.0237  0.0000  0.0000  0.0000  0.0000  0.0000 </r>
       </set>
      </set>
      <set comment="kpoint 37">
       <set comment="band 1">
        <r>  0.2137  0.0000  0.0000  0.0003  0.0000  0.0000  0.0000  0.0000  0.0000 </r>
        <r>  0.2137  0.0000  0.0000  0.0003  0.0000  0.0000  0.0000  0.0000  0.0000 </r>
       </set>
       <set comment="band 2">
        <r>  0.0189  0.0000  0.0000  0.2041  0.0000  0.0000  0.0000  0.0000  0.0000 </r>
        <r>  0.0189  0.0000  0.0000  0.2041  0.0000  0.0000  0.0000  0.0000  0.0000 </r>
       </set>
       <set comment="band 3">
        <r>  0.0000  0.1073  0.1073  0.0000  0.0000  0.0000  0.0000  0.0000  0.0000 </r>
        <r>  0.0000  0.1073  0.1073  0.0000  0.0000  0.0000  0.0000  0.0000  0.0000 </r>
       </set>
       <set comment="band 4">
        <r>  0.0000  0.1073  0.1073  0.0000  0.0000  0.0000  0.0000  0.0000  0.0000 </r>
        <r>  0.0000  0.1073  0.1073  0.0000  0.0000  0.0000  0.0000  0.0000  0.0000 </r>
       </set>
       <set comment="band 5">
        <r>  0.0027  0.0000  0.0000  0.1473  0.0000  0.0000  0.0000  0.0000  0.0000 </r>
        <r>  0.0027  0.0000  0.0000  0.1473  0.0000  0.0000  0.0000  0.0000  0.0000 </r>
       </set>
       <set comment="band 6">
        <r>  0.0000  0.0767  0.0775  0.0000  0.0000  0.0000  0.0000  0.0000  0.0000 </r>
        <r>  0.0000  0.0793  0.0749  0.0000  0.0000  0.0000  0.0000  0.0000  0.0000 </r>
       </set>
       <set comment="band 7">
        <r>  0.0000  0.0775  0.0767  0.0000  0.0000  0.0000  0.0000  0.0000  0.0000 </r>
        <r>  0.0000  0.0749  0.0793  0.0000  0.0000  0.0000  0.0000  0.0000  0.0000 </r>
       </set>
       <set comment="band 8">
        <r>  0.3392  0.0000  0.0000  0.0145  0.0000  0.0000  0.0000  0.0000  0.0000 </r>
        <r>  0.3392  0.0000  0.0000  0.0145  0.0000  0.0000  0.0000  0.0000  0.0000 </r>
       </set>
      </set>
      <set comment="kpoint 38">
       <set comment="band 1">
        <r>  0.2138  0.0000  0.0000  0.0001  0.0000  0.0000  0.0000  0.0000  0.0000 </r>
        <r>  0.2138  0.0000  0.0000  0.0001  0.0000  0.0000  0.0000  0.0000  0.0000 </r>
       </set>
       <set comment="band 2">
        <r>  0.0090  0.0000  0.0000  0.2109  0.0000  0.0000  0.0000  0.0000  0.0000 </r>
        <r>  0.0090  0.0000  0.0000  0.2109  0.0000  0.0000  0.0000  0.0000  0.0000 </r>
       </set>
       <set comment="band 3">
        <r>  0.0000  0.1081  0.1078  0.0000  0.0000  0.0000  0.0000  0.0000  0.0000 </r>
        <r>  0.0000  0.1077  0.1082  0.0000  0.0000  0.0000  0.0000  0.0000  0.0000 </r>
       </set>
       <set comment="band 4">
        <r>  0.0000  0.1078  0.1081  0.0000  0.0000  0.0000  0.0000  0.0000  0.0000 </r>
        <r>  0.0000  0.1082  0.1077  0.0000  0.0000  0.0000  0.0000  0.0000  0.0000 </r>
       </set>
       <set comment="band 5">
        <r>  0.0012  0.0000  0.0000  0.1496  0.0000  0.0000  0.0000  0.0000  0.0000 </r>
        <r>  0.0012  0.0000  0.0000  0.1496  0.0000  0.0000  0.0000  0.0000  0.0000 </r>
       </set>
       <set comment="band 6">
        <r>  0.0000  0.0884  0.0644  0.0000  0.0000  0.0000  0.0000  0.0000  0.0000 </r>
        <r>  0.0000  0.0880  0.0648  0.0000  0.0000  0.0000  0.0000  0.0000  0.0000 </r>
       </set>
       <set comment="band 7">
        <r>  0.0000  0.0644  0.0884  0.0000  0.0000  0.0000  0.0000  0.0000  0.0000 </r>
        <r>  0.0000  0.0648  0.0880  0.0000  0.0000  0.0000  0.0000  0.0000  0.0000 </r>
       </set>
       <set comment="band 8">
        <r>  0.3495  0.0000  0.0000  0.0069  0.0000  0.0000  0.0000  0.0000  0.0000 </r>
        <r>  0.3495  0.0000  0.0000  0.0069  0.0000  0.0000  0.0000  0.0000  0.0000 </r>
       </set>
      </set>
      <set comment="kpoint 39">
       <set comment="band 1">
        <r>  0.2139  0.0000  0.0000  0.0000  0.0000  0.0000  0.0000  0.0000  0.0000 </r>
        <r>  0.2139  0.0000  0.0000  0.0000  0.0000  0.0000  0.0000  0.0000  0.0000 </r>
       </set>
       <set comment="band 2">
        <r>  0.0024  0.0000  0.0000  0.2156  0.0000  0.0000  0.0000  0.0000  0.0000 </r>
        <r>  0.0024  0.0000  0.0000  0.2156  0.0000  0.0000  0.0000  0.0000  0.0000 </r>
       </set>
       <set comment="band 3">
        <r>  0.0000  0.1085  0.1084  0.0000  0.0000  0.0000  0.0000  0.0000  0.0000 </r>
        <r>  0.0000  0.1086  0.1083  0.0000  0.0000  0.0000  0.0000  0.0000  0.0000 </r>
       </set>
       <set comment="band 4">
        <r>  0.0000  0.1084  0.1085  0.0000  0.0000  0.0000  0.0000  0.0000  0.0000 </r>
        <r>  0.0000  0.1083  0.1086  0.0000  0.0000  0.0000  0.0000  0.0000  0.0000 </r>
       </set>
       <set comment="band 5">
        <r>  0.0003  0.0000  0.0000  0.1511  0.0000  0.0000  0.0000  0.0000  0.0000 </r>
        <r>  0.0003  0.0000  0.0000  0.1511  0.0000  0.0000  0.0000  0.0000  0.0000 </r>
       </set>
       <set comment="band 6">
        <r>  0.0000  0.0691  0.0829  0.0000  0.0000  0.0000  0.0000  0.0000  0.0000 </r>
        <r>  0.0000  0.0695  0.0825  0.0000  0.0000  0.0000  0.0000  0.0000  0.0000 </r>
       </set>
       <set comment="band 7">
        <r>  0.0000  0.0829  0.0691  0.0000  0.0000  0.0000  0.0000  0.0000  0.0000 </r>
        <r>  0.0000  0.0825  0.0695  0.0000  0.0000  0.0000  0.0000  0.0000  0.0000 </r>
       </set>
       <set comment="band 8">
        <r>  0.3564  0.0000  0.0000  0.0018  0.0000  0.0000  0.0000  0.0000  0.0000 </r>
        <r>  0.3564  0.0000  0.0000  0.0018  0.0000  0.0000  0.0000  0.0000  0.0000 </r>
       </set>
      </set>
      <set comment="kpoint 40">
       <set comment="band 1">
        <r>  0.2139  0.0000  0.0000  0.0000  0.0000  0.0000  0.0000  0.0000  0.0000 </r>
        <r>  0.2139  0.0000  0.0000  0.0000  0.0000  0.0000  0.0000  0.0000  0.0000 </r>
       </set>
       <set comment="band 2">
        <r>  0.0000  0.0736  0.0719  0.0717  0.0000  0.0000  0.0000  0.0000  0.0000 </r>
        <r>  0.0000  0.0736  0.0719  0.0717  0.0000  0.0000  0.0000  0.0000  0.0000 </r>
       </set>
       <set comment="band 3">
        <r>  0.0000  0.0091  0.0945  0.1136  0.0000  0.0000  0.0000  0.0000  0.0000 </r>
        <r>  0.0000  0.0091  0.0945  0.1136  0.0000  0.0000  0.0000  0.0000  0.0000 </r>
       </set>
       <set comment="band 4">
        <r>  0.0000  0.1345  0.0508  0.0319  0.0000  0.0000  0.0000  0.0000  0.0000 </r>
        <r>  0.0000  0.1345  0.0508  0.0319  0.0000  0.0000  0.0000  0.0000  0.0000 </r>
       </set>
       <set comment="band 5">
        <r>  0.0000  0.0508  0.0529  0.0479  0.0000  0.0000  0.0000  0.0000  0.0000 </r>
        <r>  0.0000  0.0508  0.0529  0.0479  0.0000  0.0000  0.0000  0.0000  0.0000 </r>
       </set>
       <set comment="band 6">
        <r>  0.0000  0.0870  0.0027  0.0619  0.0000  0.0000  0.0000  0.0000  0.0000 </r>
        <r>  0.0000  0.0870  0.0027  0.0619  0.0000  0.0000  0.0000  0.0000  0.0000 </r>
       </set>
       <set comment="band 7">
        <r>  0.0000  0.0139  0.0960  0.0418  0.0000  0.0000  0.0000  0.0000  0.0000 </r>
        <r>  0.0000  0.0139  0.0960  0.0418  0.0000  0.0000  0.0000  0.0000  0.0000 </r>
       </set>
       <set comment="band 8">
        <r>  0.3589  0.0000  0.0000  0.0000  0.0000  0.0000  0.0000  0.0000  0.0000 </r>
        <r>  0.3589  0.0000  0.0000  0.0000  0.0000  0.0000  0.0000  0.0000  0.0000 </r>
       </set>
      </set>
      <set comment="kpoint 41">
       <set comment="band 1">
        <r>  0.2139  0.0000  0.0000  0.0000  0.0000  0.0000  0.0000  0.0000  0.0000 </r>
        <r>  0.2139  0.0000  0.0000  0.0000  0.0000  0.0000  0.0000  0.0000  0.0000 </r>
       </set>
       <set comment="band 2">
        <r>  0.0000  0.0737  0.0725  0.0710  0.0000  0.0000  0.0000  0.0000  0.0000 </r>
        <r>  0.0000  0.0737  0.0725  0.0710  0.0000  0.0000  0.0000  0.0000  0.0000 </r>
       </set>
       <set comment="band 3">
        <r>  0.0000  0.0561  0.1195  0.0416  0.0000  0.0000  0.0000  0.0000  0.0000 </r>
        <r>  0.0000  0.0561  0.1195  0.0416  0.0000  0.0000  0.0000  0.0000  0.0000 </r>
       </set>
       <set comment="band 4">
        <r>  0.0000  0.0875  0.0252  0.1046  0.0000  0.0000  0.0000  0.0000  0.0000 </r>
        <r>  0.0000  0.0875  0.0252  0.1046  0.0000  0.0000  0.0000  0.0000  0.0000 </r>
       </set>
       <set comment="band 5">
        <r>  0.0000  0.0553  0.0482  0.0481  0.0000  0.0000  0.0000  0.0000  0.0000 </r>
        <r>  0.0000  0.0553  0.0482  0.0481  0.0000  0.0000  0.0000  0.0000  0.0000 </r>
       </set>
       <set comment="band 6">
        <r>  0.0000  0.0070  0.0954  0.0492  0.0000  0.0000  0.0000  0.0000  0.0000 </r>
        <r>  0.0000  0.0070  0.0954  0.0492  0.0000  0.0000  0.0000  0.0000  0.0000 </r>
       </set>
       <set comment="band 7">
        <r>  0.0000  0.0893  0.0080  0.0543  0.0000  0.0000  0.0000  0.0000  0.0000 </r>
        <r>  0.0000  0.0893  0.0080  0.0543  0.0000  0.0000  0.0000  0.0000  0.0000 </r>
       </set>
       <set comment="band 8">
        <r>  0.3589  0.0000  0.0000  0.0000  0.0000  0.0000  0.0000  0.0000  0.0000 </r>
        <r>  0.3589  0.0000  0.0000  0.0000  0.0000  0.0000  0.0000  0.0000  0.0000 </r>
       </set>
      </set>
      <set comment="kpoint 42">
       <set comment="band 1">
        <r>  0.2139  0.0000  0.0000  0.0000  0.0000  0.0000  0.0000  0.0000  0.0000 </r>
        <r>  0.2139  0.0000  0.0000  0.0000  0.0000  0.0000  0.0000  0.0000  0.0000 </r>
       </set>
       <set comment="band 2">
        <r>  0.0024  0.2156  0.0000  0.0000  0.0000  0.0000  0.0000  0.0000  0.0000 </r>
        <r>  0.0024  0.2156  0.0000  0.0000  0.0000  0.0000  0.0000  0.0000  0.0000 </r>
       </set>
       <set comment="band 3">
        <r>  0.0000  0.0000  0.1086  0.1083  0.0000  0.0000  0.0000  0.0000  0.0000 </r>
        <r>  0.0000  0.0000  0.1086  0.1083  0.0000  0.0000  0.0000  0.0000  0.0000 </r>
       </set>
       <set comment="band 4">
        <r>  0.0000  0.0000  0.1083  0.1086  0.0000  0.0000  0.0000  0.0000  0.0000 </r>
        <r>  0.0000  0.0000  0.1083  0.1086  0.0000  0.0000  0.0000  0.0000  0.0000 </r>
       </set>
       <set comment="band 5">
        <r>  0.0003  0.1511  0.0000  0.0000  0.0000  0.0000  0.0000  0.0000  0.0000 </r>
        <r>  0.0003  0.1511  0.0000  0.0000  0.0000  0.0000  0.0000  0.0000  0.0000 </r>
       </set>
       <set comment="band 6">
        <r>  0.0000  0.0000  0.0742  0.0777  0.0000  0.0000  0.0000  0.0000  0.0000 </r>
        <r>  0.0000  0.0000  0.0742  0.0778  0.0000  0.0000  0.0000  0.0000  0.0000 </r>
       </set>
       <set comment="band 7">
        <r>  0.0000  0.0000  0.0777  0.0742  0.0000  0.0000  0.0000  0.0000  0.0000 </r>
        <r>  0.0000  0.0000  0.0778  0.0742  0.0000  0.0000  0.0000  0.0000  0.0000 </r>
       </set>
       <set comment="band 8">
        <r>  0.3564  0.0018  0.0000  0.0000  0.0000  0.0000  0.0000  0.0000  0.0000 </r>
        <r>  0.3564  0.0018  0.0000  0.0000  0.0000  0.0000  0.0000  0.0000  0.0000 </r>
       </set>
      </set>
      <set comment="kpoint 43">
       <set comment="band 1">
        <r>  0.2138  0.0001  0.0000  0.0000  0.0000  0.0000  0.0000  0.0000  0.0000 </r>
        <r>  0.2138  0.0001  0.0000  0.0000  0.0000  0.0000  0.0000  0.0000  0.0000 </r>
       </set>
       <set comment="band 2">
        <r>  0.0090  0.2109  0.0000  0.0000  0.0000  0.0000  0.0000  0.0000  0.0000 </r>
        <r>  0.0090  0.2109  0.0000  0.0000  0.0000  0.0000  0.0000  0.0000  0.0000 </r>
       </set>
       <set comment="band 3">
        <r>  0.0000  0.0000  0.1079  0.1080  0.0000  0.0000  0.0000  0.0000  0.0000 </r>
        <r>  0.0000  0.0000  0.1079  0.1080  0.0000  0.0000  0.0000  0.0000  0.0000 </r>
       </set>
       <set comment="band 4">
        <r>  0.0000  0.0000  0.1080  0.1079  0.0000  0.0000  0.0000  0.0000  0.0000 </r>
        <r>  0.0000  0.0000  0.1080  0.1079  0.0000  0.0000  0.0000  0.0000  0.0000 </r>
       </set>
       <set comment="band 5">
        <r>  0.0012  0.1496  0.0000  0.0000  0.0000  0.0000  0.0000  0.0000  0.0000 </r>
        <r>  0.0012  0.1496  0.0000  0.0000  0.0000  0.0000  0.0000  0.0000  0.0000 </r>
       </set>
       <set comment="band 6">
        <r>  0.0000  0.0000  0.0758  0.0771  0.0000  0.0000  0.0000  0.0000  0.0000 </r>
        <r>  0.0000  0.0000  0.0760  0.0768  0.0000  0.0000  0.0000  0.0000  0.0000 </r>
       </set>
       <set comment="band 7">
        <r>  0.0000  0.0000  0.0771  0.0758  0.0000  0.0000  0.0000  0.0000  0.0000 </r>
        <r>  0.0000  0.0000  0.0768  0.0760  0.0000  0.0000  0.0000  0.0000  0.0000 </r>
       </set>
       <set comment="band 8">
        <r>  0.3495  0.0069  0.0000  0.0000  0.0000  0.0000  0.0000  0.0000  0.0000 </r>
        <r>  0.3495  0.0069  0.0000  0.0000  0.0000  0.0000  0.0000  0.0000  0.0000 </r>
       </set>
      </set>
      <set comment="kpoint 44">
       <set comment="band 1">
        <r>  0.2137  0.0003  0.0000  0.0000  0.0000  0.0000  0.0000  0.0000  0.0000 </r>
        <r>  0.2137  0.0003  0.0000  0.0000  0.0000  0.0000  0.0000  0.0000  0.0000 </r>
       </set>
       <set comment="band 2">
        <r>  0.0189  0.2041  0.0000  0.0000  0.0000  0.0000  0.0000  0.0000  0.0000 </r>
        <r>  0.0189  0.2041  0.0000  0.0000  0.0000  0.0000  0.0000  0.0000  0.0000 </r>
       </set>
       <set comment="band 3">
        <r>  0.0000  0.0000  0.1078  0.1068  0.0000  0.0000  0.0000  0.0000  0.0000 </r>
        <r>  0.0000  0.0000  0.1075  0.1071  0.0000  0.0000  0.0000  0.0000  0.0000 </r>
       </set>
       <set comment="band 4">
        <r>  0.0000  0.0000  0.1068  0.1078  0.0000  0.0000  0.0000  0.0000  0.0000 </r>
        <r>  0.0000  0.0000  0.1071  0.1075  0.0000  0.0000  0.0000  0.0000  0.0000 </r>
       </set>
       <set comment="band 5">
        <r>  0.0027  0.1473  0.0000  0.0000  0.0000  0.0000  0.0000  0.0000  0.0000 </r>
        <r>  0.0027  0.1473  0.0000  0.0000  0.0000  0.0000  0.0000  0.0000  0.0000 </r>
       </set>
       <set comment="band 6">
        <r>  0.0000  0.0000  0.0492  0.1051  0.0000  0.0000  0.0000  0.0000  0.0000 </r>
        <r>  0.0000  0.0000  0.0580  0.0962  0.0000  0.0000  0.0000  0.0000  0.0000 </r>
       </set>
       <set comment="band 7">
        <r>  0.0000  0.0000  0.1051  0.0492  0.0000  0.0000  0.0000  0.0000  0.0000 </r>
        <r>  0.0000  0.0000  0.0962  0.0580  0.0000  0.0000  0.0000  0.0000  0.0000 </r>
       </set>
       <set comment="band 8">
        <r>  0.3392  0.0145  0.0000  0.0000  0.0000  0.0000  0.0000  0.0000  0.0000 </r>
        <r>  0.3392  0.0145  0.0000  0.0000  0.0000  0.0000  0.0000  0.0000  0.0000 </r>
       </set>
      </set>
      <set comment="kpoint 45">
       <set comment="band 1">
        <r>  0.2136  0.0005  0.0000  0.0000  0.0000  0.0000  0.0000  0.0000  0.0000 </r>
        <r>  0.2136  0.0005  0.0000  0.0000  0.0000  0.0000  0.0000  0.0000  0.0000 </r>
       </set>
       <set comment="band 2">
        <r>  0.0306  0.1959  0.0000  0.0000  0.0000  0.0000  0.0000  0.0000  0.0000 </r>
        <r>  0.0306  0.1959  0.0000  0.0000  0.0000  0.0000  0.0000  0.0000  0.0000 </r>
       </set>
       <set comment="band 3">
        <r>  0.0000  0.0000  0.1065  0.1065  0.0000  0.0000  0.0000  0.0000  0.0000 </r>
        <r>  0.0000  0.0000  0.1065  0.1065  0.0000  0.0000  0.0000  0.0000  0.0000 </r>
       </set>
       <set comment="band 4">
        <r>  0.0000  0.0000  0.1065  0.1065  0.0000  0.0000  0.0000  0.0000  0.0000 </r>
        <r>  0.0000  0.0000  0.1065  0.1065  0.0000  0.0000  0.0000  0.0000  0.0000 </r>
       </set>
       <set comment="band 5">
        <r>  0.0047  0.1441  0.0000  0.0000  0.0000  0.0000  0.0000  0.0000  0.0000 </r>
        <r>  0.0047  0.1441  0.0000  0.0000  0.0000  0.0000  0.0000  0.0000  0.0000 </r>
       </set>
       <set comment="band 6">
        <r>  0.0000  0.0000  0.0750  0.0808  0.0000  0.0000  0.0000  0.0000  0.0000 </r>
        <r>  0.0000  0.0000  0.0781  0.0777  0.0000  0.0000  0.0000  0.0000  0.0000 </r>
       </set>
       <set comment="band 7">
        <r>  0.0000  0.0000  0.0808  0.0750  0.0000  0.0000  0.0000  0.0000  0.0000 </r>
        <r>  0.0000  0.0000  0.0777  0.0781  0.0000  0.0000  0.0000  0.0000  0.0000 </r>
       </set>
       <set comment="band 8">
        <r>  0.3266  0.0237  0.0000  0.0000  0.0000  0.0000  0.0000  0.0000  0.0000 </r>
        <r>  0.3266  0.0237  0.0000  0.0000  0.0000  0.0000  0.0000  0.0000  0.0000 </r>
       </set>
      </set>
      <set comment="kpoint 46">
       <set comment="band 1">
        <r>  0.2135  0.0008  0.0000  0.0000  0.0000  0.0000  0.0000  0.0000  0.0000 </r>
        <r>  0.2135  0.0008  0.0000  0.0000  0.0000  0.0000  0.0000  0.0000  0.0000 </r>
       </set>
       <set comment="band 2">
        <r>  0.0430  0.1872  0.0000  0.0000  0.0000  0.0000  0.0000  0.0000  0.0000 </r>
        <r>  0.0430  0.1872  0.0000  0.0000  0.0000  0.0000  0.0000  0.0000  0.0000 </r>
       </set>
       <set comment="band 3">
        <r>  0.0000  0.0000  0.1056  0.1057  0.0000  0.0000  0.0000  0.0000  0.0000 </r>
        <r>  0.0000  0.0000  0.1056  0.1057  0.0000  0.0000  0.0000  0.0000  0.0000 </r>
       </set>
       <set comment="band 4">
        <r>  0.0000  0.0000  0.1057  0.1056  0.0000  0.0000  0.0000  0.0000  0.0000 </r>
        <r>  0.0000  0.0000  0.1057  0.1056  0.0000  0.0000  0.0000  0.0000  0.0000 </r>
       </set>
       <set comment="band 5">
        <r>  0.0070  0.1403  0.0000  0.0000  0.0000  0.0000  0.0000  0.0000  0.0000 </r>
        <r>  0.0070  0.1403  0.0000  0.0000  0.0000  0.0000  0.0000  0.0000  0.0000 </r>
       </set>
       <set comment="band 6">
        <r>  0.0000  0.0000  0.0804  0.0770  0.0000  0.0000  0.0000  0.0000  0.0000 </r>
        <r>  0.0000  0.0000  0.0790  0.0785  0.0000  0.0000  0.0000  0.0000  0.0000 </r>
       </set>
       <set comment="band 7">
        <r>  0.0000  0.0000  0.0770  0.0804  0.0000  0.0000  0.0000  0.0000  0.0000 </r>
        <r>  0.0000  0.0000  0.0785  0.0790  0.0000  0.0000  0.0000  0.0000  0.0000 </r>
       </set>
       <set comment="band 8">
        <r>  0.3126  0.0338  0.0000  0.0000  0.0000  0.0000  0.0000  0.0000  0.0000 </r>
        <r>  0.3126  0.0338  0.0000  0.0000  0.0000  0.0000  0.0000  0.0000  0.0000 </r>
       </set>
      </set>
      <set comment="kpoint 47">
       <set comment="band 1">
        <r>  0.2133  0.0012  0.0000  0.0000  0.0000  0.0000  0.0000  0.0000  0.0000 </r>
        <r>  0.2133  0.0012  0.0000  0.0000  0.0000  0.0000  0.0000  0.0000  0.0000 </r>
       </set>
       <set comment="band 2">
        <r>  0.0554  0.1784  0.0000  0.0000  0.0000  0.0000  0.0000  0.0000  0.0000 </r>
        <r>  0.0554  0.1784  0.0000  0.0000  0.0000  0.0000  0.0000  0.0000  0.0000 </r>
       </set>
       <set comment="band 3">
        <r>  0.0000  0.0000  0.1049  0.1049  0.0000  0.0000  0.0000  0.0000  0.0000 </r>
        <r>  0.0000  0.0000  0.1049  0.1049  0.0000  0.0000  0.0000  0.0000  0.0000 </r>
       </set>
       <set comment="band 4">
        <r>  0.0000  0.0000  0.1049  0.1049  0.0000  0.0000  0.0000  0.0000  0.0000 </r>
        <r>  0.0000  0.0000  0.1049  0.1049  0.0000  0.0000  0.0000  0.0000  0.0000 </r>
       </set>
       <set comment="band 5">
        <r>  0.0097  0.1361  0.0000  0.0000  0.0000  0.0000  0.0000  0.0000  0.0000 </r>
        <r>  0.0097  0.1361  0.0000  0.0000  0.0000  0.0000  0.0000  0.0000  0.0000 </r>
       </set>
       <set comment="band 6">
        <r>  0.0000  0.0000  0.0613  0.0977  0.0000  0.0000  0.0000  0.0000  0.0000 </r>
        <r>  0.0000  0.0000  0.0836  0.0754  0.0000  0.0000  0.0000  0.0000  0.0000 </r>
       </set>
       <set comment="band 7">
        <r>  0.0000  0.0000  0.0977  0.0613  0.0000  0.0000  0.0000  0.0000  0.0000 </r>
        <r>  0.0000  0.0000  0.0754  0.0836  0.0000  0.0000  0.0000  0.0000  0.0000 </r>
       </set>
       <set comment="band 8">
        <r>  0.2975  0.0441  0.0000  0.0000  0.0000  0.0000  0.0000  0.0000  0.0000 </r>
        <r>  0.2975  0.0441  0.0000  0.0000  0.0000  0.0000  0.0000  0.0000  0.0000 </r>
       </set>
      </set>
      <set comment="kpoint 48">
       <set comment="band 1">
        <r>  0.2131  0.0016  0.0000  0.0000  0.0000  0.0000  0.0000  0.0000  0.0000 </r>
        <r>  0.2131  0.0016  0.0000  0.0000  0.0000  0.0000  0.0000  0.0000  0.0000 </r>
       </set>
       <set comment="band 2">
        <r>  0.0672  0.1700  0.0000  0.0000  0.0000  0.0000  0.0000  0.0000  0.0000 </r>
        <r>  0.0672  0.1700  0.0000  0.0000  0.0000  0.0000  0.0000  0.0000  0.0000 </r>
       </set>
       <set comment="band 3">
        <r>  0.0000  0.0000  0.1041  0.1041  0.0000  0.0000  0.0000  0.0000  0.0000 </r>
        <r>  0.0000  0.0000  0.1041  0.1041  0.0000  0.0000  0.0000  0.0000  0.0000 </r>
       </set>
       <set comment="band 4">
        <r>  0.0000  0.0000  0.1041  0.1041  0.0000  0.0000  0.0000  0.0000  0.0000 </r>
        <r>  0.0000  0.0000  0.1041  0.1041  0.0000  0.0000  0.0000  0.0000  0.0000 </r>
       </set>
       <set comment="band 5">
        <r>  0.0125  0.1315  0.0000  0.0000  0.0000  0.0000  0.0000  0.0000  0.0000 </r>
        <r>  0.0125  0.1315  0.0000  0.0000  0.0000  0.0000  0.0000  0.0000  0.0000 </r>
       </set>
       <set comment="band 6">
        <r>  0.0000  0.0000  0.0876  0.0728  0.0000  0.0000  0.0000  0.0000  0.0000 </r>
        <r>  0.0000  0.0000  0.0753  0.0852  0.0000  0.0000  0.0000  0.0000  0.0000 </r>
       </set>
       <set comment="band 7">
        <r>  0.0000  0.0000  0.0728  0.0876  0.0000  0.0000  0.0000  0.0000  0.0000 </r>
        <r>  0.0000  0.0000  0.0852  0.0753  0.0000  0.0000  0.0000  0.0000  0.0000 </r>
       </set>
       <set comment="band 8">
        <r>  0.2810  0.0540  0.0000  0.0000  0.0000  0.0000  0.0000  0.0000  0.0000 </r>
        <r>  0.2810  0.0540  0.0000  0.0000  0.0000  0.0000  0.0000  0.0000  0.0000 </r>
       </set>
      </set>
      <set comment="kpoint 49">
       <set comment="band 1">
        <r>  0.2129  0.0020  0.0000  0.0000  0.0000  0.0000  0.0000  0.0000  0.0000 </r>
        <r>  0.2129  0.0020  0.0000  0.0000  0.0000  0.0000  0.0000  0.0000  0.0000 </r>
       </set>
       <set comment="band 2">
        <r>  0.0783  0.1621  0.0000  0.0000  0.0000  0.0000  0.0000  0.0000  0.0000 </r>
        <r>  0.0783  0.1621  0.0000  0.0000  0.0000  0.0000  0.0000  0.0000  0.0000 </r>
       </set>
       <set comment="band 3">
        <r>  0.0000  0.0000  0.1034  0.1035  0.0000  0.0000  0.0000  0.0000  0.0000 </r>
        <r>  0.0000  0.0000  0.1035  0.1035  0.0000  0.0000  0.0000  0.0000  0.0000 </r>
       </set>
       <set comment="band 4">
        <r>  0.0000  0.0000  0.1035  0.1034  0.0000  0.0000  0.0000  0.0000  0.0000 </r>
        <r>  0.0000  0.0000  0.1035  0.1035  0.0000  0.0000  0.0000  0.0000  0.0000 </r>
       </set>
       <set comment="band 5">
        <r>  0.0154  0.1268  0.0000  0.0000  0.0000  0.0000  0.0000  0.0000  0.0000 </r>
        <r>  0.0154  0.1268  0.0000  0.0000  0.0000  0.0000  0.0000  0.0000  0.0000 </r>
       </set>
       <set comment="band 6">
        <r>  0.0000  0.0000  0.1609  0.0009  0.0000  0.0000  0.0000  0.0000  0.0000 </r>
        <r>  0.0000  0.0000  0.0229  0.1388  0.0000  0.0000  0.0000  0.0000  0.0000 </r>
       </set>
       <set comment="band 7">
        <r>  0.0000  0.0000  0.0009  0.1609  0.0000  0.0000  0.0000  0.0000  0.0000 </r>
        <r>  0.0000  0.0000  0.1388  0.0229  0.0000  0.0000  0.0000  0.0000  0.0000 </r>
       </set>
       <set comment="band 8">
        <r>  0.2619  0.0631  0.0000  0.0000  0.0000  0.0000  0.0000  0.0000  0.0000 </r>
        <r>  0.2619  0.0631  0.0000  0.0000  0.0000  0.0000  0.0000  0.0000  0.0000 </r>
       </set>
      </set>
      <set comment="kpoint 50">
       <set comment="band 1">
        <r>  0.2126  0.0026  0.0000  0.0000  0.0000  0.0000  0.0000  0.0000  0.0000 </r>
        <r>  0.2126  0.0026  0.0000  0.0000  0.0000  0.0000  0.0000  0.0000  0.0000 </r>
       </set>
       <set comment="band 2">
        <r>  0.0884  0.1547  0.0000  0.0000  0.0000  0.0000  0.0000  0.0000  0.0000 </r>
        <r>  0.0884  0.1547  0.0000  0.0000  0.0000  0.0000  0.0000  0.0000  0.0000 </r>
       </set>
       <set comment="band 3">
        <r>  0.0000  0.0000  0.1028  0.1029  0.0000  0.0000  0.0000  0.0000  0.0000 </r>
        <r>  0.0000  0.0000  0.1029  0.1029  0.0000  0.0000  0.0000  0.0000  0.0000 </r>
       </set>
       <set comment="band 4">
        <r>  0.0000  0.0000  0.1029  0.1028  0.0000  0.0000  0.0000  0.0000  0.0000 </r>
        <r>  0.0000  0.0000  0.1029  0.1029  0.0000  0.0000  0.0000  0.0000  0.0000 </r>
       </set>
       <set comment="band 5">
        <r>  0.0183  0.1219  0.0000  0.0000  0.0000  0.0000  0.0000  0.0000  0.0000 </r>
        <r>  0.0183  0.1219  0.0000  0.0000  0.0000  0.0000  0.0000  0.0000  0.0000 </r>
       </set>
       <set comment="band 6">
        <r>  0.0000  0.0000  0.1126  0.0503  0.0000  0.0000  0.0000  0.0000  0.0000 </r>
        <r>  0.0000  0.0000  0.1000  0.0629  0.0000  0.0000  0.0000  0.0000  0.0000 </r>
       </set>
       <set comment="band 7">
        <r>  0.0000  0.0000  0.0503  0.1126  0.0000  0.0000  0.0000  0.0000  0.0000 </r>
        <r>  0.0000  0.0000  0.0629  0.1000  0.0000  0.0000  0.0000  0.0000  0.0000 </r>
       </set>
       <set comment="band 8">
        <r>  0.2387  0.0703  0.0000  0.0000  0.0000  0.0000  0.0000  0.0000  0.0000 </r>
        <r>  0.2387  0.0703  0.0000  0.0000  0.0000  0.0000  0.0000  0.0000  0.0000 </r>
       </set>
      </set>
      <set comment="kpoint 51">
       <set comment="band 1">
        <r>  0.2123  0.0032  0.0000  0.0000  0.0000  0.0000  0.0000  0.0000  0.0000 </r>
        <r>  0.2123  0.0032  0.0000  0.0000  0.0000  0.0000  0.0000  0.0000  0.0000 </r>
       </set>
       <set comment="band 2">
        <r>  0.0977  0.1479  0.0000  0.0000  0.0000  0.0000  0.0000  0.0000  0.0000 </r>
        <r>  0.0977  0.1479  0.0000  0.0000  0.0000  0.0000  0.0000  0.0000  0.0000 </r>
       </set>
       <set comment="band 3">
        <r>  0.0000  0.0000  0.1024  0.1024  0.0000  0.0000  0.0000  0.0000  0.0000 </r>
        <r>  0.0000  0.0000  0.1024  0.1024  0.0000  0.0000  0.0000  0.0000  0.0000 </r>
       </set>
       <set comment="band 4">
        <r>  0.0000  0.0000  0.1024  0.1024  0.0000  0.0000  0.0000  0.0000  0.0000 </r>
        <r>  0.0000  0.0000  0.1024  0.1024  0.0000  0.0000  0.0000  0.0000  0.0000 </r>
       </set>
       <set comment="band 5">
        <r>  0.0212  0.1172  0.0000  0.0000  0.0000  0.0000  0.0000  0.0000  0.0000 </r>
        <r>  0.0212  0.1172  0.0000  0.0000  0.0000  0.0000  0.0000  0.0000  0.0000 </r>
       </set>
       <set comment="band 6">
        <r>  0.0000  0.0000  0.0970  0.0670  0.0000  0.0000  0.0000  0.0000  0.0000 </r>
        <r>  0.0000  0.0000  0.0783  0.0857  0.0000  0.0000  0.0000  0.0000  0.0000 </r>
       </set>
       <set comment="band 7">
        <r>  0.0000  0.0000  0.0670  0.0970  0.0000  0.0000  0.0000  0.0000  0.0000 </r>
        <r>  0.0000  0.0000  0.0857  0.0783  0.0000  0.0000  0.0000  0.0000  0.0000 </r>
       </set>
       <set comment="band 8">
        <r>  0.2094  0.0742  0.0000  0.0000  0.0000  0.0000  0.0000  0.0000  0.0000 </r>
        <r>  0.2094  0.0742  0.0000  0.0000  0.0000  0.0000  0.0000  0.0000  0.0000 </r>
       </set>
      </set>
      <set comment="kpoint 52">
       <set comment="band 1">
        <r>  0.2120  0.0039  0.0000  0.0000  0.0000  0.0000  0.0000  0.0000  0.0000 </r>
        <r>  0.2120  0.0039  0.0000  0.0000  0.0000  0.0000  0.0000  0.0000  0.0000 </r>
       </set>
       <set comment="band 2">
        <r>  0.1062  0.1416  0.0000  0.0000  0.0000  0.0000  0.0000  0.0000  0.0000 </r>
        <r>  0.1062  0.1416  0.0000  0.0000  0.0000  0.0000  0.0000  0.0000  0.0000 </r>
       </set>
       <set comment="band 3">
        <r>  0.0000  0.0000  0.1019  0.1019  0.0000  0.0000  0.0000  0.0000  0.0000 </r>
        <r>  0.0000  0.0000  0.1019  0.1019  0.0000  0.0000  0.0000  0.0000  0.0000 </r>
       </set>
       <set comment="band 4">
        <r>  0.0000  0.0000  0.1019  0.1019  0.0000  0.0000  0.0000  0.0000  0.0000 </r>
        <r>  0.0000  0.0000  0.1019  0.1019  0.0000  0.0000  0.0000  0.0000  0.0000 </r>
       </set>
       <set comment="band 5">
        <r>  0.0240  0.1123  0.0000  0.0000  0.0000  0.0000  0.0000  0.0000  0.0000 </r>
        <r>  0.0240  0.1123  0.0000  0.0000  0.0000  0.0000  0.0000  0.0000  0.0000 </r>
       </set>
       <set comment="band 6">
        <r>  0.0000  0.0000  0.0814  0.0834  0.0000  0.0000  0.0000  0.0000  0.0000 </r>
        <r>  0.0000  0.0000  0.0816  0.0832  0.0000  0.0000  0.0000  0.0000  0.0000 </r>
       </set>
       <set comment="band 7">
        <r>  0.0000  0.0000  0.0834  0.0814  0.0000  0.0000  0.0000  0.0000  0.0000 </r>
        <r>  0.0000  0.0000  0.0832  0.0816  0.0000  0.0000  0.0000  0.0000  0.0000 </r>
       </set>
       <set comment="band 8">
        <r>  0.1757  0.0737  0.0000  0.0000  0.0000  0.0000  0.0000  0.0000  0.0000 </r>
        <r>  0.1757  0.0737  0.0000  0.0000  0.0000  0.0000  0.0000  0.0000  0.0000 </r>
       </set>
      </set>
      <set comment="kpoint 53">
       <set comment="band 1">
        <r>  0.2117  0.0046  0.0000  0.0000  0.0000  0.0000  0.0000  0.0000  0.0000 </r>
        <r>  0.2117  0.0046  0.0000  0.0000  0.0000  0.0000  0.0000  0.0000  0.0000 </r>
       </set>
       <set comment="band 2">
        <r>  0.1140  0.1357  0.0000  0.0000  0.0000  0.0000  0.0000  0.0000  0.0000 </r>
        <r>  0.1140  0.1357  0.0000  0.0000  0.0000  0.0000  0.0000  0.0000  0.0000 </r>
       </set>
       <set comment="band 3">
        <r>  0.0000  0.0000  0.1015  0.1015  0.0000  0.0000  0.0000  0.0000  0.0000 </r>
        <r>  0.0000  0.0000  0.1015  0.1015  0.0000  0.0000  0.0000  0.0000  0.0000 </r>
       </set>
       <set comment="band 4">
        <r>  0.0000  0.0000  0.1015  0.1015  0.0000  0.0000  0.0000  0.0000  0.0000 </r>
        <r>  0.0000  0.0000  0.1015  0.1015  0.0000  0.0000  0.0000  0.0000  0.0000 </r>
       </set>
       <set comment="band 5">
        <r>  0.0268  0.1076  0.0000  0.0000  0.0000  0.0000  0.0000  0.0000  0.0000 </r>
        <r>  0.0268  0.1076  0.0000  0.0000  0.0000  0.0000  0.0000  0.0000  0.0000 </r>
       </set>
       <set comment="band 6">
        <r>  0.0000  0.0000  0.1298  0.0357  0.0000  0.0000  0.0000  0.0000  0.0000 </r>
        <r>  0.0000  0.0000  0.0266  0.1388  0.0000  0.0000  0.0000  0.0000  0.0000 </r>
       </set>
       <set comment="band 7">
        <r>  0.0000  0.0000  0.0357  0.1298  0.0000  0.0000  0.0000  0.0000  0.0000 </r>
        <r>  0.0000  0.0000  0.1388  0.0266  0.0000  0.0000  0.0000  0.0000  0.0000 </r>
       </set>
       <set comment="band 8">
        <r>  0.1419  0.0694  0.0000  0.0000  0.0000  0.0000  0.0000  0.0000  0.0000 </r>
        <r>  0.1419  0.0694  0.0000  0.0000  0.0000  0.0000  0.0000  0.0000  0.0000 </r>
       </set>
      </set>
      <set comment="kpoint 54">
       <set comment="band 1">
        <r>  0.2113  0.0054  0.0000  0.0000  0.0000  0.0000  0.0000  0.0000  0.0000 </r>
        <r>  0.2113  0.0054  0.0000  0.0000  0.0000  0.0000  0.0000  0.0000  0.0000 </r>
       </set>
       <set comment="band 2">
        <r>  0.1211  0.1302  0.0000  0.0000  0.0000  0.0000  0.0000  0.0000  0.0000 </r>
        <r>  0.1211  0.1302  0.0000  0.0000  0.0000  0.0000  0.0000  0.0000  0.0000 </r>
       </set>
       <set comment="band 3">
        <r>  0.0000  0.0000  0.1012  0.1012  0.0000  0.0000  0.0000  0.0000  0.0000 </r>
        <r>  0.0000  0.0000  0.1012  0.1012  0.0000  0.0000  0.0000  0.0000  0.0000 </r>
       </set>
       <set comment="band 4">
        <r>  0.0000  0.0000  0.1012  0.1012  0.0000  0.0000  0.0000  0.0000  0.0000 </r>
        <r>  0.0000  0.0000  0.1012  0.1012  0.0000  0.0000  0.0000  0.0000  0.0000 </r>
       </set>
       <set comment="band 5">
        <r>  0.0294  0.1030  0.0000  0.0000  0.0000  0.0000  0.0000  0.0000  0.0000 </r>
        <r>  0.0294  0.1030  0.0000  0.0000  0.0000  0.0000  0.0000  0.0000  0.0000 </r>
       </set>
       <set comment="band 6">
        <r>  0.1134  0.0632  0.0000  0.0000  0.0000  0.0000  0.0000  0.0000  0.0000 </r>
        <r>  0.1134  0.0632  0.0000  0.0000  0.0000  0.0000  0.0000  0.0000  0.0000 </r>
       </set>
       <set comment="band 7">
        <r>  0.0000  0.0000  0.0819  0.0841  0.0000  0.0000  0.0000  0.0000  0.0000 </r>
        <r>  0.0000  0.0000  0.0839  0.0821  0.0000  0.0000  0.0000  0.0000  0.0000 </r>
       </set>
       <set comment="band 8">
        <r>  0.0000  0.0000  0.0841  0.0819  0.0000  0.0000  0.0000  0.0000  0.0000 </r>
        <r>  0.0000  0.0000  0.0821  0.0839  0.0000  0.0000  0.0000  0.0000  0.0000 </r>
       </set>
      </set>
      <set comment="kpoint 55">
       <set comment="band 1">
        <r>  0.2109  0.0063  0.0000  0.0000  0.0000  0.0000  0.0000  0.0000  0.0000 </r>
        <r>  0.2109  0.0063  0.0000  0.0000  0.0000  0.0000  0.0000  0.0000  0.0000 </r>
       </set>
       <set comment="band 2">
        <r>  0.1275  0.1248  0.0000  0.0000  0.0000  0.0000  0.0000  0.0000  0.0000 </r>
        <r>  0.1275  0.1248  0.0000  0.0000  0.0000  0.0000  0.0000  0.0000  0.0000 </r>
       </set>
       <set comment="band 3">
        <r>  0.0000  0.0000  0.1009  0.1009  0.0000  0.0000  0.0000  0.0000  0.0000 </r>
        <r>  0.0000  0.0000  0.1009  0.1009  0.0000  0.0000  0.0000  0.0000  0.0000 </r>
       </set>
       <set comment="band 4">
        <r>  0.0000  0.0000  0.1009  0.1009  0.0000  0.0000  0.0000  0.0000  0.0000 </r>
        <r>  0.0000  0.0000  0.1009  0.1009  0.0000  0.0000  0.0000  0.0000  0.0000 </r>
       </set>
       <set comment="band 5">
        <r>  0.0319  0.0985  0.0000  0.0000  0.0000  0.0000  0.0000  0.0000  0.0000 </r>
        <r>  0.0319  0.0985  0.0000  0.0000  0.0000  0.0000  0.0000  0.0000  0.0000 </r>
       </set>
       <set comment="band 6">
        <r>  0.0919  0.0566  0.0000  0.0000  0.0000  0.0000  0.0000  0.0000  0.0000 </r>
        <r>  0.0919  0.0566  0.0000  0.0000  0.0000  0.0000  0.0000  0.0000  0.0000 </r>
       </set>
       <set comment="band 7">
        <r>  0.0000  0.0000  0.1010  0.0654  0.0000  0.0000  0.0000  0.0000  0.0000 </r>
        <r>  0.0000  0.0000  0.0625  0.1039  0.0000  0.0000  0.0000  0.0000  0.0000 </r>
       </set>
       <set comment="band 8">
        <r>  0.0000  0.0000  0.0654  0.1010  0.0000  0.0000  0.0000  0.0000  0.0000 </r>
        <r>  0.0000  0.0000  0.1039  0.0625  0.0000  0.0000  0.0000  0.0000  0.0000 </r>
       </set>
      </set>
      <set comment="kpoint 56">
       <set comment="band 1">
        <r>  0.2105  0.0072  0.0000  0.0000  0.0000  0.0000  0.0000  0.0000  0.0000 </r>
        <r>  0.2105  0.0072  0.0000  0.0000  0.0000  0.0000  0.0000  0.0000  0.0000 </r>
       </set>
       <set comment="band 2">
        <r>  0.1334  0.1200  0.0000  0.0000  0.0000  0.0000  0.0000  0.0000  0.0000 </r>
        <r>  0.1334  0.1200  0.0000  0.0000  0.0000  0.0000  0.0000  0.0000  0.0000 </r>
       </set>
       <set comment="band 3">
        <r>  0.0000  0.0000  0.1006  0.1006  0.0000  0.0000  0.0000  0.0000  0.0000 </r>
        <r>  0.0000  0.0000  0.1006  0.1006  0.0000  0.0000  0.0000  0.0000  0.0000 </r>
       </set>
       <set comment="band 4">
        <r>  0.0000  0.0000  0.1006  0.1006  0.0000  0.0000  0.0000  0.0000  0.0000 </r>
        <r>  0.0000  0.0000  0.1006  0.1006  0.0000  0.0000  0.0000  0.0000  0.0000 </r>
       </set>
       <set comment="band 5">
        <r>  0.0343  0.0942  0.0000  0.0000  0.0000  0.0000  0.0000  0.0000  0.0000 </r>
        <r>  0.0343  0.0942  0.0000  0.0000  0.0000  0.0000  0.0000  0.0000  0.0000 </r>
       </set>
       <set comment="band 6">
        <r>  0.0766  0.0512  0.0000  0.0000  0.0000  0.0000  0.0000  0.0000  0.0000 </r>
        <r>  0.0766  0.0512  0.0000  0.0000  0.0000  0.0000  0.0000  0.0000  0.0000 </r>
       </set>
       <set comment="band 7">
        <r>  0.0000  0.0000  0.0669  0.0998  0.0000  0.0000  0.0000  0.0000  0.0000 </r>
        <r>  0.0000  0.0000  0.1056  0.0610  0.0000  0.0000  0.0000  0.0000  0.0000 </r>
       </set>
       <set comment="band 8">
        <r>  0.0000  0.0000  0.0998  0.0669  0.0000  0.0000  0.0000  0.0000  0.0000 </r>
        <r>  0.0000  0.0000  0.0610  0.1057  0.0000  0.0000  0.0000  0.0000  0.0000 </r>
       </set>
      </set>
      <set comment="kpoint 57">
       <set comment="band 1">
        <r>  0.2100  0.0081  0.0000  0.0000  0.0000  0.0000  0.0000  0.0000  0.0000 </r>
        <r>  0.2100  0.0081  0.0000  0.0000  0.0000  0.0000  0.0000  0.0000  0.0000 </r>
       </set>
       <set comment="band 2">
        <r>  0.1388  0.1155  0.0000  0.0000  0.0000  0.0000  0.0000  0.0000  0.0000 </r>
        <r>  0.1388  0.1155  0.0000  0.0000  0.0000  0.0000  0.0000  0.0000  0.0000 </r>
       </set>
       <set comment="band 3">
        <r>  0.0000  0.0000  0.1004  0.1004  0.0000  0.0000  0.0000  0.0000  0.0000 </r>
        <r>  0.0000  0.0000  0.1004  0.1004  0.0000  0.0000  0.0000  0.0000  0.0000 </r>
       </set>
       <set comment="band 4">
        <r>  0.0000  0.0000  0.1004  0.1004  0.0000  0.0000  0.0000  0.0000  0.0000 </r>
        <r>  0.0000  0.0000  0.1004  0.1004  0.0000  0.0000  0.0000  0.0000  0.0000 </r>
       </set>
       <set comment="band 5">
        <r>  0.0365  0.0901  0.0000  0.0000  0.0000  0.0000  0.0000  0.0000  0.0000 </r>
        <r>  0.0365  0.0901  0.0000  0.0000  0.0000  0.0000  0.0000  0.0000  0.0000 </r>
       </set>
       <set comment="band 6">
        <r>  0.0659  0.0468  0.0000  0.0000  0.0000  0.0000  0.0000  0.0000  0.0000 </r>
        <r>  0.0659  0.0468  0.0000  0.0000  0.0000  0.0000  0.0000  0.0000  0.0000 </r>
       </set>
       <set comment="band 7">
        <r>  0.0000  0.0000  0.0617  0.1051  0.0000  0.0000  0.0000  0.0000  0.0000 </r>
        <r>  0.0000  0.0000  0.1050  0.0619  0.0000  0.0000  0.0000  0.0000  0.0000 </r>
       </set>
       <set comment="band 8">
        <r>  0.0000  0.0000  0.1051  0.0617  0.0000  0.0000  0.0000  0.0000  0.0000 </r>
        <r>  0.0000  0.0000  0.0619  0.1050  0.0000  0.0000  0.0000  0.0000  0.0000 </r>
       </set>
      </set>
      <set comment="kpoint 58">
       <set comment="band 1">
        <r>  0.2095  0.0092  0.0000  0.0000  0.0000  0.0000  0.0000  0.0000  0.0000 </r>
        <r>  0.2095  0.0092  0.0000  0.0000  0.0000  0.0000  0.0000  0.0000  0.0000 </r>
       </set>
       <set comment="band 2">
        <r>  0.1438  0.1112  0.0000  0.0000  0.0000  0.0000  0.0000  0.0000  0.0000 </r>
        <r>  0.1438  0.1112  0.0000  0.0000  0.0000  0.0000  0.0000  0.0000  0.0000 </r>
       </set>
       <set comment="band 3">
        <r>  0.0000  0.0000  0.1002  0.1003  0.0000  0.0000  0.0000  0.0000  0.0000 </r>
        <r>  0.0000  0.0000  0.1002  0.1003  0.0000  0.0000  0.0000  0.0000  0.0000 </r>
       </set>
       <set comment="band 4">
        <r>  0.0000  0.0000  0.1003  0.1002  0.0000  0.0000  0.0000  0.0000  0.0000 </r>
        <r>  0.0000  0.0000  0.1003  0.1002  0.0000  0.0000  0.0000  0.0000  0.0000 </r>
       </set>
       <set comment="band 5">
        <r>  0.0386  0.0861  0.0000  0.0000  0.0000  0.0000  0.0000  0.0000  0.0000 </r>
        <r>  0.0386  0.0861  0.0000  0.0000  0.0000  0.0000  0.0000  0.0000  0.0000 </r>
       </set>
       <set comment="band 6">
        <r>  0.0584  0.0433  0.0000  0.0000  0.0000  0.0000  0.0000  0.0000  0.0000 </r>
        <r>  0.0584  0.0433  0.0000  0.0000  0.0000  0.0000  0.0000  0.0000  0.0000 </r>
       </set>
       <set comment="band 7">
        <r>  0.0000  0.0000  0.0510  0.1159  0.0000  0.0000  0.0000  0.0000  0.0000 </r>
        <r>  0.0000  0.0000  0.1147  0.0522  0.0000  0.0000  0.0000  0.0000  0.0000 </r>
       </set>
       <set comment="band 8">
        <r>  0.0000  0.0000  0.1159  0.0510  0.0000  0.0000  0.0000  0.0000  0.0000 </r>
        <r>  0.0000  0.0000  0.0522  0.1147  0.0000  0.0000  0.0000  0.0000  0.0000 </r>
       </set>
      </set>
      <set comment="kpoint 59">
       <set comment="band 1">
        <r>  0.2090  0.0103  0.0000  0.0000  0.0000  0.0000  0.0000  0.0000  0.0000 </r>
        <r>  0.2090  0.0103  0.0000  0.0000  0.0000  0.0000  0.0000  0.0000  0.0000 </r>
       </set>
       <set comment="band 2">
        <r>  0.1484  0.1072  0.0000  0.0000  0.0000  0.0000  0.0000  0.0000  0.0000 </r>
        <r>  0.1484  0.1072  0.0000  0.0000  0.0000  0.0000  0.0000  0.0000  0.0000 </r>
       </set>
       <set comment="band 3">
        <r>  0.0000  0.0000  0.1001  0.1001  0.0000  0.0000  0.0000  0.0000  0.0000 </r>
        <r>  0.0000  0.0000  0.1001  0.1001  0.0000  0.0000  0.0000  0.0000  0.0000 </r>
       </set>
       <set comment="band 4">
        <r>  0.0000  0.0000  0.1001  0.1001  0.0000  0.0000  0.0000  0.0000  0.0000 </r>
        <r>  0.0000  0.0000  0.1001  0.1001  0.0000  0.0000  0.0000  0.0000  0.0000 </r>
       </set>
       <set comment="band 5">
        <r>  0.0405  0.0823  0.0000  0.0000  0.0000  0.0000  0.0000  0.0000  0.0000 </r>
        <r>  0.0405  0.0823  0.0000  0.0000  0.0000  0.0000  0.0000  0.0000  0.0000 </r>
       </set>
       <set comment="band 6">
        <r>  0.0532  0.0404  0.0000  0.0000  0.0000  0.0000  0.0000  0.0000  0.0000 </r>
        <r>  0.0532  0.0404  0.0000  0.0000  0.0000  0.0000  0.0000  0.0000  0.0000 </r>
       </set>
       <set comment="band 7">
        <r>  0.0000  0.0000  0.0102  0.1566  0.0000  0.0000  0.0000  0.0000  0.0000 </r>
        <r>  0.0000  0.0000  0.1549  0.0120  0.0000  0.0000  0.0000  0.0000  0.0000 </r>
       </set>
       <set comment="band 8">
        <r>  0.0000  0.0000  0.1566  0.0102  0.0000  0.0000  0.0000  0.0000  0.0000 </r>
        <r>  0.0000  0.0000  0.0120  0.1548  0.0000  0.0000  0.0000  0.0000  0.0000 </r>
       </set>
      </set>
      <set comment="kpoint 60">
       <set comment="band 1">
        <r>  0.2085  0.0114  0.0000  0.0000  0.0000  0.0000  0.0000  0.0000  0.0000 </r>
        <r>  0.2085  0.0114  0.0000  0.0000  0.0000  0.0000  0.0000  0.0000  0.0000 </r>
       </set>
       <set comment="band 2">
        <r>  0.1525  0.1032  0.0000  0.0000  0.0000  0.0000  0.0000  0.0000  0.0000 </r>
        <r>  0.1525  0.1032  0.0000  0.0000  0.0000  0.0000  0.0000  0.0000  0.0000 </r>
       </set>
       <set comment="band 3">
        <r>  0.0000  0.0000  0.1000  0.1000  0.0000  0.0000  0.0000  0.0000  0.0000 </r>
        <r>  0.0000  0.0000  0.1000  0.1000  0.0000  0.0000  0.0000  0.0000  0.0000 </r>
       </set>
       <set comment="band 4">
        <r>  0.0000  0.0000  0.1000  0.1000  0.0000  0.0000  0.0000  0.0000  0.0000 </r>
        <r>  0.0000  0.0000  0.1000  0.1000  0.0000  0.0000  0.0000  0.0000  0.0000 </r>
       </set>
       <set comment="band 5">
        <r>  0.0423  0.0786  0.0000  0.0000  0.0000  0.0000  0.0000  0.0000  0.0000 </r>
        <r>  0.0423  0.0786  0.0000  0.0000  0.0000  0.0000  0.0000  0.0000  0.0000 </r>
       </set>
       <set comment="band 6">
        <r>  0.0496  0.0380  0.0000  0.0000  0.0000  0.0000  0.0000  0.0000  0.0000 </r>
        <r>  0.0496  0.0380  0.0000  0.0000  0.0000  0.0000  0.0000  0.0000  0.0000 </r>
       </set>
       <set comment="band 7">
        <r>  0.0000  0.0000  0.1064  0.0605  0.0000  0.0000  0.0000  0.0000  0.0000 </r>
        <r>  0.0000  0.0000  0.0647  0.1021  0.0000  0.0000  0.0000  0.0000  0.0000 </r>
       </set>
       <set comment="band 8">
        <r>  0.0000  0.0000  0.0604  0.1064  0.0000  0.0000  0.0000  0.0000  0.0000 </r>
        <r>  0.0000  0.0000  0.1022  0.0647  0.0000  0.0000  0.0000  0.0000  0.0000 </r>
       </set>
      </set>
      <set comment="kpoint 61">
       <set comment="band 1">
        <r>  0.2080  0.0126  0.0000  0.0000  0.0000  0.0000  0.0000  0.0000  0.0000 </r>
        <r>  0.2080  0.0126  0.0000  0.0000  0.0000  0.0000  0.0000  0.0000  0.0000 </r>
       </set>
       <set comment="band 2">
        <r>  0.1564  0.0995  0.0000  0.0000  0.0000  0.0000  0.0000  0.0000  0.0000 </r>
        <r>  0.1564  0.0995  0.0000  0.0000  0.0000  0.0000  0.0000  0.0000  0.0000 </r>
       </set>
       <set comment="band 3">
        <r>  0.0000  0.0000  0.0999  0.0999  0.0000  0.0000  0.0000  0.0000  0.0000 </r>
        <r>  0.0000  0.0000  0.0999  0.0999  0.0000  0.0000  0.0000  0.0000  0.0000 </r>
       </set>
       <set comment="band 4">
        <r>  0.0000  0.0000  0.0999  0.0999  0.0000  0.0000  0.0000  0.0000  0.0000 </r>
        <r>  0.0000  0.0000  0.0999  0.0999  0.0000  0.0000  0.0000  0.0000  0.0000 </r>
       </set>
       <set comment="band 5">
        <r>  0.0439  0.0752  0.0000  0.0000  0.0000  0.0000  0.0000  0.0000  0.0000 </r>
        <r>  0.0439  0.0752  0.0000  0.0000  0.0000  0.0000  0.0000  0.0000  0.0000 </r>
       </set>
       <set comment="band 6">
        <r>  0.0470  0.0361  0.0000  0.0000  0.0000  0.0000  0.0000  0.0000  0.0000 </r>
        <r>  0.0470  0.0361  0.0000  0.0000  0.0000  0.0000  0.0000  0.0000  0.0000 </r>
       </set>
       <set comment="band 7">
        <r>  0.0000  0.0000  0.0981  0.0685  0.0000  0.0000  0.0000  0.0000  0.0000 </r>
        <r>  0.0000  0.0000  0.0706  0.0961  0.0000  0.0000  0.0000  0.0000  0.0000 </r>
       </set>
       <set comment="band 8">
        <r>  0.0000  0.0000  0.0685  0.0981  0.0000  0.0000  0.0000  0.0000  0.0000 </r>
        <r>  0.0000  0.0000  0.0961  0.0706  0.0000  0.0000  0.0000  0.0000  0.0000 </r>
       </set>
      </set>
      <set comment="kpoint 62">
       <set comment="band 1">
        <r>  0.2075  0.0139  0.0000  0.0000  0.0000  0.0000  0.0000  0.0000  0.0000 </r>
        <r>  0.2075  0.0139  0.0000  0.0000  0.0000  0.0000  0.0000  0.0000  0.0000 </r>
       </set>
       <set comment="band 2">
        <r>  0.1599  0.0960  0.0000  0.0000  0.0000  0.0000  0.0000  0.0000  0.0000 </r>
        <r>  0.1599  0.0960  0.0000  0.0000  0.0000  0.0000  0.0000  0.0000  0.0000 </r>
       </set>
       <set comment="band 3">
        <r>  0.0000  0.0000  0.0998  0.0998  0.0000  0.0000  0.0000  0.0000  0.0000 </r>
        <r>  0.0000  0.0000  0.0998  0.0998  0.0000  0.0000  0.0000  0.0000  0.0000 </r>
       </set>
       <set comment="band 4">
        <r>  0.0000  0.0000  0.0998  0.0998  0.0000  0.0000  0.0000  0.0000  0.0000 </r>
        <r>  0.0000  0.0000  0.0998  0.0998  0.0000  0.0000  0.0000  0.0000  0.0000 </r>
       </set>
       <set comment="band 5">
        <r>  0.0454  0.0720  0.0000  0.0000  0.0000  0.0000  0.0000  0.0000  0.0000 </r>
        <r>  0.0454  0.0720  0.0000  0.0000  0.0000  0.0000  0.0000  0.0000  0.0000 </r>
       </set>
       <set comment="band 6">
        <r>  0.0454  0.0346  0.0000  0.0000  0.0000  0.0000  0.0000  0.0000  0.0000 </r>
        <r>  0.0454  0.0346  0.0000  0.0000  0.0000  0.0000  0.0000  0.0000  0.0000 </r>
       </set>
       <set comment="band 7">
        <r>  0.0000  0.0000  0.0274  0.1396  0.0000  0.0000  0.0000  0.0000  0.0000 </r>
        <r>  0.0000  0.0000  0.1425  0.0244  0.0000  0.0000  0.0000  0.0000  0.0000 </r>
       </set>
       <set comment="band 8">
        <r>  0.0000  0.0000  0.1396  0.0274  0.0000  0.0000  0.0000  0.0000  0.0000 </r>
        <r>  0.0000  0.0000  0.0243  0.1426  0.0000  0.0000  0.0000  0.0000  0.0000 </r>
       </set>
      </set>
      <set comment="kpoint 63">
       <set comment="band 1">
        <r>  0.2069  0.0153  0.0000  0.0000  0.0000  0.0000  0.0000  0.0000  0.0000 </r>
        <r>  0.2069  0.0153  0.0000  0.0000  0.0000  0.0000  0.0000  0.0000  0.0000 </r>
       </set>
       <set comment="band 2">
        <r>  0.1632  0.0925  0.0000  0.0000  0.0000  0.0000  0.0000  0.0000  0.0000 </r>
        <r>  0.1632  0.0925  0.0000  0.0000  0.0000  0.0000  0.0000  0.0000  0.0000 </r>
       </set>
       <set comment="band 3">
        <r>  0.0000  0.0000  0.0997  0.0997  0.0000  0.0000  0.0000  0.0000  0.0000 </r>
        <r>  0.0000  0.0000  0.0997  0.0997  0.0000  0.0000  0.0000  0.0000  0.0000 </r>
       </set>
       <set comment="band 4">
        <r>  0.0000  0.0000  0.0997  0.0997  0.0000  0.0000  0.0000  0.0000  0.0000 </r>
        <r>  0.0000  0.0000  0.0997  0.0997  0.0000  0.0000  0.0000  0.0000  0.0000 </r>
       </set>
       <set comment="band 5">
        <r>  0.0467  0.0688  0.0000  0.0000  0.0000  0.0000  0.0000  0.0000  0.0000 </r>
        <r>  0.0467  0.0688  0.0000  0.0000  0.0000  0.0000  0.0000  0.0000  0.0000 </r>
       </set>
       <set comment="band 6">
        <r>  0.0443  0.0334  0.0000  0.0000  0.0000  0.0000  0.0000  0.0000  0.0000 </r>
        <r>  0.0443  0.0334  0.0000  0.0000  0.0000  0.0000  0.0000  0.0000  0.0000 </r>
       </set>
       <set comment="band 7">
        <r>  0.0000  0.0000  0.1428  0.0238  0.0000  0.0000  0.0000  0.0000  0.0000 </r>
        <r>  0.0000  0.0000  0.0105  0.1560  0.0000  0.0000  0.0000  0.0000  0.0000 </r>
       </set>
       <set comment="band 8">
        <r>  0.0000  0.0000  0.0238  0.1427  0.0000  0.0000  0.0000  0.0000  0.0000 </r>
        <r>  0.0000  0.0000  0.1560  0.0105  0.0000  0.0000  0.0000  0.0000  0.0000 </r>
       </set>
      </set>
      <set comment="kpoint 64">
       <set comment="band 1">
        <r>  0.2062  0.0167  0.0000  0.0000  0.0000  0.0000  0.0000  0.0000  0.0000 </r>
        <r>  0.2062  0.0167  0.0000  0.0000  0.0000  0.0000  0.0000  0.0000  0.0000 </r>
       </set>
       <set comment="band 2">
        <r>  0.1662  0.0892  0.0000  0.0000  0.0000  0.0000  0.0000  0.0000  0.0000 </r>
        <r>  0.1662  0.0892  0.0000  0.0000  0.0000  0.0000  0.0000  0.0000  0.0000 </r>
       </set>
       <set comment="band 3">
        <r>  0.0000  0.0000  0.0996  0.0996  0.0000  0.0000  0.0000  0.0000  0.0000 </r>
        <r>  0.0000  0.0000  0.0996  0.0996  0.0000  0.0000  0.0000  0.0000  0.0000 </r>
       </set>
       <set comment="band 4">
        <r>  0.0000  0.0000  0.0996  0.0996  0.0000  0.0000  0.0000  0.0000  0.0000 </r>
        <r>  0.0000  0.0000  0.0996  0.0996  0.0000  0.0000  0.0000  0.0000  0.0000 </r>
       </set>
       <set comment="band 5">
        <r>  0.0480  0.0658  0.0000  0.0000  0.0000  0.0000  0.0000  0.0000  0.0000 </r>
        <r>  0.0480  0.0658  0.0000  0.0000  0.0000  0.0000  0.0000  0.0000  0.0000 </r>
       </set>
       <set comment="band 6">
        <r>  0.0436  0.0323  0.0000  0.0000  0.0000  0.0000  0.0000  0.0000  0.0000 </r>
        <r>  0.0436  0.0323  0.0000  0.0000  0.0000  0.0000  0.0000  0.0000  0.0000 </r>
       </set>
       <set comment="band 7">
        <r>  0.0000  0.0000  0.1301  0.0361  0.0000  0.0000  0.0000  0.0000  0.0000 </r>
        <r>  0.0000  0.0000  0.0448  0.1214  0.0000  0.0000  0.0000  0.0000  0.0000 </r>
       </set>
       <set comment="band 8">
        <r>  0.0000  0.0000  0.0361  0.1301  0.0000  0.0000  0.0000  0.0000  0.0000 </r>
        <r>  0.0000  0.0000  0.1214  0.0448  0.0000  0.0000  0.0000  0.0000  0.0000 </r>
       </set>
      </set>
      <set comment="kpoint 65">
       <set comment="band 1">
        <r>  0.2056  0.0181  0.0000  0.0000  0.0000  0.0000  0.0000  0.0000  0.0000 </r>
        <r>  0.2056  0.0181  0.0000  0.0000  0.0000  0.0000  0.0000  0.0000  0.0000 </r>
       </set>
       <set comment="band 2">
        <r>  0.1690  0.0860  0.0000  0.0000  0.0000  0.0000  0.0000  0.0000  0.0000 </r>
        <r>  0.1690  0.0860  0.0000  0.0000  0.0000  0.0000  0.0000  0.0000  0.0000 </r>
       </set>
       <set comment="band 3">
        <r>  0.0000  0.0000  0.0996  0.0996  0.0000  0.0000  0.0000  0.0000  0.0000 </r>
        <r>  0.0000  0.0000  0.0996  0.0996  0.0000  0.0000  0.0000  0.0000  0.0000 </r>
       </set>
       <set comment="band 4">
        <r>  0.0000  0.0000  0.0996  0.0996  0.0000  0.0000  0.0000  0.0000  0.0000 </r>
        <r>  0.0000  0.0000  0.0996  0.0996  0.0000  0.0000  0.0000  0.0000  0.0000 </r>
       </set>
       <set comment="band 5">
        <r>  0.0491  0.0629  0.0000  0.0000  0.0000  0.0000  0.0000  0.0000  0.0000 </r>
        <r>  0.0491  0.0629  0.0000  0.0000  0.0000  0.0000  0.0000  0.0000  0.0000 </r>
       </set>
       <set comment="band 6">
        <r>  0.0433  0.0315  0.0000  0.0000  0.0000  0.0000  0.0000  0.0000  0.0000 </r>
        <r>  0.0433  0.0315  0.0000  0.0000  0.0000  0.0000  0.0000  0.0000  0.0000 </r>
       </set>
       <set comment="band 7">
        <r>  0.0000  0.0000  0.0292  0.1366  0.0000  0.0000  0.0000  0.0000  0.0000 </r>
        <r>  0.0000  0.0000  0.1159  0.0499  0.0000  0.0000  0.0000  0.0000  0.0000 </r>
       </set>
       <set comment="band 8">
        <r>  0.0000  0.0000  0.1366  0.0292  0.0000  0.0000  0.0000  0.0000  0.0000 </r>
        <r>  0.0000  0.0000  0.0499  0.1159  0.0000  0.0000  0.0000  0.0000  0.0000 </r>
       </set>
      </set>
      <set comment="kpoint 66">
       <set comment="band 1">
        <r>  0.2049  0.0196  0.0000  0.0000  0.0000  0.0000  0.0000  0.0000  0.0000 </r>
        <r>  0.2049  0.0196  0.0000  0.0000  0.0000  0.0000  0.0000  0.0000  0.0000 </r>
       </set>
       <set comment="band 2">
        <r>  0.1715  0.0829  0.0000  0.0000  0.0000  0.0000  0.0000  0.0000  0.0000 </r>
        <r>  0.1715  0.0829  0.0000  0.0000  0.0000  0.0000  0.0000  0.0000  0.0000 </r>
       </set>
       <set comment="band 3">
        <r>  0.0000  0.0000  0.0996  0.0996  0.0000  0.0000  0.0000  0.0000  0.0000 </r>
        <r>  0.0000  0.0000  0.0996  0.0996  0.0000  0.0000  0.0000  0.0000  0.0000 </r>
       </set>
       <set comment="band 4">
        <r>  0.0000  0.0000  0.0996  0.0996  0.0000  0.0000  0.0000  0.0000  0.0000 </r>
        <r>  0.0000  0.0000  0.0996  0.0996  0.0000  0.0000  0.0000  0.0000  0.0000 </r>
       </set>
       <set comment="band 5">
        <r>  0.0501  0.0602  0.0000  0.0000  0.0000  0.0000  0.0000  0.0000  0.0000 </r>
        <r>  0.0501  0.0602  0.0000  0.0000  0.0000  0.0000  0.0000  0.0000  0.0000 </r>
       </set>
       <set comment="band 6">
        <r>  0.0433  0.0308  0.0000  0.0000  0.0000  0.0000  0.0000  0.0000  0.0000 </r>
        <r>  0.0433  0.0308  0.0000  0.0000  0.0000  0.0000  0.0000  0.0000  0.0000 </r>
       </set>
       <set comment="band 7">
        <r>  0.0000  0.0000  0.1278  0.0376  0.0000  0.0000  0.0000  0.0000  0.0000 </r>
        <r>  0.0000  0.0000  0.0638  0.1017  0.0000  0.0000  0.0000  0.0000  0.0000 </r>
       </set>
       <set comment="band 8">
        <r>  0.0000  0.0000  0.0376  0.1278  0.0000  0.0000  0.0000  0.0000  0.0000 </r>
        <r>  0.0000  0.0000  0.1017  0.0637  0.0000  0.0000  0.0000  0.0000  0.0000 </r>
       </set>
      </set>
      <set comment="kpoint 67">
       <set comment="band 1">
        <r>  0.2042  0.0211  0.0000  0.0000  0.0000  0.0000  0.0000  0.0000  0.0000 </r>
        <r>  0.2042  0.0211  0.0000  0.0000  0.0000  0.0000  0.0000  0.0000  0.0000 </r>
       </set>
       <set comment="band 2">
        <r>  0.1739  0.0799  0.0000  0.0000  0.0000  0.0000  0.0000  0.0000  0.0000 </r>
        <r>  0.1739  0.0799  0.0000  0.0000  0.0000  0.0000  0.0000  0.0000  0.0000 </r>
       </set>
       <set comment="band 3">
        <r>  0.0000  0.0000  0.0995  0.0995  0.0000  0.0000  0.0000  0.0000  0.0000 </r>
        <r>  0.0000  0.0000  0.0995  0.0995  0.0000  0.0000  0.0000  0.0000  0.0000 </r>
       </set>
       <set comment="band 4">
        <r>  0.0000  0.0000  0.0995  0.0995  0.0000  0.0000  0.0000  0.0000  0.0000 </r>
        <r>  0.0000  0.0000  0.0995  0.0995  0.0000  0.0000  0.0000  0.0000  0.0000 </r>
       </set>
       <set comment="band 5">
        <r>  0.0509  0.0576  0.0000  0.0000  0.0000  0.0000  0.0000  0.0000  0.0000 </r>
        <r>  0.0509  0.0576  0.0000  0.0000  0.0000  0.0000  0.0000  0.0000  0.0000 </r>
       </set>
       <set comment="band 6">
        <r>  0.0436  0.0303  0.0000  0.0000  0.0000  0.0000  0.0000  0.0000  0.0000 </r>
        <r>  0.0436  0.0303  0.0000  0.0000  0.0000  0.0000  0.0000  0.0000  0.0000 </r>
       </set>
       <set comment="band 7">
        <r>  0.0000  0.0000  0.0841  0.0810  0.0000  0.0000  0.0000  0.0000  0.0000 </r>
        <r>  0.0000  0.0000  0.0777  0.0874  0.0000  0.0000  0.0000  0.0000  0.0000 </r>
       </set>
       <set comment="band 8">
        <r>  0.0000  0.0000  0.0810  0.0841  0.0000  0.0000  0.0000  0.0000  0.0000 </r>
        <r>  0.0000  0.0000  0.0873  0.0777  0.0000  0.0000  0.0000  0.0000  0.0000 </r>
       </set>
      </set>
      <set comment="kpoint 68">
       <set comment="band 1">
        <r>  0.2035  0.0227  0.0000  0.0000  0.0000  0.0000  0.0000  0.0000  0.0000 </r>
        <r>  0.2035  0.0227  0.0000  0.0000  0.0000  0.0000  0.0000  0.0000  0.0000 </r>
       </set>
       <set comment="band 2">
        <r>  0.1761  0.0769  0.0000  0.0000  0.0000  0.0000  0.0000  0.0000  0.0000 </r>
        <r>  0.1761  0.0769  0.0000  0.0000  0.0000  0.0000  0.0000  0.0000  0.0000 </r>
       </set>
       <set comment="band 3">
        <r>  0.0000  0.0000  0.0995  0.0995  0.0000  0.0000  0.0000  0.0000  0.0000 </r>
        <r>  0.0000  0.0000  0.0995  0.0995  0.0000  0.0000  0.0000  0.0000  0.0000 </r>
       </set>
       <set comment="band 4">
        <r>  0.0000  0.0000  0.0995  0.0995  0.0000  0.0000  0.0000  0.0000  0.0000 </r>
        <r>  0.0000  0.0000  0.0995  0.0995  0.0000  0.0000  0.0000  0.0000  0.0000 </r>
       </set>
       <set comment="band 5">
        <r>  0.0516  0.0551  0.0000  0.0000  0.0000  0.0000  0.0000  0.0000  0.0000 </r>
        <r>  0.0516  0.0551  0.0000  0.0000  0.0000  0.0000  0.0000  0.0000  0.0000 </r>
       </set>
       <set comment="band 6">
        <r>  0.0439  0.0299  0.0000  0.0000  0.0000  0.0000  0.0000  0.0000  0.0000 </r>
        <r>  0.0439  0.0299  0.0000  0.0000  0.0000  0.0000  0.0000  0.0000  0.0000 </r>
       </set>
       <set comment="band 7">
        <r>  0.0000  0.0000  0.0484  0.1164  0.0000  0.0000  0.0000  0.0000  0.0000 </r>
        <r>  0.0000  0.0000  0.0859  0.0789  0.0000  0.0000  0.0000  0.0000  0.0000 </r>
       </set>
       <set comment="band 8">
        <r>  0.0000  0.0000  0.1163  0.0483  0.0000  0.0000  0.0000  0.0000  0.0000 </r>
        <r>  0.0000  0.0000  0.0788  0.0858  0.0000  0.0000  0.0000  0.0000  0.0000 </r>
       </set>
      </set>
      <set comment="kpoint 69">
       <set comment="band 1">
        <r>  0.2028  0.0244  0.0000  0.0000  0.0000  0.0000  0.0000  0.0000  0.0000 </r>
        <r>  0.2028  0.0244  0.0000  0.0000  0.0000  0.0000  0.0000  0.0000  0.0000 </r>
       </set>
       <set comment="band 2">
        <r>  0.1781  0.0740  0.0000  0.0000  0.0000  0.0000  0.0000  0.0000  0.0000 </r>
        <r>  0.1781  0.0740  0.0000  0.0000  0.0000  0.0000  0.0000  0.0000  0.0000 </r>
       </set>
       <set comment="band 3">
        <r>  0.0000  0.0000  0.0995  0.0995  0.0000  0.0000  0.0000  0.0000  0.0000 </r>
        <r>  0.0000  0.0000  0.0995  0.0995  0.0000  0.0000  0.0000  0.0000  0.0000 </r>
       </set>
       <set comment="band 4">
        <r>  0.0000  0.0000  0.0995  0.0995  0.0000  0.0000  0.0000  0.0000  0.0000 </r>
        <r>  0.0000  0.0000  0.0995  0.0995  0.0000  0.0000  0.0000  0.0000  0.0000 </r>
       </set>
       <set comment="band 5">
        <r>  0.0522  0.0528  0.0000  0.0000  0.0000  0.0000  0.0000  0.0000  0.0000 </r>
        <r>  0.0522  0.0528  0.0000  0.0000  0.0000  0.0000  0.0000  0.0000  0.0000 </r>
       </set>
       <set comment="band 6">
        <r>  0.0445  0.0297  0.0000  0.0000  0.0000  0.0000  0.0000  0.0000  0.0000 </r>
        <r>  0.0445  0.0297  0.0000  0.0000  0.0000  0.0000  0.0000  0.0000  0.0000 </r>
       </set>
       <set comment="band 7">
        <r>  0.0000  0.0000  0.1010  0.0634  0.0000  0.0000  0.0000  0.0000  0.0000 </r>
        <r>  0.0000  0.0000  0.0996  0.0649  0.0000  0.0000  0.0000  0.0000  0.0000 </r>
       </set>
       <set comment="band 8">
        <r>  0.0000  0.0000  0.0634  0.1010  0.0000  0.0000  0.0000  0.0000  0.0000 </r>
        <r>  0.0000  0.0000  0.0649  0.0996  0.0000  0.0000  0.0000  0.0000  0.0000 </r>
       </set>
      </set>
      <set comment="kpoint 70">
       <set comment="band 1">
        <r>  0.2021  0.0261  0.0000  0.0000  0.0000  0.0000  0.0000  0.0000  0.0000 </r>
        <r>  0.2021  0.0261  0.0000  0.0000  0.0000  0.0000  0.0000  0.0000  0.0000 </r>
       </set>
       <set comment="band 2">
        <r>  0.1800  0.0712  0.0000  0.0000  0.0000  0.0000  0.0000  0.0000  0.0000 </r>
        <r>  0.1800  0.0712  0.0000  0.0000  0.0000  0.0000  0.0000  0.0000  0.0000 </r>
       </set>
       <set comment="band 3">
        <r>  0.0000  0.0000  0.0995  0.0995  0.0000  0.0000  0.0000  0.0000  0.0000 </r>
        <r>  0.0000  0.0000  0.0995  0.0995  0.0000  0.0000  0.0000  0.0000  0.0000 </r>
       </set>
       <set comment="band 4">
        <r>  0.0000  0.0000  0.0995  0.0995  0.0000  0.0000  0.0000  0.0000  0.0000 </r>
        <r>  0.0000  0.0000  0.0995  0.0995  0.0000  0.0000  0.0000  0.0000  0.0000 </r>
       </set>
       <set comment="band 5">
        <r>  0.0527  0.0506  0.0000  0.0000  0.0000  0.0000  0.0000  0.0000  0.0000 </r>
        <r>  0.0527  0.0506  0.0000  0.0000  0.0000  0.0000  0.0000  0.0000  0.0000 </r>
       </set>
       <set comment="band 6">
        <r>  0.0451  0.0296  0.0000  0.0000  0.0000  0.0000  0.0000  0.0000  0.0000 </r>
        <r>  0.0451  0.0296  0.0000  0.0000  0.0000  0.0000  0.0000  0.0000  0.0000 </r>
       </set>
       <set comment="band 7">
        <r>  0.0000  0.0000  0.1454  0.0192  0.0000  0.0000  0.0000  0.0000  0.0000 </r>
        <r>  0.0000  0.0000  0.0035  0.1611  0.0000  0.0000  0.0000  0.0000  0.0000 </r>
       </set>
       <set comment="band 8">
        <r>  0.0000  0.0000  0.0192  0.1454  0.0000  0.0000  0.0000  0.0000  0.0000 </r>
        <r>  0.0000  0.0000  0.1611  0.0035  0.0000  0.0000  0.0000  0.0000  0.0000 </r>
       </set>
      </set>
      <set comment="kpoint 71">
       <set comment="band 1">
        <r>  0.2013  0.0279  0.0000  0.0000  0.0000  0.0000  0.0000  0.0000  0.0000 </r>
        <r>  0.2013  0.0279  0.0000  0.0000  0.0000  0.0000  0.0000  0.0000  0.0000 </r>
       </set>
       <set comment="band 2">
        <r>  0.1817  0.0684  0.0000  0.0000  0.0000  0.0000  0.0000  0.0000  0.0000 </r>
        <r>  0.1817  0.0684  0.0000  0.0000  0.0000  0.0000  0.0000  0.0000  0.0000 </r>
       </set>
       <set comment="band 3">
        <r>  0.0000  0.0000  0.0994  0.0994  0.0000  0.0000  0.0000  0.0000  0.0000 </r>
        <r>  0.0000  0.0000  0.0994  0.0994  0.0000  0.0000  0.0000  0.0000  0.0000 </r>
       </set>
       <set comment="band 4">
        <r>  0.0000  0.0000  0.0994  0.0994  0.0000  0.0000  0.0000  0.0000  0.0000 </r>
        <r>  0.0000  0.0000  0.0994  0.0994  0.0000  0.0000  0.0000  0.0000  0.0000 </r>
       </set>
       <set comment="band 5">
        <r>  0.0531  0.0485  0.0000  0.0000  0.0000  0.0000  0.0000  0.0000  0.0000 </r>
        <r>  0.0531  0.0485  0.0000  0.0000  0.0000  0.0000  0.0000  0.0000  0.0000 </r>
       </set>
       <set comment="band 6">
        <r>  0.0457  0.0297  0.0000  0.0000  0.0000  0.0000  0.0000  0.0000  0.0000 </r>
        <r>  0.0457  0.0297  0.0000  0.0000  0.0000  0.0000  0.0000  0.0000  0.0000 </r>
       </set>
       <set comment="band 7">
        <r>  0.0000  0.0000  0.0337  0.1313  0.0000  0.0000  0.0000  0.0000  0.0000 </r>
        <r>  0.0000  0.0000  0.1002  0.0648  0.0000  0.0000  0.0000  0.0000  0.0000 </r>
       </set>
       <set comment="band 8">
        <r>  0.0000  0.0000  0.1313  0.0337  0.0000  0.0000  0.0000  0.0000  0.0000 </r>
        <r>  0.0000  0.0000  0.0648  0.1002  0.0000  0.0000  0.0000  0.0000  0.0000 </r>
       </set>
      </set>
      <set comment="kpoint 72">
       <set comment="band 1">
        <r>  0.2006  0.0297  0.0000  0.0000  0.0000  0.0000  0.0000  0.0000  0.0000 </r>
        <r>  0.2006  0.0297  0.0000  0.0000  0.0000  0.0000  0.0000  0.0000  0.0000 </r>
       </set>
       <set comment="band 2">
        <r>  0.1833  0.0657  0.0000  0.0000  0.0000  0.0000  0.0000  0.0000  0.0000 </r>
        <r>  0.1833  0.0657  0.0000  0.0000  0.0000  0.0000  0.0000  0.0000  0.0000 </r>
       </set>
       <set comment="band 3">
        <r>  0.0000  0.0000  0.0994  0.0994  0.0000  0.0000  0.0000  0.0000  0.0000 </r>
        <r>  0.0000  0.0000  0.0994  0.0994  0.0000  0.0000  0.0000  0.0000  0.0000 </r>
       </set>
       <set comment="band 4">
        <r>  0.0000  0.0000  0.0994  0.0994  0.0000  0.0000  0.0000  0.0000  0.0000 </r>
        <r>  0.0000  0.0000  0.0994  0.0994  0.0000  0.0000  0.0000  0.0000  0.0000 </r>
       </set>
       <set comment="band 5">
        <r>  0.0533  0.0465  0.0000  0.0000  0.0000  0.0000  0.0000  0.0000  0.0000 </r>
        <r>  0.0533  0.0465  0.0000  0.0000  0.0000  0.0000  0.0000  0.0000  0.0000 </r>
       </set>
       <set comment="band 6">
        <r>  0.0464  0.0298  0.0000  0.0000  0.0000  0.0000  0.0000  0.0000  0.0000 </r>
        <r>  0.0464  0.0298  0.0000  0.0000  0.0000  0.0000  0.0000  0.0000  0.0000 </r>
       </set>
       <set comment="band 7">
        <r>  0.0000  0.0000  0.0591  0.1065  0.0000  0.0000  0.0000  0.0000  0.0000 </r>
        <r>  0.0000  0.0000  0.1390  0.0266  0.0000  0.0000  0.0000  0.0000  0.0000 </r>
       </set>
       <set comment="band 8">
        <r>  0.0000  0.0000  0.1064  0.0591  0.0000  0.0000  0.0000  0.0000  0.0000 </r>
        <r>  0.0000  0.0000  0.0266  0.1390  0.0000  0.0000  0.0000  0.0000  0.0000 </r>
       </set>
      </set>
      <set comment="kpoint 73">
       <set comment="band 1">
        <r>  0.1997  0.0316  0.0000  0.0000  0.0000  0.0000  0.0000  0.0000  0.0000 </r>
        <r>  0.1997  0.0316  0.0000  0.0000  0.0000  0.0000  0.0000  0.0000  0.0000 </r>
       </set>
       <set comment="band 2">
        <r>  0.1848  0.0631  0.0000  0.0000  0.0000  0.0000  0.0000  0.0000  0.0000 </r>
        <r>  0.1848  0.0631  0.0000  0.0000  0.0000  0.0000  0.0000  0.0000  0.0000 </r>
       </set>
       <set comment="band 3">
        <r>  0.0000  0.0000  0.0994  0.0994  0.0000  0.0000  0.0000  0.0000  0.0000 </r>
        <r>  0.0000  0.0000  0.0994  0.0994  0.0000  0.0000  0.0000  0.0000  0.0000 </r>
       </set>
       <set comment="band 4">
        <r>  0.0000  0.0000  0.0994  0.0994  0.0000  0.0000  0.0000  0.0000  0.0000 </r>
        <r>  0.0000  0.0000  0.0994  0.0994  0.0000  0.0000  0.0000  0.0000  0.0000 </r>
       </set>
       <set comment="band 5">
        <r>  0.0535  0.0447  0.0000  0.0000  0.0000  0.0000  0.0000  0.0000  0.0000 </r>
        <r>  0.0535  0.0447  0.0000  0.0000  0.0000  0.0000  0.0000  0.0000  0.0000 </r>
       </set>
       <set comment="band 6">
        <r>  0.0472  0.0300  0.0000  0.0000  0.0000  0.0000  0.0000  0.0000  0.0000 </r>
        <r>  0.0472  0.0300  0.0000  0.0000  0.0000  0.0000  0.0000  0.0000  0.0000 </r>
       </set>
       <set comment="band 7">
        <r>  0.0000  0.0000  0.0930  0.0738  0.0000  0.0000  0.0000  0.0000  0.0000 </r>
        <r>  0.0000  0.0000  0.1044  0.0624  0.0000  0.0000  0.0000  0.0000  0.0000 </r>
       </set>
       <set comment="band 8">
        <r>  0.0000  0.0000  0.0738  0.0931  0.0000  0.0000  0.0000  0.0000  0.0000 </r>
        <r>  0.0000  0.0000  0.0625  0.1044  0.0000  0.0000  0.0000  0.0000  0.0000 </r>
       </set>
      </set>
      <set comment="kpoint 74">
       <set comment="band 1">
        <r>  0.1989  0.0335  0.0000  0.0000  0.0000  0.0000  0.0000  0.0000  0.0000 </r>
        <r>  0.1989  0.0335  0.0000  0.0000  0.0000  0.0000  0.0000  0.0000  0.0000 </r>
       </set>
       <set comment="band 2">
        <r>  0.1863  0.0605  0.0000  0.0000  0.0000  0.0000  0.0000  0.0000  0.0000 </r>
        <r>  0.1863  0.0605  0.0000  0.0000  0.0000  0.0000  0.0000  0.0000  0.0000 </r>
       </set>
       <set comment="band 3">
        <r>  0.0000  0.0000  0.0994  0.0994  0.0000  0.0000  0.0000  0.0000  0.0000 </r>
        <r>  0.0000  0.0000  0.0994  0.0994  0.0000  0.0000  0.0000  0.0000  0.0000 </r>
       </set>
       <set comment="band 4">
        <r>  0.0000  0.0000  0.0994  0.0994  0.0000  0.0000  0.0000  0.0000  0.0000 </r>
        <r>  0.0000  0.0000  0.0994  0.0994  0.0000  0.0000  0.0000  0.0000  0.0000 </r>
       </set>
       <set comment="band 5">
        <r>  0.0536  0.0429  0.0000  0.0000  0.0000  0.0000  0.0000  0.0000  0.0000 </r>
        <r>  0.0536  0.0429  0.0000  0.0000  0.0000  0.0000  0.0000  0.0000  0.0000 </r>
       </set>
       <set comment="band 6">
        <r>  0.0479  0.0303  0.0000  0.0000  0.0000  0.0000  0.0000  0.0000  0.0000 </r>
        <r>  0.0479  0.0303  0.0000  0.0000  0.0000  0.0000  0.0000  0.0000  0.0000 </r>
       </set>
       <set comment="band 7">
        <r>  0.0000  0.0000  0.1141  0.0546  0.0000  0.0000  0.0000  0.0000  0.0000 </r>
        <r>  0.0000  0.0000  0.0507  0.1181  0.0000  0.0000  0.0000  0.0000  0.0000 </r>
       </set>
       <set comment="band 8">
        <r>  0.0000  0.0000  0.0546  0.1142  0.0000  0.0000  0.0000  0.0000  0.0000 </r>
        <r>  0.0000  0.0000  0.1182  0.0507  0.0000  0.0000  0.0000  0.0000  0.0000 </r>
       </set>
      </set>
      <set comment="kpoint 75">
       <set comment="band 1">
        <r>  0.1980  0.0355  0.0000  0.0000  0.0000  0.0000  0.0000  0.0000  0.0000 </r>
        <r>  0.1980  0.0355  0.0000  0.0000  0.0000  0.0000  0.0000  0.0000  0.0000 </r>
       </set>
       <set comment="band 2">
        <r>  0.1876  0.0580  0.0000  0.0000  0.0000  0.0000  0.0000  0.0000  0.0000 </r>
        <r>  0.1876  0.0580  0.0000  0.0000  0.0000  0.0000  0.0000  0.0000  0.0000 </r>
       </set>
       <set comment="band 3">
        <r>  0.0000  0.0000  0.0994  0.0994  0.0000  0.0000  0.0000  0.0000  0.0000 </r>
        <r>  0.0000  0.0000  0.0994  0.0994  0.0000  0.0000  0.0000  0.0000  0.0000 </r>
       </set>
       <set comment="band 4">
        <r>  0.0000  0.0000  0.0994  0.0994  0.0000  0.0000  0.0000  0.0000  0.0000 </r>
        <r>  0.0000  0.0000  0.0994  0.0994  0.0000  0.0000  0.0000  0.0000  0.0000 </r>
       </set>
       <set comment="band 5">
        <r>  0.0535  0.0413  0.0000  0.0000  0.0000  0.0000  0.0000  0.0000  0.0000 </r>
        <r>  0.0535  0.0413  0.0000  0.0000  0.0000  0.0000  0.0000  0.0000  0.0000 </r>
       </set>
       <set comment="band 6">
        <r>  0.0487  0.0308  0.0000  0.0000  0.0000  0.0000  0.0000  0.0000  0.0000 </r>
        <r>  0.0487  0.0308  0.0000  0.0000  0.0000  0.0000  0.0000  0.0000  0.0000 </r>
       </set>
       <set comment="band 7">
        <r>  0.0000  0.0000  0.1157  0.0562  0.0000  0.0000  0.0000  0.0000  0.0000 </r>
        <r>  0.0000  0.0000  0.0820  0.0899  0.0000  0.0000  0.0000  0.0000  0.0000 </r>
       </set>
       <set comment="band 8">
        <r>  0.0000  0.0000  0.0563  0.1158  0.0000  0.0000  0.0000  0.0000  0.0000 </r>
        <r>  0.0000  0.0000  0.0900  0.0820  0.0000  0.0000  0.0000  0.0000  0.0000 </r>
       </set>
      </set>
      <set comment="kpoint 76">
       <set comment="band 1">
        <r>  0.1972  0.0375  0.0000  0.0000  0.0000  0.0000  0.0000  0.0000  0.0000 </r>
        <r>  0.1972  0.0375  0.0000  0.0000  0.0000  0.0000  0.0000  0.0000  0.0000 </r>
       </set>
       <set comment="band 2">
        <r>  0.1889  0.0555  0.0000  0.0000  0.0000  0.0000  0.0000  0.0000  0.0000 </r>
        <r>  0.1889  0.0555  0.0000  0.0000  0.0000  0.0000  0.0000  0.0000  0.0000 </r>
       </set>
       <set comment="band 3">
        <r>  0.0000  0.0000  0.0994  0.0994  0.0000  0.0000  0.0000  0.0000  0.0000 </r>
        <r>  0.0000  0.0000  0.0994  0.0994  0.0000  0.0000  0.0000  0.0000  0.0000 </r>
       </set>
       <set comment="band 4">
        <r>  0.0000  0.0000  0.0994  0.0994  0.0000  0.0000  0.0000  0.0000  0.0000 </r>
        <r>  0.0000  0.0000  0.0994  0.0994  0.0000  0.0000  0.0000  0.0000  0.0000 </r>
       </set>
       <set comment="band 5">
        <r>  0.0534  0.0397  0.0000  0.0000  0.0000  0.0000  0.0000  0.0000  0.0000 </r>
        <r>  0.0534  0.0397  0.0000  0.0000  0.0000  0.0000  0.0000  0.0000  0.0000 </r>
       </set>
       <set comment="band 6">
        <r>  0.0494  0.0314  0.0000  0.0000  0.0000  0.0000  0.0000  0.0000  0.0000 </r>
        <r>  0.0494  0.0314  0.0000  0.0000  0.0000  0.0000  0.0000  0.0000  0.0000 </r>
       </set>
       <set comment="band 7">
        <r>  0.0000  0.0000  0.1033  0.0741  0.0000  0.0000  0.0000  0.0000  0.0000 </r>
        <r>  0.0000  0.0000  0.1029  0.0746  0.0000  0.0000  0.0000  0.0000  0.0000 </r>
       </set>
       <set comment="band 8">
        <r>  0.0000  0.0000  0.0741  0.1032  0.0000  0.0000  0.0000  0.0000  0.0000 </r>
        <r>  0.0000  0.0000  0.0745  0.1029  0.0000  0.0000  0.0000  0.0000  0.0000 </r>
       </set>
      </set>
      <set comment="kpoint 77">
       <set comment="band 1">
        <r>  0.1963  0.0396  0.0000  0.0000  0.0000  0.0000  0.0000  0.0000  0.0000 </r>
        <r>  0.1963  0.0396  0.0000  0.0000  0.0000  0.0000  0.0000  0.0000  0.0000 </r>
       </set>
       <set comment="band 2">
        <r>  0.1901  0.0531  0.0000  0.0000  0.0000  0.0000  0.0000  0.0000  0.0000 </r>
        <r>  0.1901  0.0531  0.0000  0.0000  0.0000  0.0000  0.0000  0.0000  0.0000 </r>
       </set>
       <set comment="band 3">
        <r>  0.0000  0.0000  0.0994  0.0994  0.0000  0.0000  0.0000  0.0000  0.0000 </r>
        <r>  0.0000  0.0000  0.0994  0.0994  0.0000  0.0000  0.0000  0.0000  0.0000 </r>
       </set>
       <set comment="band 4">
        <r>  0.0000  0.0000  0.0994  0.0994  0.0000  0.0000  0.0000  0.0000  0.0000 </r>
        <r>  0.0000  0.0000  0.0994  0.0994  0.0000  0.0000  0.0000  0.0000  0.0000 </r>
       </set>
       <set comment="band 5">
        <r>  0.0531  0.0383  0.0000  0.0000  0.0000  0.0000  0.0000  0.0000  0.0000 </r>
        <r>  0.0531  0.0383  0.0000  0.0000  0.0000  0.0000  0.0000  0.0000  0.0000 </r>
       </set>
       <set comment="band 6">
        <r>  0.0501  0.0321  0.0000  0.0000  0.0000  0.0000  0.0000  0.0000  0.0000 </r>
        <r>  0.0501  0.0321  0.0000  0.0000  0.0000  0.0000  0.0000  0.0000  0.0000 </r>
       </set>
       <set comment="band 7">
        <r>  0.0000  0.0000  0.0650  0.1214  0.0000  0.0000  0.0000  0.0000  0.0000 </r>
        <r>  0.0000  0.0000  0.0831  0.1033  0.0000  0.0000  0.0000  0.0000  0.0000 </r>
       </set>
       <set comment="band 8">
        <r>  0.0000  0.0000  0.1218  0.0650  0.0000  0.0000  0.0000  0.0000  0.0000 </r>
        <r>  0.0000  0.0000  0.1030  0.0833  0.0000  0.0000  0.0000  0.0000  0.0000 </r>
       </set>
      </set>
      <set comment="kpoint 78">
       <set comment="band 1">
        <r>  0.1953  0.0417  0.0000  0.0000  0.0000  0.0000  0.0000  0.0000  0.0000 </r>
        <r>  0.1953  0.0417  0.0000  0.0000  0.0000  0.0000  0.0000  0.0000  0.0000 </r>
       </set>
       <set comment="band 2">
        <r>  0.1912  0.0507  0.0000  0.0000  0.0000  0.0000  0.0000  0.0000  0.0000 </r>
        <r>  0.1912  0.0507  0.0000  0.0000  0.0000  0.0000  0.0000  0.0000  0.0000 </r>
       </set>
       <set comment="band 3">
        <r>  0.0000  0.0000  0.0994  0.0994  0.0000  0.0000  0.0000  0.0000  0.0000 </r>
        <r>  0.0000  0.0000  0.0994  0.0994  0.0000  0.0000  0.0000  0.0000  0.0000 </r>
       </set>
       <set comment="band 4">
        <r>  0.0000  0.0000  0.0994  0.0994  0.0000  0.0000  0.0000  0.0000  0.0000 </r>
        <r>  0.0000  0.0000  0.0994  0.0994  0.0000  0.0000  0.0000  0.0000  0.0000 </r>
       </set>
       <set comment="band 5">
        <r>  0.0528  0.0370  0.0000  0.0000  0.0000  0.0000  0.0000  0.0000  0.0000 </r>
        <r>  0.0528  0.0370  0.0000  0.0000  0.0000  0.0000  0.0000  0.0000  0.0000 </r>
       </set>
       <set comment="band 6">
        <r>  0.0508  0.0329  0.0000  0.0000  0.0000  0.0000  0.0000  0.0000  0.0000 </r>
        <r>  0.0508  0.0329  0.0000  0.0000  0.0000  0.0000  0.0000  0.0000  0.0000 </r>
       </set>
       <set comment="band 7">
        <r>  0.0000  0.0000  0.0086  0.1928  0.0000  0.0000  0.0000  0.0000  0.0000 </r>
        <r>  0.0000  0.0000  0.1990  0.0021  0.0000  0.0000  0.0000  0.0000  0.0000 </r>
       </set>
       <set comment="band 8">
        <r>  0.0000  0.0000  0.1913  0.0083  0.0000  0.0000  0.0000  0.0000  0.0000 </r>
        <r>  0.0000  0.0000  0.0023  0.1997  0.0000  0.0000  0.0000  0.0000  0.0000 </r>
       </set>
      </set>
      <set comment="kpoint 79">
       <set comment="band 1">
        <r>  0.1944  0.0439  0.0000  0.0000  0.0000  0.0000  0.0000  0.0000  0.0000 </r>
        <r>  0.1944  0.0439  0.0000  0.0000  0.0000  0.0000  0.0000  0.0000  0.0000 </r>
       </set>
       <set comment="band 2">
        <r>  0.1923  0.0484  0.0000  0.0000  0.0000  0.0000  0.0000  0.0000  0.0000 </r>
        <r>  0.1923  0.0484  0.0000  0.0000  0.0000  0.0000  0.0000  0.0000  0.0000 </r>
       </set>
       <set comment="band 3">
        <r>  0.0000  0.0000  0.0994  0.0994  0.0000  0.0000  0.0000  0.0000  0.0000 </r>
        <r>  0.0000  0.0000  0.0994  0.0994  0.0000  0.0000  0.0000  0.0000  0.0000 </r>
       </set>
       <set comment="band 4">
        <r>  0.0000  0.0000  0.0994  0.0994  0.0000  0.0000  0.0000  0.0000  0.0000 </r>
        <r>  0.0000  0.0000  0.0994  0.0994  0.0000  0.0000  0.0000  0.0000  0.0000 </r>
       </set>
       <set comment="band 5">
        <r>  0.0524  0.0358  0.0000  0.0000  0.0000  0.0000  0.0000  0.0000  0.0000 </r>
        <r>  0.0524  0.0358  0.0000  0.0000  0.0000  0.0000  0.0000  0.0000  0.0000 </r>
       </set>
       <set comment="band 6">
        <r>  0.0514  0.0337  0.0000  0.0000  0.0000  0.0000  0.0000  0.0000  0.0000 </r>
        <r>  0.0514  0.0337  0.0000  0.0000  0.0000  0.0000  0.0000  0.0000  0.0000 </r>
       </set>
       <set comment="band 7">
        <r>  0.0000  0.0000  0.0672  0.1571  0.0000  0.0000  0.0000  0.0000  0.0000 </r>
        <r>  0.0000  0.0000  0.1364  0.0879  0.0000  0.0000  0.0000  0.0000  0.0000 </r>
       </set>
       <set comment="band 8">
        <r>  0.0000  0.0000  0.1581  0.0672  0.0000  0.0000  0.0000  0.0000  0.0000 </r>
        <r>  0.0000  0.0000  0.0876  0.1363  0.0000  0.0000  0.0000  0.0000  0.0000 </r>
       </set>
      </set>
      <set comment="kpoint 80">
       <set comment="band 1">
        <r>  0.1988  0.0448  0.0000  0.0000  0.0000  0.0000  0.0000  0.0000  0.0000 </r>
        <r>  0.1879  0.0474  0.0000  0.0000  0.0000  0.0000  0.0000  0.0000  0.0000 </r>
       </set>
       <set comment="band 2">
        <r>  0.1879  0.0474  0.0000  0.0000  0.0000  0.0000  0.0000  0.0000  0.0000 </r>
        <r>  0.1988  0.0448  0.0000  0.0000  0.0000  0.0000  0.0000  0.0000  0.0000 </r>
       </set>
       <set comment="band 3">
        <r>  0.0000  0.0000  0.0994  0.0994  0.0000  0.0000  0.0000  0.0000  0.0000 </r>
        <r>  0.0000  0.0000  0.0994  0.0994  0.0000  0.0000  0.0000  0.0000  0.0000 </r>
       </set>
       <set comment="band 4">
        <r>  0.0000  0.0000  0.0994  0.0994  0.0000  0.0000  0.0000  0.0000  0.0000 </r>
        <r>  0.0000  0.0000  0.0994  0.0994  0.0000  0.0000  0.0000  0.0000  0.0000 </r>
       </set>
       <set comment="band 5">
        <r>  0.0524  0.0344  0.0000  0.0000  0.0000  0.0000  0.0000  0.0000  0.0000 </r>
        <r>  0.0515  0.0350  0.0000  0.0000  0.0000  0.0000  0.0000  0.0000  0.0000 </r>
       </set>
       <set comment="band 6">
        <r>  0.0515  0.0350  0.0000  0.0000  0.0000  0.0000  0.0000  0.0000  0.0000 </r>
        <r>  0.0524  0.0344  0.0000  0.0000  0.0000  0.0000  0.0000  0.0000  0.0000 </r>
       </set>
       <set comment="band 7">
        <r>  0.0000  0.0000  0.0853  0.1549  0.0000  0.0000  0.0000  0.0000  0.0000 </r>
        <r>  0.0000  0.0000  0.1549  0.0854  0.0000  0.0000  0.0000  0.0000  0.0000 </r>
       </set>
       <set comment="band 8">
        <r>  0.0000  0.0000  0.1543  0.0851  0.0000  0.0000  0.0000  0.0000  0.0000 </r>
        <r>  0.0000  0.0000  0.0857  0.1554  0.0000  0.0000  0.0000  0.0000  0.0000 </r>
       </set>
      </set>
     </set>
    </set>
   </array>
  </projected>
 </calculation>
 <structure name="finalpos" >
  <crystal>
   <varray name="basis" >
    <v>       0.00000000       2.70957000       2.70957000 </v>
    <v>       2.70957000       0.00000000       2.70957000 </v>
    <v>       2.70957000       2.70957000       0.00000000 </v>
   </varray>
   <i name="volume">     39.78607723 </i>
   <varray name="rec_basis" >
    <v>      -0.18453112       0.18453112       0.18453112 </v>
    <v>       0.18453112      -0.18453112       0.18453112 </v>
    <v>       0.18453112       0.18453112      -0.18453112 </v>
   </varray>
  </crystal>
  <varray name="positions" >
   <v>       0.00000000       0.00000000       0.00000000 </v>
   <v>       0.25000000       0.25000000       0.25000000 </v>
  </varray>
 </structure>
</modeling>
