       N       E                     dE             d eps       ncg     rms          rms(c)
DAV:   1     0.907914077069E+01    0.90791E+01   -0.24964E+03  1280   0.505E+02
DAV:   2    -0.507556128801E+01   -0.14155E+02   -0.13431E+02  2112   0.655E+01
DAV:   3    -0.527609033937E+01   -0.20053E+00   -0.18809E+00  1632   0.964E+00
DAV:   4    -0.527677784867E+01   -0.68751E-03   -0.68751E-03  2024   0.613E-01
DAV:   5    -0.527677925024E+01   -0.14016E-05   -0.14016E-05  1624   0.181E-02
DAV:   6    -0.527677927282E+01   -0.22585E-07   -0.22586E-07  1560   0.179E-03
   1 F= -.52767793E+01 E0= -.52767793E+01  d E =-.505539E-12
