<?xml version="1.0" encoding="ISO-8859-1"?>
<modeling>
 <generator>
  <i name="program" type="string">vasp </i>
  <i name="version" type="string">6.3.0  </i>
  <i name="subversion" type="string">20Jan22 (build Mar 29 2022 17:59:55) complex                          parallel </i>
  <i name="platform" type="string">IFC91_ompi </i>
  <i name="date" type="string">2026 07 23 </i>
  <i name="time" type="string">12:32:51 </i>
 </generator>
 <incar>
  <i type="int" name="ISTART">     0</i>
  <i type="string" name="PREC">Accurate</i>
  <i type="int" name="ICHARG">     2</i>
  <i name="EDIFF">      0.00000010</i>
  <i type="int" name="NSW">     0</i>
  <i type="int" name="ISYM">     0</i>
  <i name="ENCUT">    320.00000000</i>
  <i type="int" name="ISMEAR">     0</i>
  <i name="SIGMA">      0.05000000</i>
  <i type="logical" name="LCHARG"> T  </i>
  <i type="string" name="GGA">PE</i>
 </incar>
 <primitive_cell>
  <structure name="primitive_cell" >
   <crystal>
    <varray name="basis" >
     <v>       0.00000000       2.71500000       2.71500000 </v>
     <v>       2.70957000       0.00000000       2.71500000 </v>
     <v>       2.70957000       2.71500000       0.00000000 </v>
    </varray>
    <i name="volume">     39.94570025 </i>
    <varray name="rec_basis" >
     <v>      -0.18453112       0.18416206       0.18416206 </v>
     <v>       0.18453112      -0.18416206       0.18416206 </v>
     <v>       0.18453112       0.18416206      -0.18416206 </v>
    </varray>
   </crystal>
   <varray name="positions" >
    <v>       0.00000000       0.00000000       0.00000000 </v>
    <v>       0.25000000       0.25000000       0.25000000 </v>
   </varray>
  </structure>
  <varray name="primitive_index" >
   <v type="int" >        1 </v>
   <v type="int" >        2 </v>
  </varray>
 </primitive_cell>
 <kpoints>
  <generation param="Gamma">
   <v type="int" name="divisions">       8        8        8 </v>
   <v name="usershift">      0.00000000       0.00000000       0.00000000 </v>
   <v name="genvec1">      0.12500000       0.00000000       0.00000000 </v>
   <v name="genvec2">     -0.00000000       0.12500000      -0.00000000 </v>
   <v name="genvec3">      0.00000000      -0.00000000       0.12500000 </v>
   <v name="shift">      0.00000000       0.00000000       0.00000000 </v>
  </generation>
  <varray name="kpointlist" >
   <v>       0.00000000       0.00000000       0.00000000 </v>
   <v>       0.12500000       0.00000000       0.00000000 </v>
   <v>       0.00000000      -0.12500000       0.00000000 </v>
   <v>      -0.12500000      -0.12500000      -0.12500000 </v>
   <v>      -0.00000000       0.00000000      -0.12500000 </v>
   <v>       0.25000000       0.00000000       0.00000000 </v>
   <v>       0.00000000      -0.25000000       0.00000000 </v>
   <v>      -0.25000000      -0.25000000      -0.25000000 </v>
   <v>      -0.00000000       0.00000000      -0.25000000 </v>
   <v>       0.37500000       0.00000000       0.00000000 </v>
   <v>       0.00000000      -0.37500000       0.00000000 </v>
   <v>      -0.37500000      -0.37500000      -0.37500000 </v>
   <v>      -0.00000000      -0.00000000      -0.37500000 </v>
   <v>       0.50000000       0.00000000       0.00000000 </v>
   <v>       0.00000000       0.50000000       0.00000000 </v>
   <v>       0.50000000       0.50000000       0.50000000 </v>
   <v>      -0.00000000      -0.00000000       0.50000000 </v>
   <v>       0.12500000       0.12500000       0.00000000 </v>
   <v>       0.12500000      -0.00000000       0.12500000 </v>
   <v>       0.25000000       0.12500000       0.00000000 </v>
   <v>       0.12500000      -0.12500000       0.12500000 </v>
   <v>      -0.25000000      -0.25000000      -0.12500000 </v>
   <v>      -0.12500000       0.00000000      -0.25000000 </v>
   <v>      -0.12500000      -0.12500000       0.12500000 </v>
   <v>       0.25000000       0.12500000       0.25000000 </v>
   <v>       0.12500000       0.25000000      -0.00000000 </v>
   <v>      -0.25000000      -0.00000000      -0.12500000 </v>
   <v>       0.37500000       0.12500000       0.00000000 </v>
   <v>       0.12500000      -0.25000000       0.12500000 </v>
   <v>      -0.37500000      -0.37500000      -0.25000000 </v>
   <v>      -0.12500000      -0.00000000      -0.37500000 </v>
   <v>      -0.12500000      -0.12500000       0.25000000 </v>
   <v>       0.37500000       0.25000000       0.37500000 </v>
   <v>       0.12500000       0.37500000      -0.00000000 </v>
   <v>      -0.37500000      -0.00000000      -0.12500000 </v>
   <v>       0.50000000       0.12500000       0.00000000 </v>
   <v>       0.12500000      -0.37500000       0.12500000 </v>
   <v>       0.50000000       0.50000000      -0.37500000 </v>
   <v>      -0.12500000      -0.00000000       0.50000000 </v>
   <v>      -0.12500000      -0.12500000       0.37500000 </v>
   <v>       0.50000000       0.37500000       0.50000000 </v>
   <v>       0.12500000       0.50000000      -0.00000000 </v>
   <v>       0.50000000      -0.00000000      -0.12500000 </v>
   <v>      -0.37500000       0.12500000      -0.00000000 </v>
   <v>       0.12500000       0.50000000       0.12500000 </v>
   <v>       0.37500000       0.37500000       0.50000000 </v>
   <v>      -0.12500000       0.00000000       0.37500000 </v>
   <v>      -0.12500000      -0.12500000       0.50000000 </v>
   <v>      -0.37500000       0.50000000      -0.37500000 </v>
   <v>       0.12500000      -0.37500000       0.00000000 </v>
   <v>       0.37500000       0.00000000      -0.12500000 </v>
   <v>      -0.25000000       0.12500000      -0.00000000 </v>
   <v>       0.12500000       0.37500000       0.12500000 </v>
   <v>       0.25000000       0.25000000       0.37500000 </v>
   <v>      -0.12500000      -0.00000000       0.25000000 </v>
   <v>      -0.12500000      -0.12500000      -0.37500000 </v>
   <v>      -0.25000000      -0.37500000      -0.25000000 </v>
   <v>       0.12500000      -0.25000000       0.00000000 </v>
   <v>       0.25000000       0.00000000      -0.12500000 </v>
   <v>      -0.12500000       0.12500000      -0.00000000 </v>
   <v>       0.12500000       0.25000000       0.12500000 </v>
   <v>       0.12500000       0.12500000       0.25000000 </v>
   <v>      -0.12500000       0.00000000       0.12500000 </v>
   <v>       0.25000000       0.25000000       0.00000000 </v>
   <v>       0.25000000      -0.00000000       0.25000000 </v>
   <v>       0.37500000       0.25000000       0.00000000 </v>
   <v>       0.25000000      -0.12500000       0.25000000 </v>
   <v>      -0.37500000      -0.37500000      -0.12500000 </v>
   <v>      -0.25000000       0.00000000      -0.37500000 </v>
   <v>      -0.25000000      -0.25000000       0.12500000 </v>
   <v>       0.37500000       0.12500000       0.37500000 </v>
   <v>       0.25000000       0.37500000      -0.00000000 </v>
   <v>      -0.37500000      -0.00000000      -0.25000000 </v>
   <v>       0.50000000       0.25000000       0.00000000 </v>
   <v>       0.25000000      -0.25000000       0.25000000 </v>
   <v>       0.50000000       0.50000000      -0.25000000 </v>
   <v>      -0.25000000      -0.00000000       0.50000000 </v>
   <v>      -0.25000000      -0.25000000       0.25000000 </v>
   <v>       0.50000000       0.25000000       0.50000000 </v>
   <v>       0.25000000       0.50000000      -0.00000000 </v>
   <v>       0.50000000       0.00000000      -0.25000000 </v>
   <v>      -0.37500000       0.25000000      -0.00000000 </v>
   <v>       0.25000000      -0.37500000       0.25000000 </v>
   <v>       0.37500000       0.37500000      -0.37500000 </v>
   <v>      -0.25000000      -0.00000000       0.37500000 </v>
   <v>      -0.25000000      -0.25000000       0.37500000 </v>
   <v>      -0.37500000       0.37500000      -0.37500000 </v>
   <v>       0.25000000      -0.37500000       0.00000000 </v>
   <v>       0.37500000       0.00000000      -0.25000000 </v>
   <v>      -0.25000000       0.25000000      -0.00000000 </v>
   <v>       0.25000000       0.50000000       0.25000000 </v>
   <v>       0.25000000       0.25000000       0.50000000 </v>
   <v>      -0.25000000      -0.00000000       0.25000000 </v>
   <v>       0.37500000       0.37500000      -0.00000000 </v>
   <v>       0.37500000      -0.00000000       0.37500000 </v>
   <v>       0.50000000       0.37500000       0.00000000 </v>
   <v>       0.37500000      -0.12500000       0.37500000 </v>
   <v>       0.50000000       0.50000000      -0.12500000 </v>
   <v>      -0.37500000      -0.00000000       0.50000000 </v>
   <v>      -0.37500000      -0.37500000       0.12500000 </v>
   <v>       0.50000000       0.12500000       0.50000000 </v>
   <v>       0.37500000       0.50000000      -0.00000000 </v>
   <v>       0.50000000       0.00000000      -0.37500000 </v>
   <v>      -0.37500000       0.37500000      -0.00000000 </v>
   <v>       0.37500000      -0.25000000       0.37500000 </v>
   <v>       0.37500000       0.37500000      -0.25000000 </v>
   <v>      -0.37500000      -0.00000000       0.37500000 </v>
   <v>       0.50000000       0.50000000       0.00000000 </v>
   <v>       0.50000000      -0.00000000       0.50000000 </v>
   <v>      -0.00000000       0.12500000       0.12500000 </v>
   <v>       0.25000000       0.12500000       0.12500000 </v>
   <v>       0.00000000      -0.12500000       0.12500000 </v>
   <v>       0.37500000       0.12500000       0.12500000 </v>
   <v>       0.00000000      -0.25000000       0.12500000 </v>
   <v>      -0.37500000      -0.25000000      -0.25000000 </v>
   <v>       0.00000000       0.12500000      -0.25000000 </v>
   <v>       0.50000000       0.12500000       0.12500000 </v>
   <v>      -0.00000000      -0.37500000       0.12500000 </v>
   <v>       0.50000000      -0.37500000      -0.37500000 </v>
   <v>      -0.00000000       0.12500000      -0.37500000 </v>
   <v>      -0.37500000       0.12500000       0.12500000 </v>
   <v>      -0.00000000       0.50000000       0.12500000 </v>
   <v>       0.37500000       0.50000000       0.50000000 </v>
   <v>       0.00000000       0.12500000       0.50000000 </v>
   <v>      -0.25000000       0.12500000       0.12500000 </v>
   <v>      -0.00000000       0.37500000       0.12500000 </v>
   <v>       0.25000000       0.37500000       0.37500000 </v>
   <v>       0.00000000       0.12500000       0.37500000 </v>
   <v>      -0.12500000       0.12500000       0.12500000 </v>
   <v>       0.00000000       0.25000000       0.12500000 </v>
   <v>       0.12500000       0.25000000       0.25000000 </v>
   <v>      -0.00000000       0.12500000       0.25000000 </v>
   <v>       0.37500000       0.25000000       0.12500000 </v>
   <v>       0.12500000      -0.12500000       0.25000000 </v>
   <v>      -0.12500000      -0.25000000       0.12500000 </v>
   <v>       0.37500000       0.12500000       0.25000000 </v>
   <v>       0.50000000       0.25000000       0.12500000 </v>
   <v>       0.12500000      -0.25000000       0.25000000 </v>
   <v>       0.50000000      -0.37500000      -0.25000000 </v>
   <v>      -0.12500000       0.12500000      -0.37500000 </v>
   <v>      -0.12500000      -0.25000000       0.25000000 </v>
   <v>       0.50000000       0.25000000       0.37500000 </v>
   <v>       0.12500000       0.37500000      -0.12500000 </v>
   <v>       0.50000000      -0.12500000      -0.25000000 </v>
   <v>      -0.37500000       0.25000000       0.12500000 </v>
   <v>       0.12500000      -0.37500000       0.25000000 </v>
   <v>       0.37500000       0.50000000      -0.37500000 </v>
   <v>      -0.12500000       0.12500000       0.50000000 </v>
   <v>      -0.12500000      -0.25000000       0.37500000 </v>
   <v>      -0.37500000       0.37500000       0.50000000 </v>
   <v>       0.12500000       0.50000000      -0.12500000 </v>
   <v>       0.37500000      -0.12500000      -0.25000000 </v>
   <v>      -0.25000000       0.25000000       0.12500000 </v>
   <v>       0.12500000       0.50000000       0.25000000 </v>
   <v>       0.25000000       0.37500000       0.50000000 </v>
   <v>      -0.12500000       0.12500000       0.37500000 </v>
   <v>      -0.12500000      -0.25000000       0.50000000 </v>
   <v>      -0.25000000       0.50000000      -0.37500000 </v>
   <v>       0.12500000      -0.37500000      -0.12500000 </v>
   <v>       0.25000000      -0.12500000      -0.25000000 </v>
   <v>      -0.12500000       0.25000000       0.12500000 </v>
   <v>       0.12500000       0.37500000       0.25000000 </v>
   <v>       0.12500000       0.25000000       0.37500000 </v>
   <v>      -0.12500000       0.12500000       0.25000000 </v>
   <v>       0.25000000       0.37500000       0.12500000 </v>
   <v>       0.25000000       0.12500000       0.37500000 </v>
   <v>      -0.25000000      -0.12500000       0.12500000 </v>
   <v>      -0.25000000       0.12500000      -0.12500000 </v>
   <v>       0.50000000       0.37500000       0.12500000 </v>
   <v>       0.25000000      -0.12500000       0.37500000 </v>
   <v>      -0.25000000      -0.37500000       0.12500000 </v>
   <v>       0.50000000       0.12500000       0.37500000 </v>
   <v>      -0.37500000       0.37500000       0.12500000 </v>
   <v>       0.25000000      -0.25000000       0.37500000 </v>
   <v>       0.37500000       0.50000000      -0.25000000 </v>
   <v>      -0.25000000       0.12500000       0.50000000 </v>
   <v>      -0.25000000      -0.37500000       0.25000000 </v>
   <v>      -0.37500000       0.25000000       0.50000000 </v>
   <v>       0.25000000       0.50000000      -0.12500000 </v>
   <v>       0.37500000      -0.12500000      -0.37500000 </v>
   <v>      -0.25000000       0.37500000       0.12500000 </v>
   <v>       0.25000000      -0.37500000       0.37500000 </v>
   <v>       0.25000000       0.37500000      -0.37500000 </v>
   <v>      -0.25000000       0.12500000       0.37500000 </v>
   <v>       0.25000000       0.50000000       0.12500000 </v>
   <v>       0.37500000       0.25000000       0.50000000 </v>
   <v>      -0.25000000      -0.12500000       0.25000000 </v>
   <v>      -0.37500000       0.12500000      -0.12500000 </v>
   <v>      -0.37500000       0.50000000      -0.25000000 </v>
   <v>       0.25000000      -0.25000000       0.12500000 </v>
   <v>       0.37500000       0.12500000      -0.12500000 </v>
   <v>      -0.25000000      -0.12500000       0.50000000 </v>
   <v>       0.37500000       0.50000000       0.12500000 </v>
   <v>       0.37500000       0.12500000       0.50000000 </v>
   <v>      -0.37500000      -0.25000000       0.12500000 </v>
   <v>      -0.37500000       0.12500000      -0.25000000 </v>
   <v>      -0.37500000       0.50000000       0.12500000 </v>
   <v>       0.37500000      -0.12500000       0.50000000 </v>
   <v>       0.25000000      -0.37500000       0.12500000 </v>
   <v>       0.50000000       0.37500000      -0.37500000 </v>
   <v>      -0.25000000      -0.12500000       0.37500000 </v>
   <v>       0.50000000       0.12500000      -0.12500000 </v>
   <v>       0.37500000      -0.37500000       0.12500000 </v>
   <v>       0.50000000       0.25000000      -0.37500000 </v>
   <v>      -0.37500000      -0.25000000       0.25000000 </v>
   <v>       0.50000000       0.12500000      -0.25000000 </v>
   <v>       0.50000000       0.37500000      -0.25000000 </v>
   <v>       0.37500000      -0.25000000       0.25000000 </v>
   <v>       0.50000000       0.25000000      -0.12500000 </v>
   <v>      -0.37500000      -0.12500000       0.37500000 </v>
   <v>       0.50000000      -0.37500000       0.12500000 </v>
   <v>       0.50000000       0.12500000      -0.37500000 </v>
   <v>       0.37500000      -0.25000000       0.12500000 </v>
   <v>      -0.37500000       0.37500000      -0.25000000 </v>
   <v>      -0.37500000      -0.25000000       0.37500000 </v>
   <v>       0.37500000       0.12500000      -0.25000000 </v>
   <v>      -0.00000000       0.25000000       0.25000000 </v>
   <v>       0.50000000       0.25000000       0.25000000 </v>
   <v>       0.00000000      -0.25000000       0.25000000 </v>
   <v>      -0.37500000       0.25000000       0.25000000 </v>
   <v>       0.00000000      -0.37500000       0.25000000 </v>
   <v>       0.37500000      -0.37500000      -0.37500000 </v>
   <v>      -0.00000000       0.25000000      -0.37500000 </v>
   <v>      -0.25000000       0.25000000       0.25000000 </v>
   <v>       0.00000000       0.50000000       0.25000000 </v>
   <v>       0.25000000       0.50000000       0.50000000 </v>
   <v>       0.00000000       0.25000000       0.50000000 </v>
   <v>      -0.12500000       0.25000000       0.25000000 </v>
   <v>       0.00000000       0.37500000       0.25000000 </v>
   <v>       0.12500000       0.37500000       0.37500000 </v>
   <v>       0.00000000       0.25000000       0.37500000 </v>
   <v>      -0.37500000       0.37500000       0.25000000 </v>
   <v>       0.12500000      -0.25000000       0.37500000 </v>
   <v>      -0.12500000      -0.37500000       0.25000000 </v>
   <v>      -0.37500000       0.25000000       0.37500000 </v>
   <v>      -0.25000000       0.37500000       0.25000000 </v>
   <v>       0.12500000      -0.37500000       0.37500000 </v>
   <v>       0.25000000       0.50000000      -0.37500000 </v>
   <v>      -0.12500000       0.25000000       0.50000000 </v>
   <v>      -0.12500000      -0.37500000       0.37500000 </v>
   <v>      -0.25000000       0.37500000       0.50000000 </v>
   <v>       0.12500000       0.50000000      -0.25000000 </v>
   <v>       0.25000000      -0.25000000      -0.37500000 </v>
   <v>      -0.12500000       0.37500000       0.25000000 </v>
   <v>       0.12500000       0.50000000       0.37500000 </v>
   <v>       0.12500000       0.37500000       0.50000000 </v>
   <v>      -0.12500000       0.25000000       0.37500000 </v>
   <v>      -0.25000000       0.50000000       0.25000000 </v>
   <v>       0.25000000      -0.25000000       0.50000000 </v>
   <v>       0.50000000      -0.25000000       0.25000000 </v>
   <v>      -0.00000000       0.37500000       0.37500000 </v>
   <v>      -0.25000000       0.37500000       0.37500000 </v>
   <v>       0.00000000      -0.37500000       0.37500000 </v>
   <v>      -0.12500000       0.37500000       0.37500000 </v>
   <v>       0.00000000       0.50000000       0.37500000 </v>
   <v>       0.12500000       0.50000000       0.50000000 </v>
   <v>      -0.00000000       0.37500000       0.50000000 </v>
   <v>      -0.12500000       0.50000000       0.37500000 </v>
   <v>       0.12500000      -0.37500000       0.50000000 </v>
   <v>      -0.00000000       0.50000000       0.50000000 </v>
  </varray>
  <varray name="weights" >
   <v>       0.00195312 </v>
   <v>       0.00390625 </v>
   <v>       0.00390625 </v>
   <v>       0.00390625 </v>
   <v>       0.00390625 </v>
   <v>       0.00390625 </v>
   <v>       0.00390625 </v>
   <v>       0.00390625 </v>
   <v>       0.00390625 </v>
   <v>       0.00390625 </v>
   <v>       0.00390625 </v>
   <v>       0.00390625 </v>
   <v>       0.00390625 </v>
   <v>       0.00195312 </v>
   <v>       0.00195312 </v>
   <v>       0.00195312 </v>
   <v>       0.00195312 </v>
   <v>       0.00390625 </v>
   <v>       0.00390625 </v>
   <v>       0.00390625 </v>
   <v>       0.00390625 </v>
   <v>       0.00390625 </v>
   <v>       0.00390625 </v>
   <v>       0.00390625 </v>
   <v>       0.00390625 </v>
   <v>       0.00390625 </v>
   <v>       0.00390625 </v>
   <v>       0.00390625 </v>
   <v>       0.00390625 </v>
   <v>       0.00390625 </v>
   <v>       0.00390625 </v>
   <v>       0.00390625 </v>
   <v>       0.00390625 </v>
   <v>       0.00390625 </v>
   <v>       0.00390625 </v>
   <v>       0.00390625 </v>
   <v>       0.00390625 </v>
   <v>       0.00390625 </v>
   <v>       0.00390625 </v>
   <v>       0.00390625 </v>
   <v>       0.00390625 </v>
   <v>       0.00390625 </v>
   <v>       0.00390625 </v>
   <v>       0.00390625 </v>
   <v>       0.00390625 </v>
   <v>       0.00390625 </v>
   <v>       0.00390625 </v>
   <v>       0.00390625 </v>
   <v>       0.00390625 </v>
   <v>       0.00390625 </v>
   <v>       0.00390625 </v>
   <v>       0.00390625 </v>
   <v>       0.00390625 </v>
   <v>       0.00390625 </v>
   <v>       0.00390625 </v>
   <v>       0.00390625 </v>
   <v>       0.00390625 </v>
   <v>       0.00390625 </v>
   <v>       0.00390625 </v>
   <v>       0.00390625 </v>
   <v>       0.00390625 </v>
   <v>       0.00390625 </v>
   <v>       0.00390625 </v>
   <v>       0.00390625 </v>
   <v>       0.00390625 </v>
   <v>       0.00390625 </v>
   <v>       0.00390625 </v>
   <v>       0.00390625 </v>
   <v>       0.00390625 </v>
   <v>       0.00390625 </v>
   <v>       0.00390625 </v>
   <v>       0.00390625 </v>
   <v>       0.00390625 </v>
   <v>       0.00390625 </v>
   <v>       0.00390625 </v>
   <v>       0.00390625 </v>
   <v>       0.00390625 </v>
   <v>       0.00390625 </v>
   <v>       0.00390625 </v>
   <v>       0.00390625 </v>
   <v>       0.00390625 </v>
   <v>       0.00390625 </v>
   <v>       0.00390625 </v>
   <v>       0.00390625 </v>
   <v>       0.00390625 </v>
   <v>       0.00390625 </v>
   <v>       0.00390625 </v>
   <v>       0.00390625 </v>
   <v>       0.00390625 </v>
   <v>       0.00390625 </v>
   <v>       0.00390625 </v>
   <v>       0.00390625 </v>
   <v>       0.00390625 </v>
   <v>       0.00390625 </v>
   <v>       0.00390625 </v>
   <v>       0.00390625 </v>
   <v>       0.00390625 </v>
   <v>       0.00390625 </v>
   <v>       0.00390625 </v>
   <v>       0.00390625 </v>
   <v>       0.00390625 </v>
   <v>       0.00390625 </v>
   <v>       0.00390625 </v>
   <v>       0.00390625 </v>
   <v>       0.00390625 </v>
   <v>       0.00390625 </v>
   <v>       0.00390625 </v>
   <v>       0.00195312 </v>
   <v>       0.00195312 </v>
   <v>       0.00390625 </v>
   <v>       0.00390625 </v>
   <v>       0.00390625 </v>
   <v>       0.00390625 </v>
   <v>       0.00390625 </v>
   <v>       0.00390625 </v>
   <v>       0.00390625 </v>
   <v>       0.00390625 </v>
   <v>       0.00390625 </v>
   <v>       0.00390625 </v>
   <v>       0.00390625 </v>
   <v>       0.00390625 </v>
   <v>       0.00390625 </v>
   <v>       0.00390625 </v>
   <v>       0.00390625 </v>
   <v>       0.00390625 </v>
   <v>       0.00390625 </v>
   <v>       0.00390625 </v>
   <v>       0.00390625 </v>
   <v>       0.00390625 </v>
   <v>       0.00390625 </v>
   <v>       0.00390625 </v>
   <v>       0.00390625 </v>
   <v>       0.00390625 </v>
   <v>       0.00390625 </v>
   <v>       0.00390625 </v>
   <v>       0.00390625 </v>
   <v>       0.00390625 </v>
   <v>       0.00390625 </v>
   <v>       0.00390625 </v>
   <v>       0.00390625 </v>
   <v>       0.00390625 </v>
   <v>       0.00390625 </v>
   <v>       0.00390625 </v>
   <v>       0.00390625 </v>
   <v>       0.00390625 </v>
   <v>       0.00390625 </v>
   <v>       0.00390625 </v>
   <v>       0.00390625 </v>
   <v>       0.00390625 </v>
   <v>       0.00390625 </v>
   <v>       0.00390625 </v>
   <v>       0.00390625 </v>
   <v>       0.00390625 </v>
   <v>       0.00390625 </v>
   <v>       0.00390625 </v>
   <v>       0.00390625 </v>
   <v>       0.00390625 </v>
   <v>       0.00390625 </v>
   <v>       0.00390625 </v>
   <v>       0.00390625 </v>
   <v>       0.00390625 </v>
   <v>       0.00390625 </v>
   <v>       0.00390625 </v>
   <v>       0.00390625 </v>
   <v>       0.00390625 </v>
   <v>       0.00390625 </v>
   <v>       0.00390625 </v>
   <v>       0.00390625 </v>
   <v>       0.00390625 </v>
   <v>       0.00390625 </v>
   <v>       0.00390625 </v>
   <v>       0.00390625 </v>
   <v>       0.00390625 </v>
   <v>       0.00390625 </v>
   <v>       0.00390625 </v>
   <v>       0.00390625 </v>
   <v>       0.00390625 </v>
   <v>       0.00390625 </v>
   <v>       0.00390625 </v>
   <v>       0.00390625 </v>
   <v>       0.00390625 </v>
   <v>       0.00390625 </v>
   <v>       0.00390625 </v>
   <v>       0.00390625 </v>
   <v>       0.00390625 </v>
   <v>       0.00390625 </v>
   <v>       0.00390625 </v>
   <v>       0.00390625 </v>
   <v>       0.00390625 </v>
   <v>       0.00390625 </v>
   <v>       0.00390625 </v>
   <v>       0.00390625 </v>
   <v>       0.00390625 </v>
   <v>       0.00390625 </v>
   <v>       0.00390625 </v>
   <v>       0.00390625 </v>
   <v>       0.00390625 </v>
   <v>       0.00390625 </v>
   <v>       0.00390625 </v>
   <v>       0.00390625 </v>
   <v>       0.00390625 </v>
   <v>       0.00390625 </v>
   <v>       0.00390625 </v>
   <v>       0.00390625 </v>
   <v>       0.00390625 </v>
   <v>       0.00390625 </v>
   <v>       0.00390625 </v>
   <v>       0.00390625 </v>
   <v>       0.00390625 </v>
   <v>       0.00390625 </v>
   <v>       0.00390625 </v>
   <v>       0.00390625 </v>
   <v>       0.00390625 </v>
   <v>       0.00390625 </v>
   <v>       0.00390625 </v>
   <v>       0.00390625 </v>
   <v>       0.00390625 </v>
   <v>       0.00390625 </v>
   <v>       0.00390625 </v>
   <v>       0.00390625 </v>
   <v>       0.00390625 </v>
   <v>       0.00390625 </v>
   <v>       0.00390625 </v>
   <v>       0.00390625 </v>
   <v>       0.00390625 </v>
   <v>       0.00390625 </v>
   <v>       0.00390625 </v>
   <v>       0.00390625 </v>
   <v>       0.00390625 </v>
   <v>       0.00390625 </v>
   <v>       0.00390625 </v>
   <v>       0.00390625 </v>
   <v>       0.00390625 </v>
   <v>       0.00390625 </v>
   <v>       0.00390625 </v>
   <v>       0.00390625 </v>
   <v>       0.00390625 </v>
   <v>       0.00390625 </v>
   <v>       0.00390625 </v>
   <v>       0.00390625 </v>
   <v>       0.00390625 </v>
   <v>       0.00390625 </v>
   <v>       0.00390625 </v>
   <v>       0.00390625 </v>
   <v>       0.00390625 </v>
   <v>       0.00390625 </v>
   <v>       0.00390625 </v>
   <v>       0.00390625 </v>
   <v>       0.00390625 </v>
   <v>       0.00390625 </v>
   <v>       0.00390625 </v>
   <v>       0.00390625 </v>
   <v>       0.00390625 </v>
   <v>       0.00390625 </v>
   <v>       0.00390625 </v>
   <v>       0.00390625 </v>
   <v>       0.00390625 </v>
   <v>       0.00390625 </v>
   <v>       0.00390625 </v>
   <v>       0.00195312 </v>
  </varray>
 </kpoints>
 <parameters>
  <separator name="general" >
   <i type="string" name="SYSTEM">unknown system</i>
   <i type="logical" name="LCOMPAT"> F  </i>
  </separator>
  <separator name="electronic" >
   <i type="string" name="PREC">accura</i>
   <i name="ENMAX">    320.00000000</i>
   <i name="ENAUG">    322.06900000</i>
   <i name="EDIFF">      0.00000010</i>
   <i type="int" name="IALGO">    38</i>
   <i type="int" name="IWAVPR">    10</i>
   <i type="int" name="NBANDS">     8</i>
   <i type="int" name="NBANDSLOW">    -1</i>
   <i type="int" name="NBANDSHIGH">    -1</i>
   <i name="NELECT">      8.00000000</i>
   <i type="int" name="TURBO">     0</i>
   <i type="int" name="IRESTART">     0</i>
   <i type="int" name="NREBOOT">     0</i>
   <i type="int" name="NMIN">     0</i>
   <i name="EREF">      0.00000000</i>
   <separator name="electronic smearing" >
    <i type="int" name="ISMEAR">     0</i>
    <i name="SIGMA">      0.05000000</i>
    <i name="KSPACING">      0.50000000</i>
    <i type="logical" name="KGAMMA"> T  </i>
    <i type="logical" name="KBLOWUP"> T  </i>
   </separator>
   <separator name="electronic projectors" >
    <i type="logical" name="LREAL"> F  </i>
    <v name="ROPT">      0.00000000</v>
    <i type="int" name="LMAXPAW">  -100</i>
    <i type="int" name="LMAXMIX">     2</i>
    <i type="logical" name="NLSPLINE"> F  </i>
   </separator>
   <separator name="electronic startup" >
    <i type="int" name="ISTART">     0</i>
    <i type="int" name="ICHARG">     2</i>
    <i type="int" name="INIWAV">     1</i>
   </separator>
   <separator name="electronic spin" >
    <i type="int" name="ISPIN">     1</i>
    <i type="logical" name="LNONCOLLINEAR"> F  </i>
    <v name="MAGMOM">      1.00000000      1.00000000</v>
    <i name="NUPDOWN">     -1.00000000</i>
    <i type="logical" name="LSORBIT"> F  </i>
    <v name="SAXIS">      0.00000000      0.00000000      1.00000000</v>
    <i type="logical" name="LSPIRAL"> F  </i>
    <v name="QSPIRAL">      0.00000000      0.00000000      0.00000000</v>
    <i type="logical" name="LZEROZ"> F  </i>
   </separator>
   <separator name="electronic exchange-correlation" >
    <i type="logical" name="LASPH"> F  </i>
    <i type="logical" name="LMETAGGA"> F  </i>
   </separator>
   <separator name="electronic convergence" >
    <i type="int" name="NELM">    60</i>
    <i type="int" name="NELMDL">    -5</i>
    <i type="int" name="NELMIN">     2</i>
    <i name="ENINI">    320.00000000</i>
    <separator name="electronic convergence detail" >
     <i type="logical" name="LDIAG"> T  </i>
     <i type="logical" name="LSUBROT"> F  </i>
     <i name="WEIMIN">      0.00000000</i>
     <i name="EBREAK">      0.00000000</i>
     <i name="DEPER">      0.30000000</i>
     <i type="int" name="NRMM">     4</i>
     <i name="TIME">      0.40000000</i>
    </separator>
   </separator>
   <separator name="electronic mixer" >
    <i name="AMIX">      0.40000000</i>
    <i name="BMIX">      1.00000000</i>
    <i name="AMIN">      0.10000000</i>
    <i name="AMIX_MAG">      1.60000000</i>
    <i name="BMIX_MAG">      1.00000000</i>
    <separator name="electronic mixer details" >
     <i type="int" name="IMIX">     4</i>
     <i type="logical" name="MIXFIRST"> F  </i>
     <i type="int" name="MAXMIX">   -45</i>
     <i name="WC">    100.00000000</i>
     <i type="int" name="INIMIX">     1</i>
     <i type="int" name="MIXPRE">     1</i>
     <i type="int" name="MREMOVE">     5</i>
    </separator>
   </separator>
   <separator name="electronic dipolcorrection" >
    <i type="logical" name="LDIPOL"> F  </i>
    <i type="logical" name="LMONO"> F  </i>
    <i type="int" name="IDIPOL">     0</i>
    <i name="EPSILON">      1.00000000</i>
    <v name="DIPOL">   -100.00000000   -100.00000000   -100.00000000</v>
    <i name="EFIELD">      0.00000000</i>
   </separator>
  </separator>
  <separator name="grids" >
   <i type="int" name="NGX">    24</i>
   <i type="int" name="NGY">    24</i>
   <i type="int" name="NGZ">    24</i>
   <i type="int" name="NGXF">    48</i>
   <i type="int" name="NGYF">    48</i>
   <i type="int" name="NGZF">    48</i>
   <i type="logical" name="ADDGRID"> F  </i>
  </separator>
  <separator name="ionic" >
   <i type="int" name="NSW">     0</i>
   <i type="int" name="IBRION">    -1</i>
   <i type="int" name="MDALGO">     0</i>
   <i type="int" name="ISIF">     2</i>
   <i name="PSTRESS">      0.00000000</i>
   <i name="EDIFFG">      0.00000100</i>
   <i type="int" name="NFREE">     0</i>
   <i name="POTIM">      0.50000000</i>
   <i name="SMASS">     -3.00000000</i>
   <i name="SCALEE">      1.00000000</i>
  </separator>
  <separator name="ionic md" >
   <i name="TEBEG">      0.00010000</i>
   <i name="TEEND">      0.00010000</i>
   <i type="int" name="NBLOCK">     1</i>
   <i type="int" name="KBLOCK">     1</i>
   <i type="int" name="NPACO">   256</i>
   <i name="APACO">     10.00000000</i>
  </separator>
  <separator name="symmetry" >
   <i type="int" name="ISYM">     0</i>
   <i name="SYMPREC">      0.00001000</i>
  </separator>
  <separator name="dos" >
   <i type="int" name="LORBIT">     0</i>
   <v name="RWIGS">     -1.00000000</v>
   <i type="int" name="NEDOS">   301</i>
   <i name="EMIN">     10.00000000</i>
   <i name="EMAX">    -10.00000000</i>
   <i name="EFERMI">      0.00000000</i>
  </separator>
  <separator name="writing" >
   <i type="int" name="NWRITE">     2</i>
   <i type="logical" name="LWAVE"> T  </i>
   <i type="logical" name="LDOWNSAMPLE"> F  </i>
   <i type="logical" name="LCHARG"> T  </i>
   <i type="logical" name="LPARD"> F  </i>
   <i type="logical" name="LVTOT"> F  </i>
   <i type="logical" name="LVHAR"> F  </i>
   <i type="logical" name="LELF"> F  </i>
   <i type="logical" name="LOPTICS"> F  </i>
   <v name="STM">      0.00000000      0.00000000      0.00000000      0.00000000      0.00000000      0.00000000      0.00000000</v>
  </separator>
  <separator name="performance" >
   <i type="int" name="NPAR">     1</i>
   <i type="int" name="NSIM">     4</i>
   <i type="int" name="NBLK">    -1</i>
   <i type="logical" name="LPLANE"> T  </i>
   <i type="logical" name="LSCALAPACK"> T  </i>
   <i type="logical" name="LSCAAWARE"> F  </i>
   <i type="logical" name="LSCALU"> F  </i>
   <i type="logical" name="LASYNC"> F  </i>
   <i type="logical" name="LORBITALREAL"> F  </i>
  </separator>
  <separator name="miscellaneous" >
   <i type="int" name="IDIOT">     3</i>
   <i type="int" name="PHON_NSTRUCT">    -1</i>
   <i type="logical" name="LMUSIC"> F  </i>
   <v name="POMASS">     28.08500000</v>
   <v name="DARWINR">      0.00000000</v>
   <v name="DARWINV">      1.00000000</v>
   <i type="logical" name="LCORR"> T  </i>
  </separator>
  <i type="logical" name="GGA_COMPAT"> T  </i>
  <i type="logical" name="LBERRY"> F  </i>
  <i type="int" name="ICORELEVEL">     0</i>
  <i type="logical" name="LDAU"> F  </i>
  <i type="int" name="I_CONSTRAINED_M">     0</i>
  <separator name="electronic exchange-correlation" >
   <i type="string" name="GGA">PE</i>
   <i type="int" name="VOSKOWN">     0</i>
   <i type="logical" name="LHFCALC"> F  </i>
   <i type="string" name="PRECFOCK"></i>
   <i type="logical" name="LSYMGRAD"> F  </i>
   <i type="logical" name="LHFONE"> F  </i>
   <i type="logical" name="LRHFCALC"> F  </i>
   <i type="logical" name="LTHOMAS"> F  </i>
   <i type="logical" name="LMODELHF"> F  </i>
   <i type="logical" name="LFOCKACE"> F  </i>
   <i name="ENCUT4O">     -1.00000000</i>
   <i type="int" name="EXXOEP">     0</i>
   <i type="int" name="FOURORBIT">     0</i>
   <i name="AEXX">      0.00000000</i>
   <i name="HFALPHA">      0.00000000</i>
   <i name="MCALPHA">      0.00000000</i>
   <i name="ALDAX">      1.00000000</i>
   <i name="AGGAX">      1.00000000</i>
   <i name="ALDAC">      1.00000000</i>
   <i name="AGGAC">      1.00000000</i>
   <i type="int" name="NKREDX">     1</i>
   <i type="int" name="NKREDY">     1</i>
   <i type="int" name="NKREDZ">     1</i>
   <i type="logical" name="SHIFTRED"> F  </i>
   <i type="logical" name="ODDONLY"> F  </i>
   <i type="logical" name="EVENONLY"> F  </i>
   <i type="int" name="LMAXFOCK">     0</i>
   <i type="int" name="NMAXFOCKAE">     0</i>
   <i type="logical" name="LFOCKAEDFT"> F  </i>
   <i name="HFSCREEN">      0.00000000</i>
   <i name="HFSCREENC">      0.00000000</i>
   <i type="int" name="NBANDSGWLOW">     0</i>
  </separator>
  <separator name="vdW DFT" >
   <i type="logical" name="LUSE_VDW"> F  </i>
   <i name="Zab_VDW">     -0.84910000</i>
   <i name="PARAM1">      0.12340000</i>
   <i name="PARAM2">      1.00000000</i>
   <i name="PARAM3">      0.00000000</i>
  </separator>
  <separator name="model GW" >
   <i type="int" name="MODEL_GW">     0</i>
   <i name="MODEL_EPS0">     11.98371007</i>
   <i name="MODEL_ALPHA">      1.00000000</i>
  </separator>
  <separator name="linear response parameters" >
   <i type="logical" name="LEPSILON"> F  </i>
   <i type="logical" name="LRPA"> F  </i>
   <i type="logical" name="LNABLA"> F  </i>
   <i type="logical" name="LVEL"> F  </i>
   <i name="CSHIFT">      0.10000000</i>
   <i name="OMEGAMAX">     -1.00000000</i>
   <i name="DEG_THRESHOLD">      0.00200000</i>
   <i name="RTIME">     -0.10000000</i>
   <i name="WPLASMAI">      0.00000000</i>
   <v name="DFIELD">      0.00000000      0.00000000      0.00000000</v>
   <v name="WPLASMA">      0.00000000      0.00000000      0.00000000      0.00000000      0.00000000      0.00000000      0.00000000      0.00000000      0.00000000</v>
  </separator>
  <separator name="orbital magnetization" >
   <i type="logical" name="NUCIND"> F  </i>
   <v name="MAGPOS">      0.00000000      0.00000000      0.00000000</v>
   <i type="logical" name="LNICSALL"> T  </i>
   <i type="logical" name="ORBITALMAG"> F  </i>
   <i type="logical" name="LMAGBLOCH"> F  </i>
   <i type="logical" name="LCHIMAG"> F  </i>
   <i type="logical" name="LGAUGE"> T  </i>
   <i type="int" name="MAGATOM">     0</i>
   <v name="MAGDIPOL">      0.00000000      0.00000000      0.00000000</v>
   <v name="AVECCONST">      0.00000000      0.00000000      0.00000000</v>
  </separator>
  <separator name="response functions" >
   <i type="logical" name="LFINITE_TEMPERATURE"> F  </i>
   <i type="logical" name="LADDER"> F  </i>
   <i type="logical" name="LRPAFORCE"> F  </i>
   <i type="logical" name="LFXC"> F  </i>
   <i type="logical" name="LHARTREE"> T  </i>
   <i type="int" name="IBSE">     0</i>
   <v type="int" name="KPOINT">    -1     0     0     0</v>
   <i type="logical" name="LTCTC"> F  </i>
   <i type="logical" name="LTCTE"> F  </i>
   <i type="logical" name="LTETE"> F  </i>
   <i type="logical" name="LTRIPLET"> F  </i>
   <i type="logical" name="LFXCEPS"> F  </i>
   <i type="logical" name="LFXHEG"> F  </i>
   <i type="int" name="NATURALO">     2</i>
   <i type="logical" name="LHOLEGF"> F  </i>
   <i type="logical" name="L2ORDER"> F  </i>
   <i type="logical" name="LDMP1"> F  </i>
   <i type="logical" name="LMP2LT"> F  </i>
   <i type="logical" name="LSMP2LT"> F  </i>
   <i type="logical" name="LGWLF"> F  </i>
   <i name="ENCUTGW">     -2.00000000</i>
   <i name="ENCUTGWSOFT">     -2.00000000</i>
   <i name="ENCUTLF">     -1.00000000</i>
   <i type="logical" name="LESF_SPLINES"> F  </i>
   <i type="int" name="LMAXMP2">    -1</i>
   <i name="SCISSOR">      0.00000000</i>
   <i type="int" name="NOMEGA">     0</i>
   <i type="int" name="NOMEGAR">     0</i>
   <i type="int" name="NBANDSGW">    -1</i>
   <i type="int" name="NBANDSO">    -1</i>
   <i type="int" name="NBANDSV">    -1</i>
   <i type="int" name="NELMGW">     1</i>
   <i type="int" name="NELMHF">     1</i>
   <i type="int" name="DIM">     3</i>
   <i type="int" name="IESPILON">     4</i>
   <i type="int" name="ANTIRES">     0</i>
   <i name="OMEGAMAX">    -30.00000000</i>
   <i name="OMEGAMIN">    -30.00000000</i>
   <i name="OMEGATL">   -200.00000000</i>
   <i type="int" name="OMEGAGRID">     0</i>
   <i name="CSHIFT">     -0.10000000</i>
   <i type="logical" name="LSELFENERGY"> F  </i>
   <i type="logical" name="LSPECTRAL"> F  </i>
   <i type="logical" name="LSPECTRALGW"> F  </i>
   <i type="logical" name="LSINGLES"> F  </i>
   <i type="logical" name="LFERMIGW"> F  </i>
   <i type="logical" name="ODDONLYGW"> F  </i>
   <i type="logical" name="EVENONLYGW"> F  </i>
   <i type="int" name="NKREDLFX">     1</i>
   <i type="int" name="NKREDLFY">     1</i>
   <i type="int" name="NKREDLFZ">     1</i>
   <i type="int" name="MAXMEM">  2800</i>
   <i type="int" name="TELESCOPE">     0</i>
   <i type="int" name="NTAUPAR">    -1</i>
   <i type="int" name="NOMEGAPAR">    -1</i>
   <i name="DAMP_NEWTON">      0.80000001</i>
   <i name="LAMBDA">      1.00000000</i>
  </separator>
  <separator name="External order field" >
   <i name="OFIELD_KAPPA">      0.00000000</i>
   <v name="OFIELD_K">      0.00000000      0.00000000      0.00000000</v>
   <i name="OFIELD_Q6_NEAR">      0.00000000</i>
   <i name="OFIELD_Q6_FAR">      0.00000000</i>
   <i name="OFIELD_A">      0.00000000</i>
  </separator>
  <separator name="optional k-points parameters" >
   <i type="int" name="KPOINTS_OPT_MODE">     1</i>
   <i type="logical" name="LKPOINTS_OPT"> F  </i>
  </separator>
 </parameters>
 <atominfo>
  <atoms>       2 </atoms>
  <types>       1 </types>
  <array name="atoms" >
   <dimension dim="1">ion</dimension>
   <field type="string">element</field>
   <field type="int">atomtype</field>
   <set>
    <rc><c>Si</c><c>   1</c></rc>
    <rc><c>Si</c><c>   1</c></rc>
   </set>
  </array>
  <array name="atomtypes" >
   <dimension dim="1">type</dimension>
   <field type="int">atomspertype</field>
   <field type="string">element</field>
   <field>mass</field>
   <field>valence</field>
   <field type="string">pseudopotential</field>
   <set>
    <rc><c>   2</c><c>Si</c><c>     28.08500000</c><c>      4.00000000</c><c>  PAW_PBE Si 05Jan2001                  </c></rc>
   </set>
  </array>
 </atominfo>
 <structure name="initialpos" >
  <crystal>
   <varray name="basis" >
    <v>       0.00000000       2.71500000       2.71500000 </v>
    <v>       2.70957000       0.00000000       2.71500000 </v>
    <v>       2.70957000       2.71500000       0.00000000 </v>
   </varray>
   <i name="volume">     39.94570025 </i>
   <varray name="rec_basis" >
    <v>      -0.18453112       0.18416206       0.18416206 </v>
    <v>       0.18453112      -0.18416206       0.18416206 </v>
    <v>       0.18453112       0.18416206      -0.18416206 </v>
   </varray>
  </crystal>
  <varray name="positions" >
   <v>       0.00000000       0.00000000       0.00000000 </v>
   <v>       0.25000000       0.25000000       0.25000000 </v>
  </varray>
 </structure>
 <calculation>
  <scstep>
   <time name="dav">    2.82    2.82</time>
   <time name="total">    2.87    2.87</time>
   <energy>
    <i name="alphaZ">      3.37088904 </i>
    <i name="ewald">   -228.71624421 </i>
    <i name="hartreedc">    -10.97099241 </i>
    <i name="XCdc">    -18.59399080 </i>
    <i name="pawpsdc">    176.24759923 </i>
    <i name="pawaedc">   -141.06103558 </i>
    <i name="eentropy">     -0.00034847 </i>
    <i name="bandstr">     15.82566659 </i>
    <i name="atom">    206.13066687 </i>
    <i name="e_fr_energy">      2.23221026 </i>
    <i name="e_wo_entrp">      2.23255873 </i>
    <i name="e_0_energy">      2.23238449 </i>
   </energy>
  </scstep>
  <scstep>
   <time name="dav">    3.89    3.89</time>
   <time name="total">    3.89    3.89</time>
   <energy>
    <i name="e_fr_energy">    -10.86282885 </i>
    <i name="e_wo_entrp">    -10.86282885 </i>
    <i name="e_0_energy">    -10.86282885 </i>
   </energy>
  </scstep>
  <scstep>
   <time name="dav">    3.25    3.25</time>
   <time name="total">    3.25    3.25</time>
   <energy>
    <i name="e_fr_energy">    -11.01713774 </i>
    <i name="e_wo_entrp">    -11.01713774 </i>
    <i name="e_0_energy">    -11.01713774 </i>
   </energy>
  </scstep>
  <scstep>
   <time name="dav">    4.12    4.12</time>
   <time name="total">    4.12    4.12</time>
   <energy>
    <i name="e_fr_energy">    -11.01780311 </i>
    <i name="e_wo_entrp">    -11.01780311 </i>
    <i name="e_0_energy">    -11.01780311 </i>
   </energy>
  </scstep>
  <scstep>
   <time name="dav">    3.29    3.29</time>
   <time name="total">    3.54    3.54</time>
   <energy>
    <i name="e_fr_energy">    -11.01780350 </i>
    <i name="e_wo_entrp">    -11.01780350 </i>
    <i name="e_0_energy">    -11.01780350 </i>
   </energy>
  </scstep>
  <scstep>
   <time name="dav">    3.15    3.15</time>
   <time name="total">    3.45    3.45</time>
   <energy>
    <i name="e_fr_energy">    -10.89175486 </i>
    <i name="e_wo_entrp">    -10.89175486 </i>
    <i name="e_0_energy">    -10.89175486 </i>
   </energy>
  </scstep>
  <scstep>
   <time name="dav">    3.25    3.25</time>
   <time name="total">    3.55    3.55</time>
   <energy>
    <i name="e_fr_energy">    -10.83444967 </i>
    <i name="e_wo_entrp">    -10.83444967 </i>
    <i name="e_0_energy">    -10.83444967 </i>
   </energy>
  </scstep>
  <scstep>
   <time name="dav">    3.06    3.06</time>
   <time name="total">    3.36    3.36</time>
   <energy>
    <i name="e_fr_energy">    -10.83551134 </i>
    <i name="e_wo_entrp">    -10.83551134 </i>
    <i name="e_0_energy">    -10.83551134 </i>
   </energy>
  </scstep>
  <scstep>
   <time name="dav">    3.75    3.75</time>
   <time name="total">    4.05    4.05</time>
   <energy>
    <i name="e_fr_energy">    -10.83570013 </i>
    <i name="e_wo_entrp">    -10.83570013 </i>
    <i name="e_0_energy">    -10.83570013 </i>
   </energy>
  </scstep>
  <scstep>
   <time name="dav">    3.11    3.11</time>
   <time name="total">    3.41    3.41</time>
   <energy>
    <i name="e_fr_energy">    -10.83572707 </i>
    <i name="e_wo_entrp">    -10.83572707 </i>
    <i name="e_0_energy">    -10.83572707 </i>
   </energy>
  </scstep>
  <scstep>
   <time name="dav">    4.00    4.00</time>
   <time name="total">    4.29    4.30</time>
   <energy>
    <i name="e_fr_energy">    -10.83572675 </i>
    <i name="e_wo_entrp">    -10.83572675 </i>
    <i name="e_0_energy">    -10.83572675 </i>
   </energy>
  </scstep>
  <scstep>
   <time name="dav">    3.07    3.07</time>
   <time name="total">    3.37    3.37</time>
   <energy>
    <i name="e_fr_energy">    -10.83572706 </i>
    <i name="e_wo_entrp">    -10.83572706 </i>
    <i name="e_0_energy">    -10.83572706 </i>
   </energy>
  </scstep>
  <scstep>
   <time name="dav">    2.43    2.43</time>
   <time name="total">    2.48    2.48</time>
   <energy>
    <i name="alphaZ">      3.37088904 </i>
    <i name="ewald">   -228.71624421 </i>
    <i name="hartreedc">    -14.90427107 </i>
    <i name="XCdc">    -17.94978043 </i>
    <i name="pawpsdc">    898.32204909 </i>
    <i name="pawaedc">   -863.36317992 </i>
    <i name="eentropy">     -0.00000000 </i>
    <i name="bandstr">      6.27414357 </i>
    <i name="atom">    206.13066687 </i>
    <i name="e_fr_energy">    -10.83572707 </i>
    <i name="e_wo_entrp">    -10.83572707 </i>
    <i name="e_0_energy">    -10.83572707 </i>
   </energy>
  </scstep>
  <structure>
   <crystal>
    <varray name="basis" >
     <v>       0.00000000       2.71500000       2.71500000 </v>
     <v>       2.70957000       0.00000000       2.71500000 </v>
     <v>       2.70957000       2.71500000       0.00000000 </v>
    </varray>
    <i name="volume">     39.94570025 </i>
    <varray name="rec_basis" >
     <v>      -0.18453112       0.18416206       0.18416206 </v>
     <v>       0.18453112      -0.18416206       0.18416206 </v>
     <v>       0.18453112       0.18416206      -0.18416206 </v>
    </varray>
   </crystal>
   <varray name="positions" >
    <v>       0.00000000       0.00000000       0.00000000 </v>
    <v>       0.25000000       0.25000000       0.25000000 </v>
   </varray>
  </structure>
  <varray name="forces" >
   <v>       0.00000018       0.00000023       0.00000011 </v>
   <v>      -0.00000018      -0.00000023      -0.00000011 </v>
  </varray>
  <varray name="stress" >
   <v>      22.28499530      -0.00001459       0.00006817 </v>
   <v>      -0.00001456      20.36249009       0.00007799 </v>
   <v>       0.00006817       0.00007798      20.36248583 </v>
  </varray>
  <energy>
   <i name="e_fr_energy">    -10.83572707 </i>
   <i name="e_wo_entrp">    -10.83572707 </i>
   <i name="e_0_energy">    -10.83572707 </i>
  </energy>
  <time name="totalsc">   47.00   47.06</time>
  <eigenvalues>
   <array>
    <dimension dim="1">band</dimension>
    <dimension dim="2">kpoint</dimension>
    <dimension dim="3">spin</dimension>
    <field>eigene</field>
    <field>occ</field>
    <set>
     <set comment="spin 1">
      <set comment="kpoint 1">
       <r>   -6.1226    1.0000 </r>
       <r>    5.8480    1.0000 </r>
       <r>    5.8480    1.0000 </r>
       <r>    5.8622    1.0000 </r>
       <r>    8.4157    0.0000 </r>
       <r>    8.4230    0.0000 </r>
       <r>    8.4230    0.0000 </r>
       <r>    9.2529    0.0000 </r>
      </set>
      <set comment="kpoint 2">
       <r>   -5.9180    1.0000 </r>
       <r>    4.2548    1.0000 </r>
       <r>    5.5580    1.0000 </r>
       <r>    5.5691    1.0000 </r>
       <r>    8.3656    0.0000 </r>
       <r>    8.8441    0.0000 </r>
       <r>    8.8477    0.0000 </r>
       <r>   10.5911    0.0000 </r>
      </set>
      <set comment="kpoint 3">
       <r>   -5.9180    1.0000 </r>
       <r>    4.2548    1.0000 </r>
       <r>    5.5580    1.0000 </r>
       <r>    5.5691    1.0000 </r>
       <r>    8.3656    0.0000 </r>
       <r>    8.8441    0.0000 </r>
       <r>    8.8477    0.0000 </r>
       <r>   10.5911    0.0000 </r>
      </set>
      <set comment="kpoint 4">
       <r>   -5.9180    1.0000 </r>
       <r>    4.2548    1.0000 </r>
       <r>    5.5580    1.0000 </r>
       <r>    5.5691    1.0000 </r>
       <r>    8.3656    0.0000 </r>
       <r>    8.8441    0.0000 </r>
       <r>    8.8477    0.0000 </r>
       <r>   10.5911    0.0000 </r>
      </set>
      <set comment="kpoint 5">
       <r>   -5.9180    1.0000 </r>
       <r>    4.2548    1.0000 </r>
       <r>    5.5580    1.0000 </r>
       <r>    5.5691    1.0000 </r>
       <r>    8.3656    0.0000 </r>
       <r>    8.8441    0.0000 </r>
       <r>    8.8477    0.0000 </r>
       <r>   10.5911    0.0000 </r>
      </set>
      <set comment="kpoint 6">
       <r>   -5.3211    1.0000 </r>
       <r>    1.9236    1.0000 </r>
       <r>    5.0852    1.0000 </r>
       <r>    5.0999    1.0000 </r>
       <r>    7.8937    0.0000 </r>
       <r>    9.3622    0.0000 </r>
       <r>    9.3678    0.0000 </r>
       <r>   12.7968    0.0000 </r>
      </set>
      <set comment="kpoint 7">
       <r>   -5.3211    1.0000 </r>
       <r>    1.9236    1.0000 </r>
       <r>    5.0852    1.0000 </r>
       <r>    5.0999    1.0000 </r>
       <r>    7.8937    0.0000 </r>
       <r>    9.3622    0.0000 </r>
       <r>    9.3678    0.0000 </r>
       <r>   12.7968    0.0000 </r>
      </set>
      <set comment="kpoint 8">
       <r>   -5.3211    1.0000 </r>
       <r>    1.9236    1.0000 </r>
       <r>    5.0852    1.0000 </r>
       <r>    5.0999    1.0000 </r>
       <r>    7.8937    0.0000 </r>
       <r>    9.3622    0.0000 </r>
       <r>    9.3678    0.0000 </r>
       <r>   12.7968    0.0000 </r>
      </set>
      <set comment="kpoint 9">
       <r>   -5.3211    1.0000 </r>
       <r>    1.9236    1.0000 </r>
       <r>    5.0852    1.0000 </r>
       <r>    5.0999    1.0000 </r>
       <r>    7.8937    0.0000 </r>
       <r>    9.3622    0.0000 </r>
       <r>    9.3678    0.0000 </r>
       <r>   12.7968    0.0000 </r>
      </set>
      <set comment="kpoint 10">
       <r>   -4.4250    1.0000 </r>
       <r>   -0.1002    1.0000 </r>
       <r>    4.7563    1.0000 </r>
       <r>    4.7741    1.0000 </r>
       <r>    7.5308    0.0000 </r>
       <r>    9.3008    0.0000 </r>
       <r>    9.3148    0.0000 </r>
       <r>   13.7437    0.0000 </r>
      </set>
      <set comment="kpoint 11">
       <r>   -4.4250    1.0000 </r>
       <r>   -0.1002    1.0000 </r>
       <r>    4.7563    1.0000 </r>
       <r>    4.7741    1.0000 </r>
       <r>    7.5308    0.0000 </r>
       <r>    9.3008    0.0000 </r>
       <r>    9.3148    0.0000 </r>
       <r>   13.7437    0.0000 </r>
      </set>
      <set comment="kpoint 12">
       <r>   -4.4250    1.0000 </r>
       <r>   -0.1002    1.0000 </r>
       <r>    4.7563    1.0000 </r>
       <r>    4.7741    1.0000 </r>
       <r>    7.5308    0.0000 </r>
       <r>    9.3008    0.0000 </r>
       <r>    9.3148    0.0000 </r>
       <r>   13.7437    0.0000 </r>
      </set>
      <set comment="kpoint 13">
       <r>   -4.4250    1.0000 </r>
       <r>   -0.1002    1.0000 </r>
       <r>    4.7563    1.0000 </r>
       <r>    4.7741    1.0000 </r>
       <r>    7.5308    0.0000 </r>
       <r>    9.3008    0.0000 </r>
       <r>    9.3148    0.0000 </r>
       <r>   13.7437    0.0000 </r>
      </set>
      <set comment="kpoint 14">
       <r>   -3.7849    1.0000 </r>
       <r>   -1.1254    1.0000 </r>
       <r>    4.6440    1.0000 </r>
       <r>    4.6631    1.0000 </r>
       <r>    7.4041    0.0000 </r>
       <r>    9.1896    0.0000 </r>
       <r>    9.2052    0.0000 </r>
       <r>   13.5866    0.0000 </r>
      </set>
      <set comment="kpoint 15">
       <r>   -3.7849    1.0000 </r>
       <r>   -1.1254    1.0000 </r>
       <r>    4.6440    1.0000 </r>
       <r>    4.6631    1.0000 </r>
       <r>    7.4041    0.0000 </r>
       <r>    9.1896    0.0000 </r>
       <r>    9.2052    0.0000 </r>
       <r>   13.5866    0.0000 </r>
      </set>
      <set comment="kpoint 16">
       <r>   -3.7849    1.0000 </r>
       <r>   -1.1254    1.0000 </r>
       <r>    4.6440    1.0000 </r>
       <r>    4.6631    1.0000 </r>
       <r>    7.4041    0.0000 </r>
       <r>    9.1896    0.0000 </r>
       <r>    9.2052    0.0000 </r>
       <r>   13.5866    0.0000 </r>
      </set>
      <set comment="kpoint 17">
       <r>   -3.7849    1.0000 </r>
       <r>   -1.1254    1.0000 </r>
       <r>    4.6440    1.0000 </r>
       <r>    4.6631    1.0000 </r>
       <r>    7.4041    0.0000 </r>
       <r>    9.1896    0.0000 </r>
       <r>    9.2052    0.0000 </r>
       <r>   13.5866    0.0000 </r>
      </set>
      <set comment="kpoint 18">
       <r>   -5.8494    1.0000 </r>
       <r>    4.5187    1.0000 </r>
       <r>    5.0432    1.0000 </r>
       <r>    5.0520    1.0000 </r>
       <r>    7.8713    0.0000 </r>
       <r>    9.5545    0.0000 </r>
       <r>    9.5702    0.0000 </r>
       <r>   10.2776    0.0000 </r>
      </set>
      <set comment="kpoint 19">
       <r>   -5.8494    1.0000 </r>
       <r>    4.5187    1.0000 </r>
       <r>    5.0432    1.0000 </r>
       <r>    5.0520    1.0000 </r>
       <r>    7.8713    0.0000 </r>
       <r>    9.5545    0.0000 </r>
       <r>    9.5702    0.0000 </r>
       <r>   10.2776    0.0000 </r>
      </set>
      <set comment="kpoint 20">
       <r>   -5.3800    1.0000 </r>
       <r>    2.6285    1.0000 </r>
       <r>    4.5357    1.0000 </r>
       <r>    4.6085    1.0000 </r>
       <r>    8.0091    0.0000 </r>
       <r>    9.5744    0.0000 </r>
       <r>   10.3305    0.0000 </r>
       <r>   10.6060    0.0000 </r>
      </set>
      <set comment="kpoint 21">
       <r>   -5.3800    1.0000 </r>
       <r>    2.6285    1.0000 </r>
       <r>    4.5357    1.0000 </r>
       <r>    4.6085    1.0000 </r>
       <r>    8.0091    0.0000 </r>
       <r>    9.5744    0.0000 </r>
       <r>   10.3305    0.0000 </r>
       <r>   10.6060    0.0000 </r>
      </set>
      <set comment="kpoint 22">
       <r>   -5.3800    1.0000 </r>
       <r>    2.6285    1.0000 </r>
       <r>    4.5357    1.0000 </r>
       <r>    4.6085    1.0000 </r>
       <r>    8.0091    0.0000 </r>
       <r>    9.5744    0.0000 </r>
       <r>   10.3305    0.0000 </r>
       <r>   10.6060    0.0000 </r>
      </set>
      <set comment="kpoint 23">
       <r>   -5.3800    1.0000 </r>
       <r>    2.6285    1.0000 </r>
       <r>    4.5357    1.0000 </r>
       <r>    4.6085    1.0000 </r>
       <r>    8.0091    0.0000 </r>
       <r>    9.5744    0.0000 </r>
       <r>   10.3305    0.0000 </r>
       <r>   10.6060    0.0000 </r>
      </set>
      <set comment="kpoint 24">
       <r>   -5.3800    1.0000 </r>
       <r>    2.6285    1.0000 </r>
       <r>    4.5357    1.0000 </r>
       <r>    4.6085    1.0000 </r>
       <r>    8.0091    0.0000 </r>
       <r>    9.5744    0.0000 </r>
       <r>   10.3305    0.0000 </r>
       <r>   10.6060    0.0000 </r>
      </set>
      <set comment="kpoint 25">
       <r>   -5.3800    1.0000 </r>
       <r>    2.6285    1.0000 </r>
       <r>    4.5357    1.0000 </r>
       <r>    4.6085    1.0000 </r>
       <r>    8.0091    0.0000 </r>
       <r>    9.5744    0.0000 </r>
       <r>   10.3305    0.0000 </r>
       <r>   10.6060    0.0000 </r>
      </set>
      <set comment="kpoint 26">
       <r>   -5.3800    1.0000 </r>
       <r>    2.6285    1.0000 </r>
       <r>    4.5357    1.0000 </r>
       <r>    4.6085    1.0000 </r>
       <r>    8.0091    0.0000 </r>
       <r>    9.5744    0.0000 </r>
       <r>   10.3305    0.0000 </r>
       <r>   10.6060    0.0000 </r>
      </set>
      <set comment="kpoint 27">
       <r>   -5.3800    1.0000 </r>
       <r>    2.6285    1.0000 </r>
       <r>    4.5357    1.0000 </r>
       <r>    4.6085    1.0000 </r>
       <r>    8.0091    0.0000 </r>
       <r>    9.5744    0.0000 </r>
       <r>   10.3305    0.0000 </r>
       <r>   10.6060    0.0000 </r>
      </set>
      <set comment="kpoint 28">
       <r>   -4.5632    1.0000 </r>
       <r>    0.5649    1.0000 </r>
       <r>    4.0137    1.0000 </r>
       <r>    4.2685    1.0000 </r>
       <r>    8.1100    0.0000 </r>
       <r>    9.4990    0.0000 </r>
       <r>   10.3281    0.0000 </r>
       <r>   11.3333    0.0000 </r>
      </set>
      <set comment="kpoint 29">
       <r>   -4.5632    1.0000 </r>
       <r>    0.5649    1.0000 </r>
       <r>    4.0137    1.0000 </r>
       <r>    4.2685    1.0000 </r>
       <r>    8.1100    0.0000 </r>
       <r>    9.4990    0.0000 </r>
       <r>   10.3281    0.0000 </r>
       <r>   11.3333    0.0000 </r>
      </set>
      <set comment="kpoint 30">
       <r>   -4.5632    1.0000 </r>
       <r>    0.5649    1.0000 </r>
       <r>    4.0137    1.0000 </r>
       <r>    4.2685    1.0000 </r>
       <r>    8.1100    0.0000 </r>
       <r>    9.4990    0.0000 </r>
       <r>   10.3281    0.0000 </r>
       <r>   11.3333    0.0000 </r>
      </set>
      <set comment="kpoint 31">
       <r>   -4.5632    1.0000 </r>
       <r>    0.5649    1.0000 </r>
       <r>    4.0137    1.0000 </r>
       <r>    4.2685    1.0000 </r>
       <r>    8.1100    0.0000 </r>
       <r>    9.4990    0.0000 </r>
       <r>   10.3281    0.0000 </r>
       <r>   11.3333    0.0000 </r>
      </set>
      <set comment="kpoint 32">
       <r>   -4.5632    1.0000 </r>
       <r>    0.5649    1.0000 </r>
       <r>    4.0137    1.0000 </r>
       <r>    4.2685    1.0000 </r>
       <r>    8.1100    0.0000 </r>
       <r>    9.4990    0.0000 </r>
       <r>   10.3281    0.0000 </r>
       <r>   11.3333    0.0000 </r>
      </set>
      <set comment="kpoint 33">
       <r>   -4.5632    1.0000 </r>
       <r>    0.5649    1.0000 </r>
       <r>    4.0137    1.0000 </r>
       <r>    4.2685    1.0000 </r>
       <r>    8.1100    0.0000 </r>
       <r>    9.4990    0.0000 </r>
       <r>   10.3281    0.0000 </r>
       <r>   11.3333    0.0000 </r>
      </set>
      <set comment="kpoint 34">
       <r>   -4.5632    1.0000 </r>
       <r>    0.5649    1.0000 </r>
       <r>    4.0137    1.0000 </r>
       <r>    4.2685    1.0000 </r>
       <r>    8.1100    0.0000 </r>
       <r>    9.4990    0.0000 </r>
       <r>   10.3281    0.0000 </r>
       <r>   11.3333    0.0000 </r>
      </set>
      <set comment="kpoint 35">
       <r>   -4.5632    1.0000 </r>
       <r>    0.5649    1.0000 </r>
       <r>    4.0137    1.0000 </r>
       <r>    4.2685    1.0000 </r>
       <r>    8.1100    0.0000 </r>
       <r>    9.4990    0.0000 </r>
       <r>   10.3281    0.0000 </r>
       <r>   11.3333    0.0000 </r>
      </set>
      <set comment="kpoint 36">
       <r>   -3.6989    1.0000 </r>
       <r>   -0.9026    1.0000 </r>
       <r>    3.5665    1.0000 </r>
       <r>    4.2937    1.0000 </r>
       <r>    8.0590    0.0000 </r>
       <r>    9.3679    0.0000 </r>
       <r>    9.9623    0.0000 </r>
       <r>   13.2434    0.0000 </r>
      </set>
      <set comment="kpoint 37">
       <r>   -3.6989    1.0000 </r>
       <r>   -0.9026    1.0000 </r>
       <r>    3.5665    1.0000 </r>
       <r>    4.2937    1.0000 </r>
       <r>    8.0590    0.0000 </r>
       <r>    9.3679    0.0000 </r>
       <r>    9.9623    0.0000 </r>
       <r>   13.2434    0.0000 </r>
      </set>
      <set comment="kpoint 38">
       <r>   -3.6989    1.0000 </r>
       <r>   -0.9026    1.0000 </r>
       <r>    3.5665    1.0000 </r>
       <r>    4.2937    1.0000 </r>
       <r>    8.0590    0.0000 </r>
       <r>    9.3679    0.0000 </r>
       <r>    9.9623    0.0000 </r>
       <r>   13.2434    0.0000 </r>
      </set>
      <set comment="kpoint 39">
       <r>   -3.6989    1.0000 </r>
       <r>   -0.9026    1.0000 </r>
       <r>    3.5665    1.0000 </r>
       <r>    4.2937    1.0000 </r>
       <r>    8.0590    0.0000 </r>
       <r>    9.3679    0.0000 </r>
       <r>    9.9623    0.0000 </r>
       <r>   13.2434    0.0000 </r>
      </set>
      <set comment="kpoint 40">
       <r>   -3.6989    1.0000 </r>
       <r>   -0.9026    1.0000 </r>
       <r>    3.5665    1.0000 </r>
       <r>    4.2937    1.0000 </r>
       <r>    8.0590    0.0000 </r>
       <r>    9.3679    0.0000 </r>
       <r>    9.9623    0.0000 </r>
       <r>   13.2434    0.0000 </r>
      </set>
      <set comment="kpoint 41">
       <r>   -3.6989    1.0000 </r>
       <r>   -0.9026    1.0000 </r>
       <r>    3.5665    1.0000 </r>
       <r>    4.2937    1.0000 </r>
       <r>    8.0590    0.0000 </r>
       <r>    9.3679    0.0000 </r>
       <r>    9.9623    0.0000 </r>
       <r>   13.2434    0.0000 </r>
      </set>
      <set comment="kpoint 42">
       <r>   -3.6989    1.0000 </r>
       <r>   -0.9026    1.0000 </r>
       <r>    3.5665    1.0000 </r>
       <r>    4.2937    1.0000 </r>
       <r>    8.0590    0.0000 </r>
       <r>    9.3679    0.0000 </r>
       <r>    9.9623    0.0000 </r>
       <r>   13.2434    0.0000 </r>
      </set>
      <set comment="kpoint 43">
       <r>   -3.6989    1.0000 </r>
       <r>   -0.9026    1.0000 </r>
       <r>    3.5665    1.0000 </r>
       <r>    4.2937    1.0000 </r>
       <r>    8.0590    0.0000 </r>
       <r>    9.3679    0.0000 </r>
       <r>    9.9623    0.0000 </r>
       <r>   13.2434    0.0000 </r>
      </set>
      <set comment="kpoint 44">
       <r>   -3.9432    1.0000 </r>
       <r>   -0.5321    1.0000 </r>
       <r>    3.3843    1.0000 </r>
       <r>    4.5912    1.0000 </r>
       <r>    8.2282    0.0000 </r>
       <r>    9.4759    0.0000 </r>
       <r>    9.7294    0.0000 </r>
       <r>   13.7817    0.0000 </r>
      </set>
      <set comment="kpoint 45">
       <r>   -3.9432    1.0000 </r>
       <r>   -0.5321    1.0000 </r>
       <r>    3.3843    1.0000 </r>
       <r>    4.5912    1.0000 </r>
       <r>    8.2282    0.0000 </r>
       <r>    9.4759    0.0000 </r>
       <r>    9.7294    0.0000 </r>
       <r>   13.7817    0.0000 </r>
      </set>
      <set comment="kpoint 46">
       <r>   -3.9432    1.0000 </r>
       <r>   -0.5321    1.0000 </r>
       <r>    3.3843    1.0000 </r>
       <r>    4.5912    1.0000 </r>
       <r>    8.2282    0.0000 </r>
       <r>    9.4759    0.0000 </r>
       <r>    9.7294    0.0000 </r>
       <r>   13.7817    0.0000 </r>
      </set>
      <set comment="kpoint 47">
       <r>   -3.9432    1.0000 </r>
       <r>   -0.5321    1.0000 </r>
       <r>    3.3843    1.0000 </r>
       <r>    4.5912    1.0000 </r>
       <r>    8.2282    0.0000 </r>
       <r>    9.4759    0.0000 </r>
       <r>    9.7294    0.0000 </r>
       <r>   13.7817    0.0000 </r>
      </set>
      <set comment="kpoint 48">
       <r>   -3.9432    1.0000 </r>
       <r>   -0.5321    1.0000 </r>
       <r>    3.3843    1.0000 </r>
       <r>    4.5912    1.0000 </r>
       <r>    8.2282    0.0000 </r>
       <r>    9.4759    0.0000 </r>
       <r>    9.7294    0.0000 </r>
       <r>   13.7817    0.0000 </r>
      </set>
      <set comment="kpoint 49">
       <r>   -3.9432    1.0000 </r>
       <r>   -0.5321    1.0000 </r>
       <r>    3.3843    1.0000 </r>
       <r>    4.5912    1.0000 </r>
       <r>    8.2282    0.0000 </r>
       <r>    9.4759    0.0000 </r>
       <r>    9.7294    0.0000 </r>
       <r>   13.7817    0.0000 </r>
      </set>
      <set comment="kpoint 50">
       <r>   -3.9432    1.0000 </r>
       <r>   -0.5321    1.0000 </r>
       <r>    3.3843    1.0000 </r>
       <r>    4.5912    1.0000 </r>
       <r>    8.2282    0.0000 </r>
       <r>    9.4759    0.0000 </r>
       <r>    9.7294    0.0000 </r>
       <r>   13.7817    0.0000 </r>
      </set>
      <set comment="kpoint 51">
       <r>   -3.9432    1.0000 </r>
       <r>   -0.5321    1.0000 </r>
       <r>    3.3843    1.0000 </r>
       <r>    4.5912    1.0000 </r>
       <r>    8.2282    0.0000 </r>
       <r>    9.4759    0.0000 </r>
       <r>    9.7294    0.0000 </r>
       <r>   13.7817    0.0000 </r>
      </set>
      <set comment="kpoint 52">
       <r>   -4.8690    1.0000 </r>
       <r>    1.2239    1.0000 </r>
       <r>    3.5355    1.0000 </r>
       <r>    5.0834    1.0000 </r>
       <r>    8.5876    0.0000 </r>
       <r>    9.5372    0.0000 </r>
       <r>    9.7118    0.0000 </r>
       <r>   12.1642    0.0000 </r>
      </set>
      <set comment="kpoint 53">
       <r>   -4.8690    1.0000 </r>
       <r>    1.2239    1.0000 </r>
       <r>    3.5355    1.0000 </r>
       <r>    5.0834    1.0000 </r>
       <r>    8.5876    0.0000 </r>
       <r>    9.5372    0.0000 </r>
       <r>    9.7118    0.0000 </r>
       <r>   12.1642    0.0000 </r>
      </set>
      <set comment="kpoint 54">
       <r>   -4.8690    1.0000 </r>
       <r>    1.2239    1.0000 </r>
       <r>    3.5355    1.0000 </r>
       <r>    5.0834    1.0000 </r>
       <r>    8.5876    0.0000 </r>
       <r>    9.5372    0.0000 </r>
       <r>    9.7118    0.0000 </r>
       <r>   12.1642    0.0000 </r>
      </set>
      <set comment="kpoint 55">
       <r>   -4.8690    1.0000 </r>
       <r>    1.2239    1.0000 </r>
       <r>    3.5355    1.0000 </r>
       <r>    5.0834    1.0000 </r>
       <r>    8.5876    0.0000 </r>
       <r>    9.5372    0.0000 </r>
       <r>    9.7118    0.0000 </r>
       <r>   12.1642    0.0000 </r>
      </set>
      <set comment="kpoint 56">
       <r>   -4.8690    1.0000 </r>
       <r>    1.2239    1.0000 </r>
       <r>    3.5355    1.0000 </r>
       <r>    5.0834    1.0000 </r>
       <r>    8.5876    0.0000 </r>
       <r>    9.5372    0.0000 </r>
       <r>    9.7118    0.0000 </r>
       <r>   12.1642    0.0000 </r>
      </set>
      <set comment="kpoint 57">
       <r>   -4.8690    1.0000 </r>
       <r>    1.2239    1.0000 </r>
       <r>    3.5355    1.0000 </r>
       <r>    5.0834    1.0000 </r>
       <r>    8.5876    0.0000 </r>
       <r>    9.5372    0.0000 </r>
       <r>    9.7118    0.0000 </r>
       <r>   12.1642    0.0000 </r>
      </set>
      <set comment="kpoint 58">
       <r>   -4.8690    1.0000 </r>
       <r>    1.2239    1.0000 </r>
       <r>    3.5355    1.0000 </r>
       <r>    5.0834    1.0000 </r>
       <r>    8.5876    0.0000 </r>
       <r>    9.5372    0.0000 </r>
       <r>    9.7118    0.0000 </r>
       <r>   12.1642    0.0000 </r>
      </set>
      <set comment="kpoint 59">
       <r>   -4.8690    1.0000 </r>
       <r>    1.2239    1.0000 </r>
       <r>    3.5355    1.0000 </r>
       <r>    5.0834    1.0000 </r>
       <r>    8.5876    0.0000 </r>
       <r>    9.5372    0.0000 </r>
       <r>    9.7118    0.0000 </r>
       <r>   12.1642    0.0000 </r>
      </set>
      <set comment="kpoint 60">
       <r>   -5.5807    1.0000 </r>
       <r>    3.1700    1.0000 </r>
       <r>    4.2181    1.0000 </r>
       <r>    5.5641    1.0000 </r>
       <r>    8.9128    0.0000 </r>
       <r>    8.9814    0.0000 </r>
       <r>    9.2144    0.0000 </r>
       <r>   11.4201    0.0000 </r>
      </set>
      <set comment="kpoint 61">
       <r>   -5.5807    1.0000 </r>
       <r>    3.1700    1.0000 </r>
       <r>    4.2181    1.0000 </r>
       <r>    5.5641    1.0000 </r>
       <r>    8.9128    0.0000 </r>
       <r>    8.9814    0.0000 </r>
       <r>    9.2144    0.0000 </r>
       <r>   11.4201    0.0000 </r>
      </set>
      <set comment="kpoint 62">
       <r>   -5.5807    1.0000 </r>
       <r>    3.1700    1.0000 </r>
       <r>    4.2181    1.0000 </r>
       <r>    5.5641    1.0000 </r>
       <r>    8.9128    0.0000 </r>
       <r>    8.9814    0.0000 </r>
       <r>    9.2144    0.0000 </r>
       <r>   11.4201    0.0000 </r>
      </set>
      <set comment="kpoint 63">
       <r>   -5.5807    1.0000 </r>
       <r>    3.1700    1.0000 </r>
       <r>    4.2181    1.0000 </r>
       <r>    5.5641    1.0000 </r>
       <r>    8.9128    0.0000 </r>
       <r>    8.9814    0.0000 </r>
       <r>    9.2144    0.0000 </r>
       <r>   11.4201    0.0000 </r>
      </set>
      <set comment="kpoint 64">
       <r>   -5.0395    1.0000 </r>
       <r>    2.3337    1.0000 </r>
       <r>    3.9618    1.0000 </r>
       <r>    3.9664    1.0000 </r>
       <r>    6.9889    0.0000 </r>
       <r>    8.9874    0.0000 </r>
       <r>   11.6067    0.0000 </r>
       <r>   11.6352    0.0000 </r>
      </set>
      <set comment="kpoint 65">
       <r>   -5.0395    1.0000 </r>
       <r>    2.3337    1.0000 </r>
       <r>    3.9618    1.0000 </r>
       <r>    3.9664    1.0000 </r>
       <r>    6.9889    0.0000 </r>
       <r>    8.9874    0.0000 </r>
       <r>   11.6067    0.0000 </r>
       <r>   11.6352    0.0000 </r>
      </set>
      <set comment="kpoint 66">
       <r>   -4.3283    1.0000 </r>
       <r>    0.9095    1.0000 </r>
       <r>    3.1788    1.0000 </r>
       <r>    3.6461    1.0000 </r>
       <r>    7.2098    0.0000 </r>
       <r>    8.7522    0.0000 </r>
       <r>   11.8627    0.0000 </r>
       <r>   12.1374    0.0000 </r>
      </set>
      <set comment="kpoint 67">
       <r>   -4.3283    1.0000 </r>
       <r>    0.9095    1.0000 </r>
       <r>    3.1788    1.0000 </r>
       <r>    3.6461    1.0000 </r>
       <r>    7.2098    0.0000 </r>
       <r>    8.7522    0.0000 </r>
       <r>   11.8627    0.0000 </r>
       <r>   12.1374    0.0000 </r>
      </set>
      <set comment="kpoint 68">
       <r>   -4.3283    1.0000 </r>
       <r>    0.9095    1.0000 </r>
       <r>    3.1788    1.0000 </r>
       <r>    3.6461    1.0000 </r>
       <r>    7.2098    0.0000 </r>
       <r>    8.7522    0.0000 </r>
       <r>   11.8627    0.0000 </r>
       <r>   12.1374    0.0000 </r>
      </set>
      <set comment="kpoint 69">
       <r>   -4.3283    1.0000 </r>
       <r>    0.9095    1.0000 </r>
       <r>    3.1788    1.0000 </r>
       <r>    3.6461    1.0000 </r>
       <r>    7.2098    0.0000 </r>
       <r>    8.7522    0.0000 </r>
       <r>   11.8627    0.0000 </r>
       <r>   12.1374    0.0000 </r>
      </set>
      <set comment="kpoint 70">
       <r>   -4.3283    1.0000 </r>
       <r>    0.9095    1.0000 </r>
       <r>    3.1788    1.0000 </r>
       <r>    3.6461    1.0000 </r>
       <r>    7.2098    0.0000 </r>
       <r>    8.7522    0.0000 </r>
       <r>   11.8627    0.0000 </r>
       <r>   12.1374    0.0000 </r>
      </set>
      <set comment="kpoint 71">
       <r>   -4.3283    1.0000 </r>
       <r>    0.9095    1.0000 </r>
       <r>    3.1788    1.0000 </r>
       <r>    3.6461    1.0000 </r>
       <r>    7.2098    0.0000 </r>
       <r>    8.7522    0.0000 </r>
       <r>   11.8627    0.0000 </r>
       <r>   12.1374    0.0000 </r>
      </set>
      <set comment="kpoint 72">
       <r>   -4.3283    1.0000 </r>
       <r>    0.9095    1.0000 </r>
       <r>    3.1788    1.0000 </r>
       <r>    3.6461    1.0000 </r>
       <r>    7.2098    0.0000 </r>
       <r>    8.7522    0.0000 </r>
       <r>   11.8627    0.0000 </r>
       <r>   12.1374    0.0000 </r>
      </set>
      <set comment="kpoint 73">
       <r>   -4.3283    1.0000 </r>
       <r>    0.9095    1.0000 </r>
       <r>    3.1788    1.0000 </r>
       <r>    3.6461    1.0000 </r>
       <r>    7.2098    0.0000 </r>
       <r>    8.7522    0.0000 </r>
       <r>   11.8627    0.0000 </r>
       <r>   12.1374    0.0000 </r>
      </set>
      <set comment="kpoint 74">
       <r>   -3.3998    1.0000 </r>
       <r>   -0.5344    1.0000 </r>
       <r>    2.3106    1.0000 </r>
       <r>    3.6498    1.0000 </r>
       <r>    7.3781    0.0000 </r>
       <r>   10.3144    0.0000 </r>
       <r>   11.6104    0.0000 </r>
       <r>   11.7874    0.0000 </r>
      </set>
      <set comment="kpoint 75">
       <r>   -3.3998    1.0000 </r>
       <r>   -0.5344    1.0000 </r>
       <r>    2.3106    1.0000 </r>
       <r>    3.6498    1.0000 </r>
       <r>    7.3781    0.0000 </r>
       <r>   10.3144    0.0000 </r>
       <r>   11.6104    0.0000 </r>
       <r>   11.7874    0.0000 </r>
      </set>
      <set comment="kpoint 76">
       <r>   -3.3998    1.0000 </r>
       <r>   -0.5344    1.0000 </r>
       <r>    2.3106    1.0000 </r>
       <r>    3.6498    1.0000 </r>
       <r>    7.3781    0.0000 </r>
       <r>   10.3144    0.0000 </r>
       <r>   11.6104    0.0000 </r>
       <r>   11.7874    0.0000 </r>
      </set>
      <set comment="kpoint 77">
       <r>   -3.3998    1.0000 </r>
       <r>   -0.5344    1.0000 </r>
       <r>    2.3106    1.0000 </r>
       <r>    3.6498    1.0000 </r>
       <r>    7.3781    0.0000 </r>
       <r>   10.3144    0.0000 </r>
       <r>   11.6104    0.0000 </r>
       <r>   11.7874    0.0000 </r>
      </set>
      <set comment="kpoint 78">
       <r>   -3.3998    1.0000 </r>
       <r>   -0.5344    1.0000 </r>
       <r>    2.3106    1.0000 </r>
       <r>    3.6498    1.0000 </r>
       <r>    7.3781    0.0000 </r>
       <r>   10.3144    0.0000 </r>
       <r>   11.6104    0.0000 </r>
       <r>   11.7874    0.0000 </r>
      </set>
      <set comment="kpoint 79">
       <r>   -3.3998    1.0000 </r>
       <r>   -0.5344    1.0000 </r>
       <r>    2.3106    1.0000 </r>
       <r>    3.6498    1.0000 </r>
       <r>    7.3781    0.0000 </r>
       <r>   10.3144    0.0000 </r>
       <r>   11.6104    0.0000 </r>
       <r>   11.7874    0.0000 </r>
      </set>
      <set comment="kpoint 80">
       <r>   -3.3998    1.0000 </r>
       <r>   -0.5344    1.0000 </r>
       <r>    2.3106    1.0000 </r>
       <r>    3.6498    1.0000 </r>
       <r>    7.3781    0.0000 </r>
       <r>   10.3144    0.0000 </r>
       <r>   11.6104    0.0000 </r>
       <r>   11.7874    0.0000 </r>
      </set>
      <set comment="kpoint 81">
       <r>   -3.3998    1.0000 </r>
       <r>   -0.5344    1.0000 </r>
       <r>    2.3106    1.0000 </r>
       <r>    3.6498    1.0000 </r>
       <r>    7.3781    0.0000 </r>
       <r>   10.3144    0.0000 </r>
       <r>   11.6104    0.0000 </r>
       <r>   11.7874    0.0000 </r>
      </set>
      <set comment="kpoint 82">
       <r>   -3.1927    1.0000 </r>
       <r>   -0.7952    1.0000 </r>
       <r>    1.8498    1.0000 </r>
       <r>    3.9692    1.0000 </r>
       <r>    7.7049    0.0000 </r>
       <r>   11.3165    0.0000 </r>
       <r>   11.3538    0.0000 </r>
       <r>   12.8369    0.0000 </r>
      </set>
      <set comment="kpoint 83">
       <r>   -3.1927    1.0000 </r>
       <r>   -0.7952    1.0000 </r>
       <r>    1.8498    1.0000 </r>
       <r>    3.9692    1.0000 </r>
       <r>    7.7049    0.0000 </r>
       <r>   11.3165    0.0000 </r>
       <r>   11.3538    0.0000 </r>
       <r>   12.8369    0.0000 </r>
      </set>
      <set comment="kpoint 84">
       <r>   -3.1927    1.0000 </r>
       <r>   -0.7952    1.0000 </r>
       <r>    1.8498    1.0000 </r>
       <r>    3.9692    1.0000 </r>
       <r>    7.7049    0.0000 </r>
       <r>   11.3165    0.0000 </r>
       <r>   11.3538    0.0000 </r>
       <r>   12.8369    0.0000 </r>
      </set>
      <set comment="kpoint 85">
       <r>   -3.1927    1.0000 </r>
       <r>   -0.7952    1.0000 </r>
       <r>    1.8498    1.0000 </r>
       <r>    3.9692    1.0000 </r>
       <r>    7.7049    0.0000 </r>
       <r>   11.3165    0.0000 </r>
       <r>   11.3538    0.0000 </r>
       <r>   12.8369    0.0000 </r>
      </set>
      <set comment="kpoint 86">
       <r>   -3.1927    1.0000 </r>
       <r>   -0.7952    1.0000 </r>
       <r>    1.8498    1.0000 </r>
       <r>    3.9692    1.0000 </r>
       <r>    7.7049    0.0000 </r>
       <r>   11.3165    0.0000 </r>
       <r>   11.3538    0.0000 </r>
       <r>   12.8369    0.0000 </r>
      </set>
      <set comment="kpoint 87">
       <r>   -3.1927    1.0000 </r>
       <r>   -0.7952    1.0000 </r>
       <r>    1.8498    1.0000 </r>
       <r>    3.9692    1.0000 </r>
       <r>    7.7049    0.0000 </r>
       <r>   11.3165    0.0000 </r>
       <r>   11.3538    0.0000 </r>
       <r>   12.8369    0.0000 </r>
      </set>
      <set comment="kpoint 88">
       <r>   -3.1927    1.0000 </r>
       <r>   -0.7952    1.0000 </r>
       <r>    1.8498    1.0000 </r>
       <r>    3.9692    1.0000 </r>
       <r>    7.7049    0.0000 </r>
       <r>   11.3165    0.0000 </r>
       <r>   11.3538    0.0000 </r>
       <r>   12.8369    0.0000 </r>
      </set>
      <set comment="kpoint 89">
       <r>   -3.1927    1.0000 </r>
       <r>   -0.7952    1.0000 </r>
       <r>    1.8498    1.0000 </r>
       <r>    3.9692    1.0000 </r>
       <r>    7.7049    0.0000 </r>
       <r>   11.3165    0.0000 </r>
       <r>   11.3538    0.0000 </r>
       <r>   12.8369    0.0000 </r>
      </set>
      <set comment="kpoint 90">
       <r>   -4.0732    1.0000 </r>
       <r>    0.3685    1.0000 </r>
       <r>    2.0896    1.0000 </r>
       <r>    4.5288    1.0000 </r>
       <r>    8.3142    0.0000 </r>
       <r>   10.6519    0.0000 </r>
       <r>   10.9904    0.0000 </r>
       <r>   12.0156    0.0000 </r>
      </set>
      <set comment="kpoint 91">
       <r>   -4.0732    1.0000 </r>
       <r>    0.3685    1.0000 </r>
       <r>    2.0896    1.0000 </r>
       <r>    4.5288    1.0000 </r>
       <r>    8.3142    0.0000 </r>
       <r>   10.6519    0.0000 </r>
       <r>   10.9904    0.0000 </r>
       <r>   12.0156    0.0000 </r>
      </set>
      <set comment="kpoint 92">
       <r>   -4.0732    1.0000 </r>
       <r>    0.3685    1.0000 </r>
       <r>    2.0896    1.0000 </r>
       <r>    4.5288    1.0000 </r>
       <r>    8.3142    0.0000 </r>
       <r>   10.6519    0.0000 </r>
       <r>   10.9904    0.0000 </r>
       <r>   12.0156    0.0000 </r>
      </set>
      <set comment="kpoint 93">
       <r>   -4.0732    1.0000 </r>
       <r>    0.3685    1.0000 </r>
       <r>    2.0896    1.0000 </r>
       <r>    4.5288    1.0000 </r>
       <r>    8.3142    0.0000 </r>
       <r>   10.6519    0.0000 </r>
       <r>   10.9904    0.0000 </r>
       <r>   12.0156    0.0000 </r>
      </set>
      <set comment="kpoint 94">
       <r>   -3.7254    1.0000 </r>
       <r>    0.1018    1.0000 </r>
       <r>    3.2462    1.0000 </r>
       <r>    3.2483    1.0000 </r>
       <r>    6.4723    0.0000 </r>
       <r>    7.3936    0.0000 </r>
       <r>   13.8919    0.0000 </r>
       <r>   13.9329    0.0000 </r>
      </set>
      <set comment="kpoint 95">
       <r>   -3.7254    1.0000 </r>
       <r>    0.1018    1.0000 </r>
       <r>    3.2462    1.0000 </r>
       <r>    3.2483    1.0000 </r>
       <r>    6.4723    0.0000 </r>
       <r>    7.3936    0.0000 </r>
       <r>   13.8919    0.0000 </r>
       <r>   13.9329    0.0000 </r>
      </set>
      <set comment="kpoint 96">
       <r>   -2.8264    1.0000 </r>
       <r>   -0.9841    1.0000 </r>
       <r>    2.4137    1.0000 </r>
       <r>    3.1712    1.0000 </r>
       <r>    6.7512    0.0000 </r>
       <r>    7.8272    0.0000 </r>
       <r>   14.1346    0.0000 </r>
       <r>   14.2334    0.0000 </r>
      </set>
      <set comment="kpoint 97">
       <r>   -2.8264    1.0000 </r>
       <r>   -0.9841    1.0000 </r>
       <r>    2.4137    1.0000 </r>
       <r>    3.1712    1.0000 </r>
       <r>    6.7512    0.0000 </r>
       <r>    7.8272    0.0000 </r>
       <r>   14.1346    0.0000 </r>
       <r>   14.2334    0.0000 </r>
      </set>
      <set comment="kpoint 98">
       <r>   -2.8264    1.0000 </r>
       <r>   -0.9841    1.0000 </r>
       <r>    2.4137    1.0000 </r>
       <r>    3.1712    1.0000 </r>
       <r>    6.7512    0.0000 </r>
       <r>    7.8272    0.0000 </r>
       <r>   14.1346    0.0000 </r>
       <r>   14.2334    0.0000 </r>
      </set>
      <set comment="kpoint 99">
       <r>   -2.8264    1.0000 </r>
       <r>   -0.9841    1.0000 </r>
       <r>    2.4137    1.0000 </r>
       <r>    3.1712    1.0000 </r>
       <r>    6.7512    0.0000 </r>
       <r>    7.8272    0.0000 </r>
       <r>   14.1346    0.0000 </r>
       <r>   14.2334    0.0000 </r>
      </set>
      <set comment="kpoint 100">
       <r>   -2.8264    1.0000 </r>
       <r>   -0.9841    1.0000 </r>
       <r>    2.4137    1.0000 </r>
       <r>    3.1712    1.0000 </r>
       <r>    6.7512    0.0000 </r>
       <r>    7.8272    0.0000 </r>
       <r>   14.1346    0.0000 </r>
       <r>   14.2334    0.0000 </r>
      </set>
      <set comment="kpoint 101">
       <r>   -2.8264    1.0000 </r>
       <r>   -0.9841    1.0000 </r>
       <r>    2.4137    1.0000 </r>
       <r>    3.1712    1.0000 </r>
       <r>    6.7512    0.0000 </r>
       <r>    7.8272    0.0000 </r>
       <r>   14.1346    0.0000 </r>
       <r>   14.2334    0.0000 </r>
      </set>
      <set comment="kpoint 102">
       <r>   -2.8264    1.0000 </r>
       <r>   -0.9841    1.0000 </r>
       <r>    2.4137    1.0000 </r>
       <r>    3.1712    1.0000 </r>
       <r>    6.7512    0.0000 </r>
       <r>    7.8272    0.0000 </r>
       <r>   14.1346    0.0000 </r>
       <r>   14.2334    0.0000 </r>
      </set>
      <set comment="kpoint 103">
       <r>   -2.8264    1.0000 </r>
       <r>   -0.9841    1.0000 </r>
       <r>    2.4137    1.0000 </r>
       <r>    3.1712    1.0000 </r>
       <r>    6.7512    0.0000 </r>
       <r>    7.8272    0.0000 </r>
       <r>   14.1346    0.0000 </r>
       <r>   14.2334    0.0000 </r>
      </set>
      <set comment="kpoint 104">
       <r>   -2.3840    1.0000 </r>
       <r>   -1.3818    1.0000 </r>
       <r>    1.5418    1.0000 </r>
       <r>    3.4296    1.0000 </r>
       <r>    7.0616    0.0000 </r>
       <r>    9.9961    0.0000 </r>
       <r>   13.3409    0.0000 </r>
       <r>   13.8805    0.0000 </r>
      </set>
      <set comment="kpoint 105">
       <r>   -2.3840    1.0000 </r>
       <r>   -1.3818    1.0000 </r>
       <r>    1.5418    1.0000 </r>
       <r>    3.4296    1.0000 </r>
       <r>    7.0616    0.0000 </r>
       <r>    9.9961    0.0000 </r>
       <r>   13.3409    0.0000 </r>
       <r>   13.8805    0.0000 </r>
      </set>
      <set comment="kpoint 106">
       <r>   -2.3840    1.0000 </r>
       <r>   -1.3818    1.0000 </r>
       <r>    1.5418    1.0000 </r>
       <r>    3.4296    1.0000 </r>
       <r>    7.0616    0.0000 </r>
       <r>    9.9961    0.0000 </r>
       <r>   13.3409    0.0000 </r>
       <r>   13.8805    0.0000 </r>
      </set>
      <set comment="kpoint 107">
       <r>   -2.3840    1.0000 </r>
       <r>   -1.3818    1.0000 </r>
       <r>    1.5418    1.0000 </r>
       <r>    3.4296    1.0000 </r>
       <r>    7.0616    0.0000 </r>
       <r>    9.9961    0.0000 </r>
       <r>   13.3409    0.0000 </r>
       <r>   13.8805    0.0000 </r>
      </set>
      <set comment="kpoint 108">
       <r>   -1.9732    1.0000 </r>
       <r>   -1.9732    1.0000 </r>
       <r>    3.0014    1.0000 </r>
       <r>    3.0014    1.0000 </r>
       <r>    6.5656    0.0000 </r>
       <r>    6.5656    0.0000 </r>
       <r>   15.9934    0.0000 </r>
       <r>   15.9934    0.0000 </r>
      </set>
      <set comment="kpoint 109">
       <r>   -1.9732    1.0000 </r>
       <r>   -1.9732    1.0000 </r>
       <r>    3.0014    1.0000 </r>
       <r>    3.0014    1.0000 </r>
       <r>    6.5656    0.0000 </r>
       <r>    6.5656    0.0000 </r>
       <r>   15.9934    0.0000 </r>
       <r>   15.9934    0.0000 </r>
      </set>
      <set comment="kpoint 110">
       <r>   -5.8485    1.0000 </r>
       <r>    4.5315    1.0000 </r>
       <r>    5.0391    1.0000 </r>
       <r>    5.0391    1.0000 </r>
       <r>    7.8603    0.0000 </r>
       <r>    9.5668    0.0000 </r>
       <r>    9.5668    0.0000 </r>
       <r>   10.2770    0.0000 </r>
      </set>
      <set comment="kpoint 111">
       <r>   -5.5817    1.0000 </r>
       <r>    3.1708    1.0000 </r>
       <r>    4.2286    1.0000 </r>
       <r>    5.5529    1.0000 </r>
       <r>    8.9013    0.0000 </r>
       <r>    8.9843    0.0000 </r>
       <r>    9.2282    0.0000 </r>
       <r>   11.4269    0.0000 </r>
      </set>
      <set comment="kpoint 112">
       <r>   -5.5817    1.0000 </r>
       <r>    3.1708    1.0000 </r>
       <r>    4.2286    1.0000 </r>
       <r>    5.5529    1.0000 </r>
       <r>    8.9013    0.0000 </r>
       <r>    8.9843    0.0000 </r>
       <r>    9.2282    0.0000 </r>
       <r>   11.4269    0.0000 </r>
      </set>
      <set comment="kpoint 113">
       <r>   -4.8706    1.0000 </r>
       <r>    1.2273    1.0000 </r>
       <r>    3.5468    1.0000 </r>
       <r>    5.0694    1.0000 </r>
       <r>    8.5762    0.0000 </r>
       <r>    9.5353    0.0000 </r>
       <r>    9.7238    0.0000 </r>
       <r>   12.1731    0.0000 </r>
      </set>
      <set comment="kpoint 114">
       <r>   -4.8706    1.0000 </r>
       <r>    1.2273    1.0000 </r>
       <r>    3.5468    1.0000 </r>
       <r>    5.0694    1.0000 </r>
       <r>    8.5762    0.0000 </r>
       <r>    9.5353    0.0000 </r>
       <r>    9.7238    0.0000 </r>
       <r>   12.1731    0.0000 </r>
      </set>
      <set comment="kpoint 115">
       <r>   -4.8706    1.0000 </r>
       <r>    1.2273    1.0000 </r>
       <r>    3.5468    1.0000 </r>
       <r>    5.0694    1.0000 </r>
       <r>    8.5762    0.0000 </r>
       <r>    9.5353    0.0000 </r>
       <r>    9.7238    0.0000 </r>
       <r>   12.1731    0.0000 </r>
      </set>
      <set comment="kpoint 116">
       <r>   -4.8706    1.0000 </r>
       <r>    1.2273    1.0000 </r>
       <r>    3.5468    1.0000 </r>
       <r>    5.0694    1.0000 </r>
       <r>    8.5762    0.0000 </r>
       <r>    9.5353    0.0000 </r>
       <r>    9.7238    0.0000 </r>
       <r>   12.1731    0.0000 </r>
      </set>
      <set comment="kpoint 117">
       <r>   -3.9447    1.0000 </r>
       <r>   -0.5290    1.0000 </r>
       <r>    3.3979    1.0000 </r>
       <r>    4.5760    1.0000 </r>
       <r>    8.2127    0.0000 </r>
       <r>    9.4935    0.0000 </r>
       <r>    9.7209    0.0000 </r>
       <r>   13.7898    0.0000 </r>
      </set>
      <set comment="kpoint 118">
       <r>   -3.9447    1.0000 </r>
       <r>   -0.5290    1.0000 </r>
       <r>    3.3979    1.0000 </r>
       <r>    4.5760    1.0000 </r>
       <r>    8.2127    0.0000 </r>
       <r>    9.4935    0.0000 </r>
       <r>    9.7209    0.0000 </r>
       <r>   13.7898    0.0000 </r>
      </set>
      <set comment="kpoint 119">
       <r>   -3.9447    1.0000 </r>
       <r>   -0.5290    1.0000 </r>
       <r>    3.3979    1.0000 </r>
       <r>    4.5760    1.0000 </r>
       <r>    8.2127    0.0000 </r>
       <r>    9.4935    0.0000 </r>
       <r>    9.7209    0.0000 </r>
       <r>   13.7898    0.0000 </r>
      </set>
      <set comment="kpoint 120">
       <r>   -3.9447    1.0000 </r>
       <r>   -0.5290    1.0000 </r>
       <r>    3.3979    1.0000 </r>
       <r>    4.5760    1.0000 </r>
       <r>    8.2127    0.0000 </r>
       <r>    9.4935    0.0000 </r>
       <r>    9.7209    0.0000 </r>
       <r>   13.7898    0.0000 </r>
      </set>
      <set comment="kpoint 121">
       <r>   -3.6973    1.0000 </r>
       <r>   -0.9033    1.0000 </r>
       <r>    3.5807    1.0000 </r>
       <r>    4.2792    1.0000 </r>
       <r>    8.0435    0.0000 </r>
       <r>    9.3884    0.0000 </r>
       <r>    9.9513    0.0000 </r>
       <r>   13.2213    0.0000 </r>
      </set>
      <set comment="kpoint 122">
       <r>   -3.6973    1.0000 </r>
       <r>   -0.9033    1.0000 </r>
       <r>    3.5807    1.0000 </r>
       <r>    4.2792    1.0000 </r>
       <r>    8.0435    0.0000 </r>
       <r>    9.3884    0.0000 </r>
       <r>    9.9513    0.0000 </r>
       <r>   13.2213    0.0000 </r>
      </set>
      <set comment="kpoint 123">
       <r>   -3.6973    1.0000 </r>
       <r>   -0.9033    1.0000 </r>
       <r>    3.5807    1.0000 </r>
       <r>    4.2792    1.0000 </r>
       <r>    8.0435    0.0000 </r>
       <r>    9.3884    0.0000 </r>
       <r>    9.9513    0.0000 </r>
       <r>   13.2213    0.0000 </r>
      </set>
      <set comment="kpoint 124">
       <r>   -3.6973    1.0000 </r>
       <r>   -0.9033    1.0000 </r>
       <r>    3.5807    1.0000 </r>
       <r>    4.2792    1.0000 </r>
       <r>    8.0435    0.0000 </r>
       <r>    9.3884    0.0000 </r>
       <r>    9.9513    0.0000 </r>
       <r>   13.2213    0.0000 </r>
      </set>
      <set comment="kpoint 125">
       <r>   -4.5608    1.0000 </r>
       <r>    0.5633    1.0000 </r>
       <r>    4.0257    1.0000 </r>
       <r>    4.2556    1.0000 </r>
       <r>    8.0968    0.0000 </r>
       <r>    9.5165    0.0000 </r>
       <r>   10.3181    0.0000 </r>
       <r>   11.3187    0.0000 </r>
      </set>
      <set comment="kpoint 126">
       <r>   -4.5608    1.0000 </r>
       <r>    0.5633    1.0000 </r>
       <r>    4.0257    1.0000 </r>
       <r>    4.2556    1.0000 </r>
       <r>    8.0968    0.0000 </r>
       <r>    9.5165    0.0000 </r>
       <r>   10.3181    0.0000 </r>
       <r>   11.3187    0.0000 </r>
      </set>
      <set comment="kpoint 127">
       <r>   -4.5608    1.0000 </r>
       <r>    0.5633    1.0000 </r>
       <r>    4.0257    1.0000 </r>
       <r>    4.2556    1.0000 </r>
       <r>    8.0968    0.0000 </r>
       <r>    9.5165    0.0000 </r>
       <r>   10.3181    0.0000 </r>
       <r>   11.3187    0.0000 </r>
      </set>
      <set comment="kpoint 128">
       <r>   -4.5608    1.0000 </r>
       <r>    0.5633    1.0000 </r>
       <r>    4.0257    1.0000 </r>
       <r>    4.2556    1.0000 </r>
       <r>    8.0968    0.0000 </r>
       <r>    9.5165    0.0000 </r>
       <r>   10.3181    0.0000 </r>
       <r>   11.3187    0.0000 </r>
      </set>
      <set comment="kpoint 129">
       <r>   -5.3781    1.0000 </r>
       <r>    2.6299    1.0000 </r>
       <r>    4.5253    1.0000 </r>
       <r>    4.6136    1.0000 </r>
       <r>    7.9949    0.0000 </r>
       <r>    9.5777    0.0000 </r>
       <r>   10.3295    0.0000 </r>
       <r>   10.6152    0.0000 </r>
      </set>
      <set comment="kpoint 130">
       <r>   -5.3781    1.0000 </r>
       <r>    2.6299    1.0000 </r>
       <r>    4.5253    1.0000 </r>
       <r>    4.6136    1.0000 </r>
       <r>    7.9949    0.0000 </r>
       <r>    9.5777    0.0000 </r>
       <r>   10.3295    0.0000 </r>
       <r>   10.6152    0.0000 </r>
      </set>
      <set comment="kpoint 131">
       <r>   -5.3781    1.0000 </r>
       <r>    2.6299    1.0000 </r>
       <r>    4.5253    1.0000 </r>
       <r>    4.6136    1.0000 </r>
       <r>    7.9949    0.0000 </r>
       <r>    9.5777    0.0000 </r>
       <r>   10.3295    0.0000 </r>
       <r>   10.6152    0.0000 </r>
      </set>
      <set comment="kpoint 132">
       <r>   -5.3781    1.0000 </r>
       <r>    2.6299    1.0000 </r>
       <r>    4.5253    1.0000 </r>
       <r>    4.6136    1.0000 </r>
       <r>    7.9949    0.0000 </r>
       <r>    9.5777    0.0000 </r>
       <r>   10.3295    0.0000 </r>
       <r>   10.6152    0.0000 </r>
      </set>
      <set comment="kpoint 133">
       <r>   -4.7916    1.0000 </r>
       <r>    1.5648    1.0000 </r>
       <r>    3.1422    1.0000 </r>
       <r>    4.4180    1.0000 </r>
       <r>    8.3086    0.0000 </r>
       <r>    9.7621    0.0000 </r>
       <r>   10.0412    0.0000 </r>
       <r>   11.3767    0.0000 </r>
      </set>
      <set comment="kpoint 134">
       <r>   -4.7916    1.0000 </r>
       <r>    1.5648    1.0000 </r>
       <r>    3.1422    1.0000 </r>
       <r>    4.4180    1.0000 </r>
       <r>    8.3086    0.0000 </r>
       <r>    9.7621    0.0000 </r>
       <r>   10.0412    0.0000 </r>
       <r>   11.3767    0.0000 </r>
      </set>
      <set comment="kpoint 135">
       <r>   -4.7916    1.0000 </r>
       <r>    1.5648    1.0000 </r>
       <r>    3.1422    1.0000 </r>
       <r>    4.4180    1.0000 </r>
       <r>    8.3086    0.0000 </r>
       <r>    9.7621    0.0000 </r>
       <r>   10.0412    0.0000 </r>
       <r>   11.3767    0.0000 </r>
      </set>
      <set comment="kpoint 136">
       <r>   -4.7916    1.0000 </r>
       <r>    1.5648    1.0000 </r>
       <r>    3.1422    1.0000 </r>
       <r>    4.4180    1.0000 </r>
       <r>    8.3086    0.0000 </r>
       <r>    9.7621    0.0000 </r>
       <r>   10.0412    0.0000 </r>
       <r>   11.3767    0.0000 </r>
      </set>
      <set comment="kpoint 137">
       <r>   -3.9013    1.0000 </r>
       <r>    0.0108    1.0000 </r>
       <r>    2.5331    1.0000 </r>
       <r>    3.9152    1.0000 </r>
       <r>    8.7370    0.0000 </r>
       <r>    9.3995    0.0000 </r>
       <r>   10.8842    0.0000 </r>
       <r>   11.8106    0.0000 </r>
      </set>
      <set comment="kpoint 138">
       <r>   -3.9013    1.0000 </r>
       <r>    0.0108    1.0000 </r>
       <r>    2.5331    1.0000 </r>
       <r>    3.9152    1.0000 </r>
       <r>    8.7370    0.0000 </r>
       <r>    9.3995    0.0000 </r>
       <r>   10.8842    0.0000 </r>
       <r>   11.8106    0.0000 </r>
      </set>
      <set comment="kpoint 139">
       <r>   -3.9013    1.0000 </r>
       <r>    0.0108    1.0000 </r>
       <r>    2.5331    1.0000 </r>
       <r>    3.9152    1.0000 </r>
       <r>    8.7370    0.0000 </r>
       <r>    9.3995    0.0000 </r>
       <r>   10.8842    0.0000 </r>
       <r>   11.8106    0.0000 </r>
      </set>
      <set comment="kpoint 140">
       <r>   -3.9013    1.0000 </r>
       <r>    0.0108    1.0000 </r>
       <r>    2.5331    1.0000 </r>
       <r>    3.9152    1.0000 </r>
       <r>    8.7370    0.0000 </r>
       <r>    9.3995    0.0000 </r>
       <r>   10.8842    0.0000 </r>
       <r>   11.8106    0.0000 </r>
      </set>
      <set comment="kpoint 141">
       <r>   -3.9013    1.0000 </r>
       <r>    0.0108    1.0000 </r>
       <r>    2.5331    1.0000 </r>
       <r>    3.9152    1.0000 </r>
       <r>    8.7370    0.0000 </r>
       <r>    9.3995    0.0000 </r>
       <r>   10.8842    0.0000 </r>
       <r>   11.8106    0.0000 </r>
      </set>
      <set comment="kpoint 142">
       <r>   -3.9013    1.0000 </r>
       <r>    0.0108    1.0000 </r>
       <r>    2.5331    1.0000 </r>
       <r>    3.9152    1.0000 </r>
       <r>    8.7370    0.0000 </r>
       <r>    9.3995    0.0000 </r>
       <r>   10.8842    0.0000 </r>
       <r>   11.8106    0.0000 </r>
      </set>
      <set comment="kpoint 143">
       <r>   -3.9013    1.0000 </r>
       <r>    0.0108    1.0000 </r>
       <r>    2.5331    1.0000 </r>
       <r>    3.9152    1.0000 </r>
       <r>    8.7370    0.0000 </r>
       <r>    9.3995    0.0000 </r>
       <r>   10.8842    0.0000 </r>
       <r>   11.8106    0.0000 </r>
      </set>
      <set comment="kpoint 144">
       <r>   -3.9013    1.0000 </r>
       <r>    0.0108    1.0000 </r>
       <r>    2.5331    1.0000 </r>
       <r>    3.9152    1.0000 </r>
       <r>    8.7370    0.0000 </r>
       <r>    9.3995    0.0000 </r>
       <r>   10.8842    0.0000 </r>
       <r>   11.8106    0.0000 </r>
      </set>
      <set comment="kpoint 145">
       <r>   -3.2448    1.0000 </r>
       <r>   -0.9391    1.0000 </r>
       <r>    2.4008    1.0000 </r>
       <r>    3.6892    1.0000 </r>
       <r>    8.9195    0.0000 </r>
       <r>    8.9830    0.0000 </r>
       <r>   11.7851    0.0000 </r>
       <r>   12.9748    0.0000 </r>
      </set>
      <set comment="kpoint 146">
       <r>   -3.2448    1.0000 </r>
       <r>   -0.9391    1.0000 </r>
       <r>    2.4008    1.0000 </r>
       <r>    3.6892    1.0000 </r>
       <r>    8.9195    0.0000 </r>
       <r>    8.9830    0.0000 </r>
       <r>   11.7851    0.0000 </r>
       <r>   12.9748    0.0000 </r>
      </set>
      <set comment="kpoint 147">
       <r>   -3.2448    1.0000 </r>
       <r>   -0.9391    1.0000 </r>
       <r>    2.4008    1.0000 </r>
       <r>    3.6892    1.0000 </r>
       <r>    8.9195    0.0000 </r>
       <r>    8.9830    0.0000 </r>
       <r>   11.7851    0.0000 </r>
       <r>   12.9748    0.0000 </r>
      </set>
      <set comment="kpoint 148">
       <r>   -3.2448    1.0000 </r>
       <r>   -0.9391    1.0000 </r>
       <r>    2.4008    1.0000 </r>
       <r>    3.6892    1.0000 </r>
       <r>    8.9195    0.0000 </r>
       <r>    8.9830    0.0000 </r>
       <r>   11.7851    0.0000 </r>
       <r>   12.9748    0.0000 </r>
      </set>
      <set comment="kpoint 149">
       <r>   -3.2448    1.0000 </r>
       <r>   -0.9391    1.0000 </r>
       <r>    2.4008    1.0000 </r>
       <r>    3.6892    1.0000 </r>
       <r>    8.9195    0.0000 </r>
       <r>    8.9830    0.0000 </r>
       <r>   11.7851    0.0000 </r>
       <r>   12.9748    0.0000 </r>
      </set>
      <set comment="kpoint 150">
       <r>   -3.2448    1.0000 </r>
       <r>   -0.9391    1.0000 </r>
       <r>    2.4008    1.0000 </r>
       <r>    3.6892    1.0000 </r>
       <r>    8.9195    0.0000 </r>
       <r>    8.9830    0.0000 </r>
       <r>   11.7851    0.0000 </r>
       <r>   12.9748    0.0000 </r>
      </set>
      <set comment="kpoint 151">
       <r>   -3.2448    1.0000 </r>
       <r>   -0.9391    1.0000 </r>
       <r>    2.4008    1.0000 </r>
       <r>    3.6892    1.0000 </r>
       <r>    8.9195    0.0000 </r>
       <r>    8.9830    0.0000 </r>
       <r>   11.7851    0.0000 </r>
       <r>   12.9748    0.0000 </r>
      </set>
      <set comment="kpoint 152">
       <r>   -3.2448    1.0000 </r>
       <r>   -0.9391    1.0000 </r>
       <r>    2.4008    1.0000 </r>
       <r>    3.6892    1.0000 </r>
       <r>    8.9195    0.0000 </r>
       <r>    8.9830    0.0000 </r>
       <r>   11.7851    0.0000 </r>
       <r>   12.9748    0.0000 </r>
      </set>
      <set comment="kpoint 153">
       <r>   -3.8973    1.0000 </r>
       <r>    0.0073    1.0000 </r>
       <r>    2.5240    1.0000 </r>
       <r>    3.9246    1.0000 </r>
       <r>    8.7223    0.0000 </r>
       <r>    9.4145    0.0000 </r>
       <r>   10.8672    0.0000 </r>
       <r>   11.8071    0.0000 </r>
      </set>
      <set comment="kpoint 154">
       <r>   -3.8973    1.0000 </r>
       <r>    0.0073    1.0000 </r>
       <r>    2.5240    1.0000 </r>
       <r>    3.9246    1.0000 </r>
       <r>    8.7223    0.0000 </r>
       <r>    9.4145    0.0000 </r>
       <r>   10.8672    0.0000 </r>
       <r>   11.8071    0.0000 </r>
      </set>
      <set comment="kpoint 155">
       <r>   -3.8973    1.0000 </r>
       <r>    0.0073    1.0000 </r>
       <r>    2.5240    1.0000 </r>
       <r>    3.9246    1.0000 </r>
       <r>    8.7223    0.0000 </r>
       <r>    9.4145    0.0000 </r>
       <r>   10.8672    0.0000 </r>
       <r>   11.8071    0.0000 </r>
      </set>
      <set comment="kpoint 156">
       <r>   -3.8973    1.0000 </r>
       <r>    0.0073    1.0000 </r>
       <r>    2.5240    1.0000 </r>
       <r>    3.9246    1.0000 </r>
       <r>    8.7223    0.0000 </r>
       <r>    9.4145    0.0000 </r>
       <r>   10.8672    0.0000 </r>
       <r>   11.8071    0.0000 </r>
      </set>
      <set comment="kpoint 157">
       <r>   -3.8973    1.0000 </r>
       <r>    0.0073    1.0000 </r>
       <r>    2.5240    1.0000 </r>
       <r>    3.9246    1.0000 </r>
       <r>    8.7223    0.0000 </r>
       <r>    9.4145    0.0000 </r>
       <r>   10.8672    0.0000 </r>
       <r>   11.8071    0.0000 </r>
      </set>
      <set comment="kpoint 158">
       <r>   -3.8973    1.0000 </r>
       <r>    0.0073    1.0000 </r>
       <r>    2.5240    1.0000 </r>
       <r>    3.9246    1.0000 </r>
       <r>    8.7223    0.0000 </r>
       <r>    9.4145    0.0000 </r>
       <r>   10.8672    0.0000 </r>
       <r>   11.8071    0.0000 </r>
      </set>
      <set comment="kpoint 159">
       <r>   -3.8973    1.0000 </r>
       <r>    0.0073    1.0000 </r>
       <r>    2.5240    1.0000 </r>
       <r>    3.9246    1.0000 </r>
       <r>    8.7223    0.0000 </r>
       <r>    9.4145    0.0000 </r>
       <r>   10.8672    0.0000 </r>
       <r>   11.8071    0.0000 </r>
      </set>
      <set comment="kpoint 160">
       <r>   -3.8973    1.0000 </r>
       <r>    0.0073    1.0000 </r>
       <r>    2.5240    1.0000 </r>
       <r>    3.9246    1.0000 </r>
       <r>    8.7223    0.0000 </r>
       <r>    9.4145    0.0000 </r>
       <r>   10.8672    0.0000 </r>
       <r>   11.8071    0.0000 </r>
      </set>
      <set comment="kpoint 161">
       <r>   -4.7882    1.0000 </r>
       <r>    1.5650    1.0000 </r>
       <r>    3.1291    1.0000 </r>
       <r>    4.4272    1.0000 </r>
       <r>    8.2911    0.0000 </r>
       <r>    9.7619    0.0000 </r>
       <r>   10.0530    0.0000 </r>
       <r>   11.3721    0.0000 </r>
      </set>
      <set comment="kpoint 162">
       <r>   -4.7882    1.0000 </r>
       <r>    1.5650    1.0000 </r>
       <r>    3.1291    1.0000 </r>
       <r>    4.4272    1.0000 </r>
       <r>    8.2911    0.0000 </r>
       <r>    9.7619    0.0000 </r>
       <r>   10.0530    0.0000 </r>
       <r>   11.3721    0.0000 </r>
      </set>
      <set comment="kpoint 163">
       <r>   -4.7882    1.0000 </r>
       <r>    1.5650    1.0000 </r>
       <r>    3.1291    1.0000 </r>
       <r>    4.4272    1.0000 </r>
       <r>    8.2911    0.0000 </r>
       <r>    9.7619    0.0000 </r>
       <r>   10.0530    0.0000 </r>
       <r>   11.3721    0.0000 </r>
      </set>
      <set comment="kpoint 164">
       <r>   -4.7882    1.0000 </r>
       <r>    1.5650    1.0000 </r>
       <r>    3.1291    1.0000 </r>
       <r>    4.4272    1.0000 </r>
       <r>    8.2911    0.0000 </r>
       <r>    9.7619    0.0000 </r>
       <r>   10.0530    0.0000 </r>
       <r>   11.3721    0.0000 </r>
      </set>
      <set comment="kpoint 165">
       <r>   -4.7908    1.0000 </r>
       <r>    1.5612    1.0000 </r>
       <r>    3.1342    1.0000 </r>
       <r>    4.4260    1.0000 </r>
       <r>    8.3126    0.0000 </r>
       <r>    9.7808    0.0000 </r>
       <r>   10.0533    0.0000 </r>
       <r>   11.3505    0.0000 </r>
      </set>
      <set comment="kpoint 166">
       <r>   -4.7908    1.0000 </r>
       <r>    1.5612    1.0000 </r>
       <r>    3.1342    1.0000 </r>
       <r>    4.4260    1.0000 </r>
       <r>    8.3126    0.0000 </r>
       <r>    9.7808    0.0000 </r>
       <r>   10.0533    0.0000 </r>
       <r>   11.3505    0.0000 </r>
      </set>
      <set comment="kpoint 167">
       <r>   -4.7908    1.0000 </r>
       <r>    1.5612    1.0000 </r>
       <r>    3.1342    1.0000 </r>
       <r>    4.4260    1.0000 </r>
       <r>    8.3126    0.0000 </r>
       <r>    9.7808    0.0000 </r>
       <r>   10.0533    0.0000 </r>
       <r>   11.3505    0.0000 </r>
      </set>
      <set comment="kpoint 168">
       <r>   -4.7908    1.0000 </r>
       <r>    1.5612    1.0000 </r>
       <r>    3.1342    1.0000 </r>
       <r>    4.4260    1.0000 </r>
       <r>    8.3126    0.0000 </r>
       <r>    9.7808    0.0000 </r>
       <r>   10.0533    0.0000 </r>
       <r>   11.3505    0.0000 </r>
      </set>
      <set comment="kpoint 169">
       <r>   -3.5260    1.0000 </r>
       <r>   -0.1139    1.0000 </r>
       <r>    2.4913    1.0000 </r>
       <r>    3.0887    1.0000 </r>
       <r>    7.8061    0.0000 </r>
       <r>    8.5023    0.0000 </r>
       <r>   11.6015    0.0000 </r>
       <r>   13.8788    0.0000 </r>
      </set>
      <set comment="kpoint 170">
       <r>   -3.5260    1.0000 </r>
       <r>   -0.1139    1.0000 </r>
       <r>    2.4913    1.0000 </r>
       <r>    3.0887    1.0000 </r>
       <r>    7.8061    0.0000 </r>
       <r>    8.5023    0.0000 </r>
       <r>   11.6015    0.0000 </r>
       <r>   13.8788    0.0000 </r>
      </set>
      <set comment="kpoint 171">
       <r>   -3.5260    1.0000 </r>
       <r>   -0.1139    1.0000 </r>
       <r>    2.4913    1.0000 </r>
       <r>    3.0887    1.0000 </r>
       <r>    7.8061    0.0000 </r>
       <r>    8.5023    0.0000 </r>
       <r>   11.6015    0.0000 </r>
       <r>   13.8788    0.0000 </r>
      </set>
      <set comment="kpoint 172">
       <r>   -3.5260    1.0000 </r>
       <r>   -0.1139    1.0000 </r>
       <r>    2.4913    1.0000 </r>
       <r>    3.0887    1.0000 </r>
       <r>    7.8061    0.0000 </r>
       <r>    8.5023    0.0000 </r>
       <r>   11.6015    0.0000 </r>
       <r>   13.8788    0.0000 </r>
      </set>
      <set comment="kpoint 173">
       <r>   -2.6476    1.0000 </r>
       <r>   -1.0831    1.0000 </r>
       <r>    1.7855    1.0000 </r>
       <r>    2.8917    1.0000 </r>
       <r>    8.2448    0.0000 </r>
       <r>   10.1415    0.0000 </r>
       <r>   11.1256    0.0000 </r>
       <r>   13.2888    0.0000 </r>
      </set>
      <set comment="kpoint 174">
       <r>   -2.6476    1.0000 </r>
       <r>   -1.0831    1.0000 </r>
       <r>    1.7855    1.0000 </r>
       <r>    2.8917    1.0000 </r>
       <r>    8.2448    0.0000 </r>
       <r>   10.1415    0.0000 </r>
       <r>   11.1256    0.0000 </r>
       <r>   13.2888    0.0000 </r>
      </set>
      <set comment="kpoint 175">
       <r>   -2.6476    1.0000 </r>
       <r>   -1.0831    1.0000 </r>
       <r>    1.7855    1.0000 </r>
       <r>    2.8917    1.0000 </r>
       <r>    8.2448    0.0000 </r>
       <r>   10.1415    0.0000 </r>
       <r>   11.1256    0.0000 </r>
       <r>   13.2888    0.0000 </r>
      </set>
      <set comment="kpoint 176">
       <r>   -2.6476    1.0000 </r>
       <r>   -1.0831    1.0000 </r>
       <r>    1.7855    1.0000 </r>
       <r>    2.8917    1.0000 </r>
       <r>    8.2448    0.0000 </r>
       <r>   10.1415    0.0000 </r>
       <r>   11.1256    0.0000 </r>
       <r>   13.2888    0.0000 </r>
      </set>
      <set comment="kpoint 177">
       <r>   -2.6476    1.0000 </r>
       <r>   -1.0831    1.0000 </r>
       <r>    1.7855    1.0000 </r>
       <r>    2.8917    1.0000 </r>
       <r>    8.2448    0.0000 </r>
       <r>   10.1415    0.0000 </r>
       <r>   11.1256    0.0000 </r>
       <r>   13.2888    0.0000 </r>
      </set>
      <set comment="kpoint 178">
       <r>   -2.6476    1.0000 </r>
       <r>   -1.0831    1.0000 </r>
       <r>    1.7855    1.0000 </r>
       <r>    2.8917    1.0000 </r>
       <r>    8.2448    0.0000 </r>
       <r>   10.1415    0.0000 </r>
       <r>   11.1256    0.0000 </r>
       <r>   13.2888    0.0000 </r>
      </set>
      <set comment="kpoint 179">
       <r>   -2.6476    1.0000 </r>
       <r>   -1.0831    1.0000 </r>
       <r>    1.7855    1.0000 </r>
       <r>    2.8917    1.0000 </r>
       <r>    8.2448    0.0000 </r>
       <r>   10.1415    0.0000 </r>
       <r>   11.1256    0.0000 </r>
       <r>   13.2888    0.0000 </r>
      </set>
      <set comment="kpoint 180">
       <r>   -2.6476    1.0000 </r>
       <r>   -1.0831    1.0000 </r>
       <r>    1.7855    1.0000 </r>
       <r>    2.8917    1.0000 </r>
       <r>    8.2448    0.0000 </r>
       <r>   10.1415    0.0000 </r>
       <r>   11.1256    0.0000 </r>
       <r>   13.2888    0.0000 </r>
      </set>
      <set comment="kpoint 181">
       <r>   -2.9955    1.0000 </r>
       <r>   -0.7202    1.0000 </r>
       <r>    1.6134    1.0000 </r>
       <r>    3.2712    1.0000 </r>
       <r>    8.7245    0.0000 </r>
       <r>   10.3868    0.0000 </r>
       <r>   11.0612    0.0000 </r>
       <r>   12.9031    0.0000 </r>
      </set>
      <set comment="kpoint 182">
       <r>   -2.9955    1.0000 </r>
       <r>   -0.7202    1.0000 </r>
       <r>    1.6134    1.0000 </r>
       <r>    3.2712    1.0000 </r>
       <r>    8.7245    0.0000 </r>
       <r>   10.3868    0.0000 </r>
       <r>   11.0612    0.0000 </r>
       <r>   12.9031    0.0000 </r>
      </set>
      <set comment="kpoint 183">
       <r>   -2.9955    1.0000 </r>
       <r>   -0.7202    1.0000 </r>
       <r>    1.6134    1.0000 </r>
       <r>    3.2712    1.0000 </r>
       <r>    8.7245    0.0000 </r>
       <r>   10.3868    0.0000 </r>
       <r>   11.0612    0.0000 </r>
       <r>   12.9031    0.0000 </r>
      </set>
      <set comment="kpoint 184">
       <r>   -2.9955    1.0000 </r>
       <r>   -0.7202    1.0000 </r>
       <r>    1.6134    1.0000 </r>
       <r>    3.2712    1.0000 </r>
       <r>    8.7245    0.0000 </r>
       <r>   10.3868    0.0000 </r>
       <r>   11.0612    0.0000 </r>
       <r>   12.9031    0.0000 </r>
      </set>
      <set comment="kpoint 185">
       <r>   -3.9004    1.0000 </r>
       <r>    0.0063    1.0000 </r>
       <r>    2.5237    1.0000 </r>
       <r>    3.9227    1.0000 </r>
       <r>    8.7463    0.0000 </r>
       <r>    9.4277    0.0000 </r>
       <r>   10.8918    0.0000 </r>
       <r>   11.7850    0.0000 </r>
      </set>
      <set comment="kpoint 186">
       <r>   -3.9004    1.0000 </r>
       <r>    0.0063    1.0000 </r>
       <r>    2.5237    1.0000 </r>
       <r>    3.9227    1.0000 </r>
       <r>    8.7463    0.0000 </r>
       <r>    9.4277    0.0000 </r>
       <r>   10.8918    0.0000 </r>
       <r>   11.7850    0.0000 </r>
      </set>
      <set comment="kpoint 187">
       <r>   -3.9004    1.0000 </r>
       <r>    0.0063    1.0000 </r>
       <r>    2.5237    1.0000 </r>
       <r>    3.9227    1.0000 </r>
       <r>    8.7463    0.0000 </r>
       <r>    9.4277    0.0000 </r>
       <r>   10.8918    0.0000 </r>
       <r>   11.7850    0.0000 </r>
      </set>
      <set comment="kpoint 188">
       <r>   -3.9004    1.0000 </r>
       <r>    0.0063    1.0000 </r>
       <r>    2.5237    1.0000 </r>
       <r>    3.9227    1.0000 </r>
       <r>    8.7463    0.0000 </r>
       <r>    9.4277    0.0000 </r>
       <r>   10.8918    0.0000 </r>
       <r>   11.7850    0.0000 </r>
      </set>
      <set comment="kpoint 189">
       <r>   -3.9004    1.0000 </r>
       <r>    0.0063    1.0000 </r>
       <r>    2.5237    1.0000 </r>
       <r>    3.9227    1.0000 </r>
       <r>    8.7463    0.0000 </r>
       <r>    9.4277    0.0000 </r>
       <r>   10.8918    0.0000 </r>
       <r>   11.7850    0.0000 </r>
      </set>
      <set comment="kpoint 190">
       <r>   -3.9004    1.0000 </r>
       <r>    0.0063    1.0000 </r>
       <r>    2.5237    1.0000 </r>
       <r>    3.9227    1.0000 </r>
       <r>    8.7463    0.0000 </r>
       <r>    9.4277    0.0000 </r>
       <r>   10.8918    0.0000 </r>
       <r>   11.7850    0.0000 </r>
      </set>
      <set comment="kpoint 191">
       <r>   -3.9004    1.0000 </r>
       <r>    0.0063    1.0000 </r>
       <r>    2.5237    1.0000 </r>
       <r>    3.9227    1.0000 </r>
       <r>    8.7463    0.0000 </r>
       <r>    9.4277    0.0000 </r>
       <r>   10.8918    0.0000 </r>
       <r>   11.7850    0.0000 </r>
      </set>
      <set comment="kpoint 192">
       <r>   -3.9004    1.0000 </r>
       <r>    0.0063    1.0000 </r>
       <r>    2.5237    1.0000 </r>
       <r>    3.9227    1.0000 </r>
       <r>    8.7463    0.0000 </r>
       <r>    9.4277    0.0000 </r>
       <r>   10.8918    0.0000 </r>
       <r>   11.7850    0.0000 </r>
      </set>
      <set comment="kpoint 193">
       <r>   -3.5257    1.0000 </r>
       <r>   -0.1164    1.0000 </r>
       <r>    2.4855    1.0000 </r>
       <r>    3.0907    1.0000 </r>
       <r>    7.8117    0.0000 </r>
       <r>    8.5079    0.0000 </r>
       <r>   11.6412    0.0000 </r>
       <r>   13.8410    0.0000 </r>
      </set>
      <set comment="kpoint 194">
       <r>   -3.5257    1.0000 </r>
       <r>   -0.1164    1.0000 </r>
       <r>    2.4855    1.0000 </r>
       <r>    3.0907    1.0000 </r>
       <r>    7.8117    0.0000 </r>
       <r>    8.5079    0.0000 </r>
       <r>   11.6412    0.0000 </r>
       <r>   13.8410    0.0000 </r>
      </set>
      <set comment="kpoint 195">
       <r>   -3.5257    1.0000 </r>
       <r>   -0.1164    1.0000 </r>
       <r>    2.4855    1.0000 </r>
       <r>    3.0907    1.0000 </r>
       <r>    7.8117    0.0000 </r>
       <r>    8.5079    0.0000 </r>
       <r>   11.6412    0.0000 </r>
       <r>   13.8410    0.0000 </r>
      </set>
      <set comment="kpoint 196">
       <r>   -3.5257    1.0000 </r>
       <r>   -0.1164    1.0000 </r>
       <r>    2.4855    1.0000 </r>
       <r>    3.0907    1.0000 </r>
       <r>    7.8117    0.0000 </r>
       <r>    8.5079    0.0000 </r>
       <r>   11.6412    0.0000 </r>
       <r>   13.8410    0.0000 </r>
      </set>
      <set comment="kpoint 197">
       <r>   -1.8934    1.0000 </r>
       <r>   -1.8934    1.0000 </r>
       <r>    2.4345    1.0000 </r>
       <r>    2.4345    1.0000 </r>
       <r>    7.8284    0.0000 </r>
       <r>    7.8284    0.0000 </r>
       <r>   13.6959    0.0000 </r>
       <r>   13.6959    0.0000 </r>
      </set>
      <set comment="kpoint 198">
       <r>   -1.8934    1.0000 </r>
       <r>   -1.8934    1.0000 </r>
       <r>    2.4345    1.0000 </r>
       <r>    2.4345    1.0000 </r>
       <r>    7.8284    0.0000 </r>
       <r>    7.8284    0.0000 </r>
       <r>   13.6959    0.0000 </r>
       <r>   13.6959    0.0000 </r>
      </set>
      <set comment="kpoint 199">
       <r>   -3.2459    1.0000 </r>
       <r>   -0.9412    1.0000 </r>
       <r>    2.3937    1.0000 </r>
       <r>    3.6927    1.0000 </r>
       <r>    8.9476    0.0000 </r>
       <r>    8.9946    0.0000 </r>
       <r>   11.7602    0.0000 </r>
       <r>   12.9985    0.0000 </r>
      </set>
      <set comment="kpoint 200">
       <r>   -3.2459    1.0000 </r>
       <r>   -0.9412    1.0000 </r>
       <r>    2.3937    1.0000 </r>
       <r>    3.6927    1.0000 </r>
       <r>    8.9476    0.0000 </r>
       <r>    8.9946    0.0000 </r>
       <r>   11.7602    0.0000 </r>
       <r>   12.9985    0.0000 </r>
      </set>
      <set comment="kpoint 201">
       <r>   -3.2459    1.0000 </r>
       <r>   -0.9412    1.0000 </r>
       <r>    2.3937    1.0000 </r>
       <r>    3.6927    1.0000 </r>
       <r>    8.9476    0.0000 </r>
       <r>    8.9946    0.0000 </r>
       <r>   11.7602    0.0000 </r>
       <r>   12.9985    0.0000 </r>
      </set>
      <set comment="kpoint 202">
       <r>   -3.2459    1.0000 </r>
       <r>   -0.9412    1.0000 </r>
       <r>    2.3937    1.0000 </r>
       <r>    3.6927    1.0000 </r>
       <r>    8.9476    0.0000 </r>
       <r>    8.9946    0.0000 </r>
       <r>   11.7602    0.0000 </r>
       <r>   12.9985    0.0000 </r>
      </set>
      <set comment="kpoint 203">
       <r>   -2.6483    1.0000 </r>
       <r>   -1.0857    1.0000 </r>
       <r>    1.7834    1.0000 </r>
       <r>    2.8885    1.0000 </r>
       <r>    8.2564    0.0000 </r>
       <r>   10.1511    0.0000 </r>
       <r>   11.1621    0.0000 </r>
       <r>   13.3280    0.0000 </r>
      </set>
      <set comment="kpoint 204">
       <r>   -2.6483    1.0000 </r>
       <r>   -1.0857    1.0000 </r>
       <r>    1.7834    1.0000 </r>
       <r>    2.8885    1.0000 </r>
       <r>    8.2564    0.0000 </r>
       <r>   10.1511    0.0000 </r>
       <r>   11.1621    0.0000 </r>
       <r>   13.3280    0.0000 </r>
      </set>
      <set comment="kpoint 205">
       <r>   -2.6483    1.0000 </r>
       <r>   -1.0857    1.0000 </r>
       <r>    1.7834    1.0000 </r>
       <r>    2.8885    1.0000 </r>
       <r>    8.2564    0.0000 </r>
       <r>   10.1511    0.0000 </r>
       <r>   11.1621    0.0000 </r>
       <r>   13.3280    0.0000 </r>
      </set>
      <set comment="kpoint 206">
       <r>   -2.6483    1.0000 </r>
       <r>   -1.0857    1.0000 </r>
       <r>    1.7834    1.0000 </r>
       <r>    2.8885    1.0000 </r>
       <r>    8.2564    0.0000 </r>
       <r>   10.1511    0.0000 </r>
       <r>   11.1621    0.0000 </r>
       <r>   13.3280    0.0000 </r>
      </set>
      <set comment="kpoint 207">
       <r>   -2.6483    1.0000 </r>
       <r>   -1.0857    1.0000 </r>
       <r>    1.7834    1.0000 </r>
       <r>    2.8885    1.0000 </r>
       <r>    8.2564    0.0000 </r>
       <r>   10.1511    0.0000 </r>
       <r>   11.1621    0.0000 </r>
       <r>   13.3280    0.0000 </r>
      </set>
      <set comment="kpoint 208">
       <r>   -2.6483    1.0000 </r>
       <r>   -1.0857    1.0000 </r>
       <r>    1.7834    1.0000 </r>
       <r>    2.8885    1.0000 </r>
       <r>    8.2564    0.0000 </r>
       <r>   10.1511    0.0000 </r>
       <r>   11.1621    0.0000 </r>
       <r>   13.3280    0.0000 </r>
      </set>
      <set comment="kpoint 209">
       <r>   -2.6483    1.0000 </r>
       <r>   -1.0857    1.0000 </r>
       <r>    1.7834    1.0000 </r>
       <r>    2.8885    1.0000 </r>
       <r>    8.2564    0.0000 </r>
       <r>   10.1511    0.0000 </r>
       <r>   11.1621    0.0000 </r>
       <r>   13.3280    0.0000 </r>
      </set>
      <set comment="kpoint 210">
       <r>   -2.6483    1.0000 </r>
       <r>   -1.0857    1.0000 </r>
       <r>    1.7834    1.0000 </r>
       <r>    2.8885    1.0000 </r>
       <r>    8.2564    0.0000 </r>
       <r>   10.1511    0.0000 </r>
       <r>   11.1621    0.0000 </r>
       <r>   13.3280    0.0000 </r>
      </set>
      <set comment="kpoint 211">
       <r>   -1.8940    1.0000 </r>
       <r>   -1.8940    1.0000 </r>
       <r>    2.4317    1.0000 </r>
       <r>    2.4317    1.0000 </r>
       <r>    7.8345    0.0000 </r>
       <r>    7.8345    0.0000 </r>
       <r>   13.7414    0.0000 </r>
       <r>   13.7414    0.0000 </r>
      </set>
      <set comment="kpoint 212">
       <r>   -1.8940    1.0000 </r>
       <r>   -1.8940    1.0000 </r>
       <r>    2.4317    1.0000 </r>
       <r>    2.4317    1.0000 </r>
       <r>    7.8345    0.0000 </r>
       <r>    7.8345    0.0000 </r>
       <r>   13.7414    0.0000 </r>
       <r>   13.7414    0.0000 </r>
      </set>
      <set comment="kpoint 213">
       <r>   -2.9988    1.0000 </r>
       <r>   -0.7221    1.0000 </r>
       <r>    1.6155    1.0000 </r>
       <r>    3.2648    1.0000 </r>
       <r>    8.7395    0.0000 </r>
       <r>   10.4203    0.0000 </r>
       <r>   11.0943    0.0000 </r>
       <r>   12.9090    0.0000 </r>
      </set>
      <set comment="kpoint 214">
       <r>   -2.9988    1.0000 </r>
       <r>   -0.7221    1.0000 </r>
       <r>    1.6155    1.0000 </r>
       <r>    3.2648    1.0000 </r>
       <r>    8.7395    0.0000 </r>
       <r>   10.4203    0.0000 </r>
       <r>   11.0943    0.0000 </r>
       <r>   12.9090    0.0000 </r>
      </set>
      <set comment="kpoint 215">
       <r>   -2.9988    1.0000 </r>
       <r>   -0.7221    1.0000 </r>
       <r>    1.6155    1.0000 </r>
       <r>    3.2648    1.0000 </r>
       <r>    8.7395    0.0000 </r>
       <r>   10.4203    0.0000 </r>
       <r>   11.0943    0.0000 </r>
       <r>   12.9090    0.0000 </r>
      </set>
      <set comment="kpoint 216">
       <r>   -2.9988    1.0000 </r>
       <r>   -0.7221    1.0000 </r>
       <r>    1.6155    1.0000 </r>
       <r>    3.2648    1.0000 </r>
       <r>    8.7395    0.0000 </r>
       <r>   10.4203    0.0000 </r>
       <r>   11.0943    0.0000 </r>
       <r>   12.9090    0.0000 </r>
      </set>
      <set comment="kpoint 217">
       <r>   -5.0358    1.0000 </r>
       <r>    2.3478    1.0000 </r>
       <r>    3.9522    1.0000 </r>
       <r>    3.9522    1.0000 </r>
       <r>    6.9729    0.0000 </r>
       <r>    8.9901    0.0000 </r>
       <r>   11.6240    0.0000 </r>
       <r>   11.6240    0.0000 </r>
      </set>
      <set comment="kpoint 218">
       <r>   -4.0757    1.0000 </r>
       <r>    0.3754    1.0000 </r>
       <r>    2.1006    1.0000 </r>
       <r>    4.5130    1.0000 </r>
       <r>    8.2956    0.0000 </r>
       <r>   10.6525    0.0000 </r>
       <r>   11.0057    0.0000 </r>
       <r>   12.0209    0.0000 </r>
      </set>
      <set comment="kpoint 219">
       <r>   -4.0757    1.0000 </r>
       <r>    0.3754    1.0000 </r>
       <r>    2.1006    1.0000 </r>
       <r>    4.5130    1.0000 </r>
       <r>    8.2956    0.0000 </r>
       <r>   10.6525    0.0000 </r>
       <r>   11.0057    0.0000 </r>
       <r>   12.0209    0.0000 </r>
      </set>
      <set comment="kpoint 220">
       <r>   -3.1935    1.0000 </r>
       <r>   -0.7889    1.0000 </r>
       <r>    1.8604    1.0000 </r>
       <r>    3.9534    1.0000 </r>
       <r>    7.6875    0.0000 </r>
       <r>   11.3353    0.0000 </r>
       <r>   11.3391    0.0000 </r>
       <r>   12.8097    0.0000 </r>
      </set>
      <set comment="kpoint 221">
       <r>   -3.1935    1.0000 </r>
       <r>   -0.7889    1.0000 </r>
       <r>    1.8604    1.0000 </r>
       <r>    3.9534    1.0000 </r>
       <r>    7.6875    0.0000 </r>
       <r>   11.3353    0.0000 </r>
       <r>   11.3391    0.0000 </r>
       <r>   12.8097    0.0000 </r>
      </set>
      <set comment="kpoint 222">
       <r>   -3.1935    1.0000 </r>
       <r>   -0.7889    1.0000 </r>
       <r>    1.8604    1.0000 </r>
       <r>    3.9534    1.0000 </r>
       <r>    7.6875    0.0000 </r>
       <r>   11.3353    0.0000 </r>
       <r>   11.3391    0.0000 </r>
       <r>   12.8097    0.0000 </r>
      </set>
      <set comment="kpoint 223">
       <r>   -3.1935    1.0000 </r>
       <r>   -0.7889    1.0000 </r>
       <r>    1.8604    1.0000 </r>
       <r>    3.9534    1.0000 </r>
       <r>    7.6875    0.0000 </r>
       <r>   11.3353    0.0000 </r>
       <r>   11.3391    0.0000 </r>
       <r>   12.8097    0.0000 </r>
      </set>
      <set comment="kpoint 224">
       <r>   -3.3946    1.0000 </r>
       <r>   -0.5323    1.0000 </r>
       <r>    2.3180    1.0000 </r>
       <r>    3.6348    1.0000 </r>
       <r>    7.3632    0.0000 </r>
       <r>   10.2913    0.0000 </r>
       <r>   11.6215    0.0000 </r>
       <r>   11.7770    0.0000 </r>
      </set>
      <set comment="kpoint 225">
       <r>   -3.3946    1.0000 </r>
       <r>   -0.5323    1.0000 </r>
       <r>    2.3180    1.0000 </r>
       <r>    3.6348    1.0000 </r>
       <r>    7.3632    0.0000 </r>
       <r>   10.2913    0.0000 </r>
       <r>   11.6215    0.0000 </r>
       <r>   11.7770    0.0000 </r>
      </set>
      <set comment="kpoint 226">
       <r>   -3.3946    1.0000 </r>
       <r>   -0.5323    1.0000 </r>
       <r>    2.3180    1.0000 </r>
       <r>    3.6348    1.0000 </r>
       <r>    7.3632    0.0000 </r>
       <r>   10.2913    0.0000 </r>
       <r>   11.6215    0.0000 </r>
       <r>   11.7770    0.0000 </r>
      </set>
      <set comment="kpoint 227">
       <r>   -3.3946    1.0000 </r>
       <r>   -0.5323    1.0000 </r>
       <r>    2.3180    1.0000 </r>
       <r>    3.6348    1.0000 </r>
       <r>    7.3632    0.0000 </r>
       <r>   10.2913    0.0000 </r>
       <r>   11.6215    0.0000 </r>
       <r>   11.7770    0.0000 </r>
      </set>
      <set comment="kpoint 228">
       <r>   -4.3232    1.0000 </r>
       <r>    0.9170    1.0000 </r>
       <r>    3.1767    1.0000 </r>
       <r>    3.6326    1.0000 </r>
       <r>    7.1937    0.0000 </r>
       <r>    8.7427    0.0000 </r>
       <r>   11.8707    0.0000 </r>
       <r>   12.1314    0.0000 </r>
      </set>
      <set comment="kpoint 229">
       <r>   -4.3232    1.0000 </r>
       <r>    0.9170    1.0000 </r>
       <r>    3.1767    1.0000 </r>
       <r>    3.6326    1.0000 </r>
       <r>    7.1937    0.0000 </r>
       <r>    8.7427    0.0000 </r>
       <r>   11.8707    0.0000 </r>
       <r>   12.1314    0.0000 </r>
      </set>
      <set comment="kpoint 230">
       <r>   -4.3232    1.0000 </r>
       <r>    0.9170    1.0000 </r>
       <r>    3.1767    1.0000 </r>
       <r>    3.6326    1.0000 </r>
       <r>    7.1937    0.0000 </r>
       <r>    8.7427    0.0000 </r>
       <r>   11.8707    0.0000 </r>
       <r>   12.1314    0.0000 </r>
      </set>
      <set comment="kpoint 231">
       <r>   -4.3232    1.0000 </r>
       <r>    0.9170    1.0000 </r>
       <r>    3.1767    1.0000 </r>
       <r>    3.6326    1.0000 </r>
       <r>    7.1937    0.0000 </r>
       <r>    8.7427    0.0000 </r>
       <r>   11.8707    0.0000 </r>
       <r>   12.1314    0.0000 </r>
      </set>
      <set comment="kpoint 232">
       <r>   -2.9990    1.0000 </r>
       <r>   -0.7144    1.0000 </r>
       <r>    1.6229    1.0000 </r>
       <r>    3.2576    1.0000 </r>
       <r>    8.7105    0.0000 </r>
       <r>   10.4066    0.0000 </r>
       <r>   11.0778    0.0000 </r>
       <r>   12.8751    0.0000 </r>
      </set>
      <set comment="kpoint 233">
       <r>   -2.9990    1.0000 </r>
       <r>   -0.7144    1.0000 </r>
       <r>    1.6229    1.0000 </r>
       <r>    3.2576    1.0000 </r>
       <r>    8.7105    0.0000 </r>
       <r>   10.4066    0.0000 </r>
       <r>   11.0778    0.0000 </r>
       <r>   12.8751    0.0000 </r>
      </set>
      <set comment="kpoint 234">
       <r>   -2.9990    1.0000 </r>
       <r>   -0.7144    1.0000 </r>
       <r>    1.6229    1.0000 </r>
       <r>    3.2576    1.0000 </r>
       <r>    8.7105    0.0000 </r>
       <r>   10.4066    0.0000 </r>
       <r>   11.0778    0.0000 </r>
       <r>   12.8751    0.0000 </r>
      </set>
      <set comment="kpoint 235">
       <r>   -2.9990    1.0000 </r>
       <r>   -0.7144    1.0000 </r>
       <r>    1.6229    1.0000 </r>
       <r>    3.2576    1.0000 </r>
       <r>    8.7105    0.0000 </r>
       <r>   10.4066    0.0000 </r>
       <r>   11.0778    0.0000 </r>
       <r>   12.8751    0.0000 </r>
      </set>
      <set comment="kpoint 236">
       <r>   -2.6431    1.0000 </r>
       <r>   -1.0796    1.0000 </r>
       <r>    1.7850    1.0000 </r>
       <r>    2.8826    1.0000 </r>
       <r>    8.2297    0.0000 </r>
       <r>   10.1226    0.0000 </r>
       <r>   11.1400    0.0000 </r>
       <r>   13.3114    0.0000 </r>
      </set>
      <set comment="kpoint 237">
       <r>   -2.6431    1.0000 </r>
       <r>   -1.0796    1.0000 </r>
       <r>    1.7850    1.0000 </r>
       <r>    2.8826    1.0000 </r>
       <r>    8.2297    0.0000 </r>
       <r>   10.1226    0.0000 </r>
       <r>   11.1400    0.0000 </r>
       <r>   13.3114    0.0000 </r>
      </set>
      <set comment="kpoint 238">
       <r>   -2.6431    1.0000 </r>
       <r>   -1.0796    1.0000 </r>
       <r>    1.7850    1.0000 </r>
       <r>    2.8826    1.0000 </r>
       <r>    8.2297    0.0000 </r>
       <r>   10.1226    0.0000 </r>
       <r>   11.1400    0.0000 </r>
       <r>   13.3114    0.0000 </r>
      </set>
      <set comment="kpoint 239">
       <r>   -2.6431    1.0000 </r>
       <r>   -1.0796    1.0000 </r>
       <r>    1.7850    1.0000 </r>
       <r>    2.8826    1.0000 </r>
       <r>    8.2297    0.0000 </r>
       <r>   10.1226    0.0000 </r>
       <r>   11.1400    0.0000 </r>
       <r>   13.3114    0.0000 </r>
      </set>
      <set comment="kpoint 240">
       <r>   -2.6431    1.0000 </r>
       <r>   -1.0796    1.0000 </r>
       <r>    1.7850    1.0000 </r>
       <r>    2.8826    1.0000 </r>
       <r>    8.2297    0.0000 </r>
       <r>   10.1226    0.0000 </r>
       <r>   11.1400    0.0000 </r>
       <r>   13.3114    0.0000 </r>
      </set>
      <set comment="kpoint 241">
       <r>   -2.6431    1.0000 </r>
       <r>   -1.0796    1.0000 </r>
       <r>    1.7850    1.0000 </r>
       <r>    2.8826    1.0000 </r>
       <r>    8.2297    0.0000 </r>
       <r>   10.1226    0.0000 </r>
       <r>   11.1400    0.0000 </r>
       <r>   13.3114    0.0000 </r>
      </set>
      <set comment="kpoint 242">
       <r>   -2.6431    1.0000 </r>
       <r>   -1.0796    1.0000 </r>
       <r>    1.7850    1.0000 </r>
       <r>    2.8826    1.0000 </r>
       <r>    8.2297    0.0000 </r>
       <r>   10.1226    0.0000 </r>
       <r>   11.1400    0.0000 </r>
       <r>   13.3114    0.0000 </r>
      </set>
      <set comment="kpoint 243">
       <r>   -2.6431    1.0000 </r>
       <r>   -1.0796    1.0000 </r>
       <r>    1.7850    1.0000 </r>
       <r>    2.8826    1.0000 </r>
       <r>    8.2297    0.0000 </r>
       <r>   10.1226    0.0000 </r>
       <r>   11.1400    0.0000 </r>
       <r>   13.3114    0.0000 </r>
      </set>
      <set comment="kpoint 244">
       <r>   -3.5192    1.0000 </r>
       <r>   -0.1077    1.0000 </r>
       <r>    2.4774    1.0000 </r>
       <r>    3.0870    1.0000 </r>
       <r>    7.7873    0.0000 </r>
       <r>    8.4904    0.0000 </r>
       <r>   11.6180    0.0000 </r>
       <r>   13.8662    0.0000 </r>
      </set>
      <set comment="kpoint 245">
       <r>   -3.5192    1.0000 </r>
       <r>   -0.1077    1.0000 </r>
       <r>    2.4774    1.0000 </r>
       <r>    3.0870    1.0000 </r>
       <r>    7.7873    0.0000 </r>
       <r>    8.4904    0.0000 </r>
       <r>   11.6180    0.0000 </r>
       <r>   13.8662    0.0000 </r>
      </set>
      <set comment="kpoint 246">
       <r>   -3.5192    1.0000 </r>
       <r>   -0.1077    1.0000 </r>
       <r>    2.4774    1.0000 </r>
       <r>    3.0870    1.0000 </r>
       <r>    7.7873    0.0000 </r>
       <r>    8.4904    0.0000 </r>
       <r>   11.6180    0.0000 </r>
       <r>   13.8662    0.0000 </r>
      </set>
      <set comment="kpoint 247">
       <r>   -3.5192    1.0000 </r>
       <r>   -0.1077    1.0000 </r>
       <r>    2.4774    1.0000 </r>
       <r>    3.0870    1.0000 </r>
       <r>    7.7873    0.0000 </r>
       <r>    8.4904    0.0000 </r>
       <r>   11.6180    0.0000 </r>
       <r>   13.8662    0.0000 </r>
      </set>
      <set comment="kpoint 248">
       <r>   -1.8029    1.0000 </r>
       <r>   -1.8029    1.0000 </r>
       <r>    1.9927    1.0000 </r>
       <r>    1.9927    1.0000 </r>
       <r>   10.1168    0.0000 </r>
       <r>   10.1168    0.0000 </r>
       <r>   10.8607    0.0000 </r>
       <r>   10.8607    0.0000 </r>
      </set>
      <set comment="kpoint 249">
       <r>   -1.8029    1.0000 </r>
       <r>   -1.8029    1.0000 </r>
       <r>    1.9927    1.0000 </r>
       <r>    1.9927    1.0000 </r>
       <r>   10.1168    0.0000 </r>
       <r>   10.1168    0.0000 </r>
       <r>   10.8607    0.0000 </r>
       <r>   10.8607    0.0000 </r>
      </set>
      <set comment="kpoint 250">
       <r>   -1.8070    1.0000 </r>
       <r>   -1.8070    1.0000 </r>
       <r>    1.9918    1.0000 </r>
       <r>    1.9918    1.0000 </r>
       <r>   10.1401    0.0000 </r>
       <r>   10.1401    0.0000 </r>
       <r>   10.8880    0.0000 </r>
       <r>   10.8880    0.0000 </r>
      </set>
      <set comment="kpoint 251">
       <r>   -3.7178    1.0000 </r>
       <r>    0.1163    1.0000 </r>
       <r>    3.2329    1.0000 </r>
       <r>    3.2329    1.0000 </r>
       <r>    6.4542    0.0000 </r>
       <r>    7.3851    0.0000 </r>
       <r>   13.9134    0.0000 </r>
       <r>   13.9134    0.0000 </r>
      </set>
      <set comment="kpoint 252">
       <r>   -2.3806    1.0000 </r>
       <r>   -1.3712    1.0000 </r>
       <r>    1.5430    1.0000 </r>
       <r>    3.4138    1.0000 </r>
       <r>    7.0447    0.0000 </r>
       <r>    9.9698    0.0000 </r>
       <r>   13.3383    0.0000 </r>
       <r>   13.8935    0.0000 </r>
      </set>
      <set comment="kpoint 253">
       <r>   -2.3806    1.0000 </r>
       <r>   -1.3712    1.0000 </r>
       <r>    1.5430    1.0000 </r>
       <r>    3.4138    1.0000 </r>
       <r>    7.0447    0.0000 </r>
       <r>    9.9698    0.0000 </r>
       <r>   13.3383    0.0000 </r>
       <r>   13.8935    0.0000 </r>
      </set>
      <set comment="kpoint 254">
       <r>   -2.8175    1.0000 </r>
       <r>   -0.9729    1.0000 </r>
       <r>    2.4052    1.0000 </r>
       <r>    3.1561    1.0000 </r>
       <r>    6.7349    0.0000 </r>
       <r>    7.8081    0.0000 </r>
       <r>   14.1349    0.0000 </r>
       <r>   14.2318    0.0000 </r>
      </set>
      <set comment="kpoint 255">
       <r>   -2.8175    1.0000 </r>
       <r>   -0.9729    1.0000 </r>
       <r>    2.4052    1.0000 </r>
       <r>    3.1561    1.0000 </r>
       <r>    6.7349    0.0000 </r>
       <r>    7.8081    0.0000 </r>
       <r>   14.1349    0.0000 </r>
       <r>   14.2318    0.0000 </r>
      </set>
      <set comment="kpoint 256">
       <r>   -2.8175    1.0000 </r>
       <r>   -0.9729    1.0000 </r>
       <r>    2.4052    1.0000 </r>
       <r>    3.1561    1.0000 </r>
       <r>    6.7349    0.0000 </r>
       <r>    7.8081    0.0000 </r>
       <r>   14.1349    0.0000 </r>
       <r>   14.2318    0.0000 </r>
      </set>
      <set comment="kpoint 257">
       <r>   -2.8175    1.0000 </r>
       <r>   -0.9729    1.0000 </r>
       <r>    2.4052    1.0000 </r>
       <r>    3.1561    1.0000 </r>
       <r>    6.7349    0.0000 </r>
       <r>    7.8081    0.0000 </r>
       <r>   14.1349    0.0000 </r>
       <r>   14.2318    0.0000 </r>
      </set>
      <set comment="kpoint 258">
       <r>   -1.8845    1.0000 </r>
       <r>   -1.8845    1.0000 </r>
       <r>    2.4237    1.0000 </r>
       <r>    2.4237    1.0000 </r>
       <r>    7.8108    0.0000 </r>
       <r>    7.8108    0.0000 </r>
       <r>   13.7172    0.0000 </r>
       <r>   13.7172    0.0000 </r>
      </set>
      <set comment="kpoint 259">
       <r>   -1.8845    1.0000 </r>
       <r>   -1.8845    1.0000 </r>
       <r>    2.4237    1.0000 </r>
       <r>    2.4237    1.0000 </r>
       <r>    7.8108    0.0000 </r>
       <r>    7.8108    0.0000 </r>
       <r>   13.7172    0.0000 </r>
       <r>   13.7172    0.0000 </r>
      </set>
      <set comment="kpoint 260">
       <r>   -1.9613    1.0000 </r>
       <r>   -1.9613    1.0000 </r>
       <r>    2.9862    1.0000 </r>
       <r>    2.9862    1.0000 </r>
       <r>    6.5496    0.0000 </r>
       <r>    6.5496    0.0000 </r>
       <r>   15.9911    0.0000 </r>
       <r>   15.9911    0.0000 </r>
      </set>
     </set>
    </set>
   </array>
  </eigenvalues>
  <separator name="orbital magnetization" >
   <v name="MAGDIPOLOUT">      0.00000000      0.00000000      0.00000000</v>
  </separator>
  <dos>
   <i name="efermi">      6.07322770 </i>
   <total>
    <array>
     <dimension dim="1">gridpoints</dimension>
     <dimension dim="2">spin</dimension>
     <field>energy</field>
     <field>total</field>
     <field>integrated</field>
     <set>
      <set comment="spin 1">
       <r>    -7.2284     0.0000     0.0000 </r>
       <r>    -7.1473     0.0000     0.0000 </r>
       <r>    -7.0662     0.0000     0.0000 </r>
       <r>    -6.9851     0.0000     0.0000 </r>
       <r>    -6.9040     0.0000     0.0000 </r>
       <r>    -6.8230     0.0000     0.0000 </r>
       <r>    -6.7419     0.0000     0.0000 </r>
       <r>    -6.6608     0.0000     0.0000 </r>
       <r>    -6.5797     0.0000     0.0000 </r>
       <r>    -6.4986     0.0000     0.0000 </r>
       <r>    -6.4175     0.0000     0.0000 </r>
       <r>    -6.3364     0.0000     0.0000 </r>
       <r>    -6.2553     0.0000     0.0000 </r>
       <r>    -6.1742     0.0035     0.0003 </r>
       <r>    -6.0931     0.0350     0.0031 </r>
       <r>    -6.0120     0.0112     0.0040 </r>
       <r>    -5.9309     0.1393     0.0153 </r>
       <r>    -5.8499     0.3763     0.0458 </r>
       <r>    -5.7688     0.1540     0.0583 </r>
       <r>    -5.6877     0.0041     0.0587 </r>
       <r>    -5.6066     0.1352     0.0696 </r>
       <r>    -5.5255     0.4086     0.1028 </r>
       <r>    -5.4444     0.0717     0.1086 </r>
       <r>    -5.3633     0.7873     0.1724 </r>
       <r>    -5.2822     0.6603     0.2260 </r>
       <r>    -5.2011     0.0556     0.2305 </r>
       <r>    -5.1200     0.0032     0.2307 </r>
       <r>    -5.0389     0.1394     0.2420 </r>
       <r>    -4.9578     0.1505     0.2542 </r>
       <r>    -4.8767     0.4885     0.2938 </r>
       <r>    -4.7957     1.1496     0.3871 </r>
       <r>    -4.7146     0.6514     0.4399 </r>
       <r>    -4.6335     0.0446     0.4435 </r>
       <r>    -4.5524     0.6815     0.4988 </r>
       <r>    -4.4713     0.4798     0.5377 </r>
       <r>    -4.3902     0.3339     0.5648 </r>
       <r>    -4.3091     0.8172     0.6310 </r>
       <r>    -4.2280     0.3562     0.6599 </r>
       <r>    -4.1469     0.0145     0.6611 </r>
       <r>    -4.0658     0.3310     0.6879 </r>
       <r>    -3.9847     0.3935     0.7198 </r>
       <r>    -3.9036     1.9025     0.8741 </r>
       <r>    -3.8225     1.4023     0.9878 </r>
       <r>    -3.7415     0.3931     1.0197 </r>
       <r>    -3.6604     1.0757     1.1069 </r>
       <r>    -3.5793     0.2418     1.1265 </r>
       <r>    -3.4982     0.8181     1.1929 </r>
       <r>    -3.4171     0.6112     1.2425 </r>
       <r>    -3.3360     0.7754     1.3053 </r>
       <r>    -3.2549     0.5387     1.3490 </r>
       <r>    -3.1738     1.4488     1.4665 </r>
       <r>    -3.0927     0.3664     1.4962 </r>
       <r>    -3.0116     0.4004     1.5287 </r>
       <r>    -2.9305     0.7224     1.5873 </r>
       <r>    -2.8494     0.3005     1.6116 </r>
       <r>    -2.7683     0.8174     1.6779 </r>
       <r>    -2.6873     0.3567     1.7069 </r>
       <r>    -2.6062     1.7285     1.8470 </r>
       <r>    -2.5251     0.2961     1.8710 </r>
       <r>    -2.4440     0.0250     1.8731 </r>
       <r>    -2.3629     0.3881     1.9045 </r>
       <r>    -2.2818     0.1644     1.9179 </r>
       <r>    -2.2007     0.0012     1.9180 </r>
       <r>    -2.1196     0.0000     1.9180 </r>
       <r>    -2.0385     0.0076     1.9186 </r>
       <r>    -1.9574     0.2094     1.9356 </r>
       <r>    -1.8763     0.8412     2.0038 </r>
       <r>    -1.7952     0.7294     2.0629 </r>
       <r>    -1.7142     0.2323     2.0818 </r>
       <r>    -1.6331     0.0032     2.0820 </r>
       <r>    -1.5520     0.0000     2.0820 </r>
       <r>    -1.4709     0.0027     2.0823 </r>
       <r>    -1.3898     0.2133     2.0995 </r>
       <r>    -1.3087     0.3472     2.1277 </r>
       <r>    -1.2276     0.0153     2.1289 </r>
       <r>    -1.1465     0.1361     2.1400 </r>
       <r>    -1.0654     1.6484     2.2736 </r>
       <r>    -0.9843     1.3738     2.3850 </r>
       <r>    -0.9032     2.0407     2.5505 </r>
       <r>    -0.8221     1.0012     2.6317 </r>
       <r>    -0.7410     1.1546     2.7254 </r>
       <r>    -0.6600     0.8745     2.7963 </r>
       <r>    -0.5789     0.2745     2.8185 </r>
       <r>    -0.4978     1.7141     2.9575 </r>
       <r>    -0.4167     0.3781     2.9882 </r>
       <r>    -0.3356     0.0013     2.9883 </r>
       <r>    -0.2545     0.0000     2.9883 </r>
       <r>    -0.1734     0.0579     2.9930 </r>
       <r>    -0.0923     1.0024     3.0743 </r>
       <r>    -0.0112     1.1522     3.1677 </r>
       <r>     0.0699     1.5916     3.2968 </r>
       <r>     0.1510     0.3069     3.3217 </r>
       <r>     0.2321     0.0316     3.3242 </r>
       <r>     0.3132     0.0303     3.3267 </r>
       <r>     0.3942     0.4008     3.3592 </r>
       <r>     0.4753     0.1529     3.3716 </r>
       <r>     0.5564     0.4699     3.4097 </r>
       <r>     0.6375     0.6580     3.4630 </r>
       <r>     0.7186     0.0222     3.4648 </r>
       <r>     0.7997     0.0009     3.4649 </r>
       <r>     0.8808     0.2189     3.4827 </r>
       <r>     0.9619     0.8437     3.5511 </r>
       <r>     1.0430     0.0924     3.5586 </r>
       <r>     1.1241     0.0026     3.5588 </r>
       <r>     1.2052     0.3298     3.5855 </r>
       <r>     1.2863     0.7755     3.6484 </r>
       <r>     1.3673     0.0483     3.6523 </r>
       <r>     1.4484     0.0030     3.6526 </r>
       <r>     1.5295     0.4067     3.6856 </r>
       <r>     1.6106     1.6952     3.8230 </r>
       <r>     1.6917     0.7741     3.8858 </r>
       <r>     1.7728     0.8788     3.9571 </r>
       <r>     1.8539     1.9816     4.1178 </r>
       <r>     1.9350     0.8779     4.1889 </r>
       <r>     2.0161     0.5666     4.2349 </r>
       <r>     2.0972     0.4513     4.2715 </r>
       <r>     2.1783     0.2598     4.2926 </r>
       <r>     2.2594     0.0845     4.2994 </r>
       <r>     2.3405     1.0669     4.3859 </r>
       <r>     2.4215     2.3860     4.5794 </r>
       <r>     2.5026     2.7213     4.8001 </r>
       <r>     2.5837     2.1125     4.9714 </r>
       <r>     2.6648     0.9920     5.0518 </r>
       <r>     2.7459     0.1791     5.0664 </r>
       <r>     2.8270     0.1028     5.0747 </r>
       <r>     2.9081     1.5602     5.2012 </r>
       <r>     2.9892     0.7694     5.2636 </r>
       <r>     3.0703     0.5583     5.3089 </r>
       <r>     3.1514     2.3325     5.4980 </r>
       <r>     3.2325     2.7843     5.7238 </r>
       <r>     3.3136     1.3395     5.8324 </r>
       <r>     3.3947     0.8625     5.9024 </r>
       <r>     3.4757     0.9574     5.9800 </r>
       <r>     3.5568     1.2197     6.0789 </r>
       <r>     3.6379     2.1591     6.2540 </r>
       <r>     3.7190     2.1250     6.4263 </r>
       <r>     3.8001     0.2818     6.4492 </r>
       <r>     3.8812     0.3283     6.4758 </r>
       <r>     3.9623     2.6322     6.6893 </r>
       <r>     4.0434     1.9465     6.8471 </r>
       <r>     4.1245     0.2960     6.8711 </r>
       <r>     4.2056     0.2913     6.8947 </r>
       <r>     4.2867     1.9796     7.0553 </r>
       <r>     4.3678     1.0525     7.1406 </r>
       <r>     4.4489     0.8585     7.2102 </r>
       <r>     4.5299     1.3756     7.3218 </r>
       <r>     4.6110     2.3837     7.5151 </r>
       <r>     4.6921     1.1580     7.6090 </r>
       <r>     4.7732     0.5050     7.6499 </r>
       <r>     4.8543     0.3130     7.6753 </r>
       <r>     4.9354     0.0062     7.6758 </r>
       <r>     5.0165     0.1855     7.6909 </r>
       <r>     5.0976     1.5888     7.8197 </r>
       <r>     5.1787     0.7201     7.8781 </r>
       <r>     5.2598     0.0097     7.8789 </r>
       <r>     5.3409     0.0000     7.8789 </r>
       <r>     5.4220     0.0001     7.8789 </r>
       <r>     5.5030     0.0665     7.8843 </r>
       <r>     5.5841     0.9182     7.9588 </r>
       <r>     5.6652     0.3614     7.9881 </r>
       <r>     5.7463     0.0029     7.9883 </r>
       <r>     5.8274     0.0346     7.9911 </r>
       <r>     5.9085     0.1009     7.9993 </r>
       <r>     5.9896     0.0088     8.0000 </r>
       <r>     6.0707     0.0000     8.0000 </r>
       <r>     6.1518     0.0000     8.0000 </r>
       <r>     6.2329     0.0000     8.0000 </r>
       <r>     6.3140     0.0000     8.0000 </r>
       <r>     6.3951     0.0073     8.0006 </r>
       <r>     6.4762     0.1708     8.0144 </r>
       <r>     6.5572     0.2440     8.0342 </r>
       <r>     6.6383     0.1533     8.0467 </r>
       <r>     6.7194     0.2724     8.0688 </r>
       <r>     6.8005     0.8113     8.1345 </r>
       <r>     6.8816     0.0756     8.1407 </r>
       <r>     6.9627     0.0837     8.1475 </r>
       <r>     7.0438     0.4037     8.1802 </r>
       <r>     7.1249     0.3789     8.2109 </r>
       <r>     7.2060     0.5974     8.2594 </r>
       <r>     7.2871     0.5567     8.3045 </r>
       <r>     7.3682     0.6226     8.3550 </r>
       <r>     7.4493     0.9678     8.4335 </r>
       <r>     7.5304     0.2405     8.4530 </r>
       <r>     7.6114     0.1993     8.4691 </r>
       <r>     7.6925     0.4915     8.5090 </r>
       <r>     7.7736     1.1060     8.5987 </r>
       <r>     7.8547     2.6485     8.8135 </r>
       <r>     7.9358     1.0260     8.8967 </r>
       <r>     8.0169     0.9420     8.9730 </r>
       <r>     8.0980     1.7405     9.1142 </r>
       <r>     8.1791     1.0080     9.1959 </r>
       <r>     8.2602     2.5231     9.4005 </r>
       <r>     8.3413     2.2823     9.5856 </r>
       <r>     8.4224     0.6533     9.6386 </r>
       <r>     8.5035     0.7054     9.6958 </r>
       <r>     8.5845     1.1003     9.7850 </r>
       <r>     8.6656     0.7107     9.8426 </r>
       <r>     8.7467     2.6930    10.0610 </r>
       <r>     8.8278     2.0138    10.2243 </r>
       <r>     8.9089     1.1964    10.3213 </r>
       <r>     8.9900     2.1341    10.4944 </r>
       <r>     9.0711     0.9672    10.5728 </r>
       <r>     9.1522     0.0761    10.5790 </r>
       <r>     9.2333     0.6715    10.6335 </r>
       <r>     9.3144     0.8422    10.7018 </r>
       <r>     9.3955     2.3790    10.8947 </r>
       <r>     9.4766     2.7839    11.1204 </r>
       <r>     9.5577     2.9336    11.3583 </r>
       <r>     9.6387     1.5248    11.4820 </r>
       <r>     9.7198     1.2575    11.5839 </r>
       <r>     9.8009     1.9953    11.7457 </r>
       <r>     9.8820     0.2642    11.7672 </r>
       <r>     9.9631     0.7756    11.8301 </r>
       <r>    10.0442     1.4293    11.9460 </r>
       <r>    10.1253     1.7787    12.0902 </r>
       <r>    10.2064     1.7031    12.2283 </r>
       <r>    10.2875     0.9033    12.3016 </r>
       <r>    10.3686     2.7852    12.5274 </r>
       <r>    10.4497     1.1633    12.6218 </r>
       <r>    10.5308     0.1691    12.6355 </r>
       <r>    10.6119     0.9332    12.7111 </r>
       <r>    10.6929     1.0704    12.7979 </r>
       <r>    10.7740     0.0901    12.8053 </r>
       <r>    10.8551     0.7512    12.8662 </r>
       <r>    10.9362     1.9834    13.0270 </r>
       <r>    11.0173     0.6337    13.0784 </r>
       <r>    11.0984     1.1991    13.1756 </r>
       <r>    11.1795     1.9675    13.3352 </r>
       <r>    11.2606     0.4885    13.3748 </r>
       <r>    11.3417     2.2423    13.5566 </r>
       <r>    11.4228     2.4741    13.7573 </r>
       <r>    11.5039     0.3888    13.7888 </r>
       <r>    11.5850     0.5481    13.8332 </r>
       <r>    11.6661     2.0558    13.9999 </r>
       <r>    11.7471     0.8827    14.0715 </r>
       <r>    11.8282     3.4473    14.3511 </r>
       <r>    11.9093     1.6115    14.4817 </r>
       <r>    11.9904     0.2576    14.5026 </r>
       <r>    12.0715     0.4581    14.5398 </r>
       <r>    12.1526     1.1786    14.6354 </r>
       <r>    12.2337     1.0857    14.7234 </r>
       <r>    12.3148     0.0390    14.7266 </r>
       <r>    12.3959     0.0000    14.7266 </r>
       <r>    12.4770     0.0000    14.7266 </r>
       <r>    12.5581     0.0000    14.7266 </r>
       <r>    12.6392     0.0000    14.7266 </r>
       <r>    12.7202     0.0084    14.7272 </r>
       <r>    12.8013     0.4901    14.7670 </r>
       <r>    12.8824     1.3787    14.8788 </r>
       <r>    12.9635     1.1287    14.9703 </r>
       <r>    13.0446     0.7922    15.0346 </r>
       <r>    13.1257     0.0572    15.0392 </r>
       <r>    13.2068     0.2547    15.0598 </r>
       <r>    13.2879     1.5194    15.1831 </r>
       <r>    13.3690     2.0072    15.3458 </r>
       <r>    13.4501     0.2626    15.3671 </r>
       <r>    13.5312     0.0120    15.3681 </r>
       <r>    13.6123     0.1404    15.3795 </r>
       <r>    13.6934     0.3879    15.4109 </r>
       <r>    13.7744     1.4925    15.5320 </r>
       <r>    13.8555     1.4923    15.6530 </r>
       <r>    13.9366     1.4477    15.7704 </r>
       <r>    14.0177     0.2288    15.7889 </r>
       <r>    14.0988     0.1808    15.8036 </r>
       <r>    14.1799     0.9381    15.8797 </r>
       <r>    14.2610     0.9480    15.9566 </r>
       <r>    14.3421     0.2456    15.9765 </r>
       <r>    14.4232     0.0012    15.9766 </r>
       <r>    14.5043     0.0000    15.9766 </r>
       <r>    14.5854     0.0000    15.9766 </r>
       <r>    14.6665     0.0000    15.9766 </r>
       <r>    14.7476     0.0000    15.9766 </r>
       <r>    14.8286     0.0000    15.9766 </r>
       <r>    14.9097     0.0000    15.9766 </r>
       <r>    14.9908     0.0000    15.9766 </r>
       <r>    15.0719     0.0000    15.9766 </r>
       <r>    15.1530     0.0000    15.9766 </r>
       <r>    15.2341     0.0000    15.9766 </r>
       <r>    15.3152     0.0000    15.9766 </r>
       <r>    15.3963     0.0000    15.9766 </r>
       <r>    15.4774     0.0000    15.9766 </r>
       <r>    15.5585     0.0000    15.9766 </r>
       <r>    15.6396     0.0000    15.9766 </r>
       <r>    15.7207     0.0000    15.9766 </r>
       <r>    15.8018     0.0000    15.9766 </r>
       <r>    15.8828     0.0003    15.9766 </r>
       <r>    15.9639     0.0600    15.9815 </r>
       <r>    16.0450     0.2087    15.9984 </r>
       <r>    16.1261     0.0200    16.0000 </r>
       <r>    16.2072     0.0000    16.0000 </r>
       <r>    16.2883     0.0000    16.0000 </r>
       <r>    16.3694     0.0000    16.0000 </r>
       <r>    16.4505     0.0000    16.0000 </r>
       <r>    16.5316     0.0000    16.0000 </r>
       <r>    16.6127     0.0000    16.0000 </r>
       <r>    16.6938     0.0000    16.0000 </r>
       <r>    16.7749     0.0000    16.0000 </r>
       <r>    16.8559     0.0000    16.0000 </r>
       <r>    16.9370     0.0000    16.0000 </r>
       <r>    17.0181     0.0000    16.0000 </r>
       <r>    17.0992     0.0000    16.0000 </r>
      </set>
     </set>
    </array>
   </total>
  </dos>
 </calculation>
 <structure name="finalpos" >
  <crystal>
   <varray name="basis" >
    <v>       0.00000000       2.71500000       2.71500000 </v>
    <v>       2.70957000       0.00000000       2.71500000 </v>
    <v>       2.70957000       2.71500000       0.00000000 </v>
   </varray>
   <i name="volume">     39.94570025 </i>
   <varray name="rec_basis" >
    <v>      -0.18453112       0.18416206       0.18416206 </v>
    <v>       0.18453112      -0.18416206       0.18416206 </v>
    <v>       0.18453112       0.18416206      -0.18416206 </v>
   </varray>
  </crystal>
  <varray name="positions" >
   <v>       0.00000000       0.00000000       0.00000000 </v>
   <v>       0.25000000       0.25000000       0.25000000 </v>
  </varray>
 </structure>
</modeling>
