<?xml version="1.0" encoding="ISO-8859-1"?>
<modeling>
 <generator>
  <i name="program" type="string">vasp </i>
  <i name="version" type="string">6.3.0  </i>
  <i name="subversion" type="string">20Jan22 (build Mar 29 2022 17:59:55) complex                          parallel </i>
  <i name="platform" type="string">IFC91_ompi </i>
  <i name="date" type="string">2026 07 23 </i>
  <i name="time" type="string">12:33:39 </i>
 </generator>
 <incar>
  <i type="int" name="ISTART">     0</i>
  <i type="string" name="PREC">Accurate</i>
  <i type="int" name="ICHARG">    11</i>
  <i type="int" name="ISYM">     0</i>
  <i name="ENCUT">    320.00000000</i>
  <i type="int" name="ISMEAR">     0</i>
  <i name="SIGMA">      0.05000000</i>
  <i type="int" name="LORBIT">    11</i>
  <i type="string" name="GGA">PE</i>
 </incar>
 <primitive_cell>
  <structure name="primitive_cell" >
   <crystal>
    <varray name="basis" >
     <v>       0.00000000       2.71500000       2.71500000 </v>
     <v>       2.70957000       0.00000000       2.71500000 </v>
     <v>       2.70957000       2.71500000       0.00000000 </v>
    </varray>
    <i name="volume">     39.94570025 </i>
    <varray name="rec_basis" >
     <v>      -0.18453112       0.18416206       0.18416206 </v>
     <v>       0.18453112      -0.18416206       0.18416206 </v>
     <v>       0.18453112       0.18416206      -0.18416206 </v>
    </varray>
   </crystal>
   <varray name="positions" >
    <v>       0.00000000       0.00000000       0.00000000 </v>
    <v>       0.25000000       0.25000000       0.25000000 </v>
   </varray>
  </structure>
  <varray name="primitive_index" >
   <v type="int" >        1 </v>
   <v type="int" >        2 </v>
  </varray>
 </primitive_cell>
 <kpoints>
  <generation param="listgenerated">
   <i name="divisions" type="int">      40 </i>
   <v>       0.00000000       0.50000000       0.50000000 </v>
   <v>       0.00000000       0.00000000       0.00000000 </v>
   <v>       0.50000000       0.00000000       0.50000000 </v>
  </generation>
  <varray name="kpointlist" >
   <v>       0.00000000       0.50000000       0.50000000 </v>
   <v>       0.00000000       0.48717949       0.48717949 </v>
   <v>       0.00000000       0.47435897       0.47435897 </v>
   <v>       0.00000000       0.46153846       0.46153846 </v>
   <v>       0.00000000       0.44871795       0.44871795 </v>
   <v>       0.00000000       0.43589744       0.43589744 </v>
   <v>       0.00000000       0.42307692       0.42307692 </v>
   <v>       0.00000000       0.41025641       0.41025641 </v>
   <v>       0.00000000       0.39743590       0.39743590 </v>
   <v>       0.00000000       0.38461538       0.38461538 </v>
   <v>       0.00000000       0.37179487       0.37179487 </v>
   <v>       0.00000000       0.35897436       0.35897436 </v>
   <v>       0.00000000       0.34615385       0.34615385 </v>
   <v>       0.00000000       0.33333333       0.33333333 </v>
   <v>       0.00000000       0.32051282       0.32051282 </v>
   <v>       0.00000000       0.30769231       0.30769231 </v>
   <v>       0.00000000       0.29487179       0.29487179 </v>
   <v>       0.00000000       0.28205128       0.28205128 </v>
   <v>       0.00000000       0.26923077       0.26923077 </v>
   <v>       0.00000000       0.25641026       0.25641026 </v>
   <v>       0.00000000       0.24358974       0.24358974 </v>
   <v>       0.00000000       0.23076923       0.23076923 </v>
   <v>       0.00000000       0.21794872       0.21794872 </v>
   <v>       0.00000000       0.20512821       0.20512821 </v>
   <v>       0.00000000       0.19230769       0.19230769 </v>
   <v>       0.00000000       0.17948718       0.17948718 </v>
   <v>       0.00000000       0.16666667       0.16666667 </v>
   <v>       0.00000000       0.15384615       0.15384615 </v>
   <v>       0.00000000       0.14102564       0.14102564 </v>
   <v>       0.00000000       0.12820513       0.12820513 </v>
   <v>       0.00000000       0.11538462       0.11538462 </v>
   <v>       0.00000000       0.10256410       0.10256410 </v>
   <v>       0.00000000       0.08974359       0.08974359 </v>
   <v>       0.00000000       0.07692308       0.07692308 </v>
   <v>       0.00000000       0.06410256       0.06410256 </v>
   <v>       0.00000000       0.05128205       0.05128205 </v>
   <v>       0.00000000       0.03846154       0.03846154 </v>
   <v>       0.00000000       0.02564103       0.02564103 </v>
   <v>       0.00000000       0.01282051       0.01282051 </v>
   <v>       0.00000000       0.00000000       0.00000000 </v>
   <v>       0.00000000       0.00000000       0.00000000 </v>
   <v>       0.01282051       0.00000000       0.01282051 </v>
   <v>       0.02564103       0.00000000       0.02564103 </v>
   <v>       0.03846154       0.00000000       0.03846154 </v>
   <v>       0.05128205       0.00000000       0.05128205 </v>
   <v>       0.06410256       0.00000000       0.06410256 </v>
   <v>       0.07692308       0.00000000       0.07692308 </v>
   <v>       0.08974359       0.00000000       0.08974359 </v>
   <v>       0.10256410       0.00000000       0.10256410 </v>
   <v>       0.11538462       0.00000000       0.11538462 </v>
   <v>       0.12820513       0.00000000       0.12820513 </v>
   <v>       0.14102564       0.00000000       0.14102564 </v>
   <v>       0.15384615       0.00000000       0.15384615 </v>
   <v>       0.16666667       0.00000000       0.16666667 </v>
   <v>       0.17948718       0.00000000       0.17948718 </v>
   <v>       0.19230769       0.00000000       0.19230769 </v>
   <v>       0.20512821       0.00000000       0.20512821 </v>
   <v>       0.21794872       0.00000000       0.21794872 </v>
   <v>       0.23076923       0.00000000       0.23076923 </v>
   <v>       0.24358974       0.00000000       0.24358974 </v>
   <v>       0.25641026       0.00000000       0.25641026 </v>
   <v>       0.26923077       0.00000000       0.26923077 </v>
   <v>       0.28205128       0.00000000       0.28205128 </v>
   <v>       0.29487179       0.00000000       0.29487179 </v>
   <v>       0.30769231       0.00000000       0.30769231 </v>
   <v>       0.32051282       0.00000000       0.32051282 </v>
   <v>       0.33333333       0.00000000       0.33333333 </v>
   <v>       0.34615385       0.00000000       0.34615385 </v>
   <v>       0.35897436       0.00000000       0.35897436 </v>
   <v>       0.37179487       0.00000000       0.37179487 </v>
   <v>       0.38461538       0.00000000       0.38461538 </v>
   <v>       0.39743590       0.00000000       0.39743590 </v>
   <v>       0.41025641       0.00000000       0.41025641 </v>
   <v>       0.42307692       0.00000000       0.42307692 </v>
   <v>       0.43589744       0.00000000       0.43589744 </v>
   <v>       0.44871795       0.00000000       0.44871795 </v>
   <v>       0.46153846       0.00000000       0.46153846 </v>
   <v>       0.47435897       0.00000000       0.47435897 </v>
   <v>       0.48717949       0.00000000       0.48717949 </v>
   <v>       0.50000000       0.00000000       0.50000000 </v>
  </varray>
  <varray name="weights" >
   <v>       0.01250000 </v>
   <v>       0.01250000 </v>
   <v>       0.01250000 </v>
   <v>       0.01250000 </v>
   <v>       0.01250000 </v>
   <v>       0.01250000 </v>
   <v>       0.01250000 </v>
   <v>       0.01250000 </v>
   <v>       0.01250000 </v>
   <v>       0.01250000 </v>
   <v>       0.01250000 </v>
   <v>       0.01250000 </v>
   <v>       0.01250000 </v>
   <v>       0.01250000 </v>
   <v>       0.01250000 </v>
   <v>       0.01250000 </v>
   <v>       0.01250000 </v>
   <v>       0.01250000 </v>
   <v>       0.01250000 </v>
   <v>       0.01250000 </v>
   <v>       0.01250000 </v>
   <v>       0.01250000 </v>
   <v>       0.01250000 </v>
   <v>       0.01250000 </v>
   <v>       0.01250000 </v>
   <v>       0.01250000 </v>
   <v>       0.01250000 </v>
   <v>       0.01250000 </v>
   <v>       0.01250000 </v>
   <v>       0.01250000 </v>
   <v>       0.01250000 </v>
   <v>       0.01250000 </v>
   <v>       0.01250000 </v>
   <v>       0.01250000 </v>
   <v>       0.01250000 </v>
   <v>       0.01250000 </v>
   <v>       0.01250000 </v>
   <v>       0.01250000 </v>
   <v>       0.01250000 </v>
   <v>       0.01250000 </v>
   <v>       0.01250000 </v>
   <v>       0.01250000 </v>
   <v>       0.01250000 </v>
   <v>       0.01250000 </v>
   <v>       0.01250000 </v>
   <v>       0.01250000 </v>
   <v>       0.01250000 </v>
   <v>       0.01250000 </v>
   <v>       0.01250000 </v>
   <v>       0.01250000 </v>
   <v>       0.01250000 </v>
   <v>       0.01250000 </v>
   <v>       0.01250000 </v>
   <v>       0.01250000 </v>
   <v>       0.01250000 </v>
   <v>       0.01250000 </v>
   <v>       0.01250000 </v>
   <v>       0.01250000 </v>
   <v>       0.01250000 </v>
   <v>       0.01250000 </v>
   <v>       0.01250000 </v>
   <v>       0.01250000 </v>
   <v>       0.01250000 </v>
   <v>       0.01250000 </v>
   <v>       0.01250000 </v>
   <v>       0.01250000 </v>
   <v>       0.01250000 </v>
   <v>       0.01250000 </v>
   <v>       0.01250000 </v>
   <v>       0.01250000 </v>
   <v>       0.01250000 </v>
   <v>       0.01250000 </v>
   <v>       0.01250000 </v>
   <v>       0.01250000 </v>
   <v>       0.01250000 </v>
   <v>       0.01250000 </v>
   <v>       0.01250000 </v>
   <v>       0.01250000 </v>
   <v>       0.01250000 </v>
   <v>       0.01250000 </v>
  </varray>
  <kpoints_labels>
   <i name="X_par" type="int">       1 </i>
   <i name="\Gamma" type="int">       2 </i>
   <i name="\Gamma" type="int">       3 </i>
   <i name="X_perp" type="int">       4 </i>
  </kpoints_labels>
 </kpoints>
 <parameters>
  <separator name="general" >
   <i type="string" name="SYSTEM">unknown system</i>
   <i type="logical" name="LCOMPAT"> F  </i>
  </separator>
  <separator name="electronic" >
   <i type="string" name="PREC">accura</i>
   <i name="ENMAX">    320.00000000</i>
   <i name="ENAUG">    322.06900000</i>
   <i name="EDIFF">      0.00010000</i>
   <i type="int" name="IALGO">    38</i>
   <i type="int" name="IWAVPR">    10</i>
   <i type="int" name="NBANDS">     8</i>
   <i type="int" name="NBANDSLOW">    -1</i>
   <i type="int" name="NBANDSHIGH">    -1</i>
   <i name="NELECT">      8.00000000</i>
   <i type="int" name="TURBO">     0</i>
   <i type="int" name="IRESTART">     0</i>
   <i type="int" name="NREBOOT">     0</i>
   <i type="int" name="NMIN">     0</i>
   <i name="EREF">      0.00000000</i>
   <separator name="electronic smearing" >
    <i type="int" name="ISMEAR">     0</i>
    <i name="SIGMA">      0.05000000</i>
    <i name="KSPACING">      0.50000000</i>
    <i type="logical" name="KGAMMA"> T  </i>
    <i type="logical" name="KBLOWUP"> T  </i>
   </separator>
   <separator name="electronic projectors" >
    <i type="logical" name="LREAL"> F  </i>
    <v name="ROPT">      0.00000000</v>
    <i type="int" name="LMAXPAW">  -100</i>
    <i type="int" name="LMAXMIX">     2</i>
    <i type="logical" name="NLSPLINE"> F  </i>
   </separator>
   <separator name="electronic startup" >
    <i type="int" name="ISTART">     0</i>
    <i type="int" name="ICHARG">    11</i>
    <i type="int" name="INIWAV">     1</i>
   </separator>
   <separator name="electronic spin" >
    <i type="int" name="ISPIN">     1</i>
    <i type="logical" name="LNONCOLLINEAR"> F  </i>
    <v name="MAGMOM">      1.00000000      1.00000000</v>
    <i name="NUPDOWN">     -1.00000000</i>
    <i type="logical" name="LSORBIT"> F  </i>
    <v name="SAXIS">      0.00000000      0.00000000      1.00000000</v>
    <i type="logical" name="LSPIRAL"> F  </i>
    <v name="QSPIRAL">      0.00000000      0.00000000      0.00000000</v>
    <i type="logical" name="LZEROZ"> F  </i>
   </separator>
   <separator name="electronic exchange-correlation" >
    <i type="logical" name="LASPH"> F  </i>
    <i type="logical" name="LMETAGGA"> F  </i>
   </separator>
   <separator name="electronic convergence" >
    <i type="int" name="NELM">    60</i>
    <i type="int" name="NELMDL">    -5</i>
    <i type="int" name="NELMIN">     2</i>
    <i name="ENINI">    320.00000000</i>
    <separator name="electronic convergence detail" >
     <i type="logical" name="LDIAG"> T  </i>
     <i type="logical" name="LSUBROT"> F  </i>
     <i name="WEIMIN">      0.00000000</i>
     <i name="EBREAK">      0.00000313</i>
     <i name="DEPER">      0.30000000</i>
     <i type="int" name="NRMM">     4</i>
     <i name="TIME">      0.40000000</i>
    </separator>
   </separator>
   <separator name="electronic mixer" >
    <i name="AMIX">      0.40000000</i>
    <i name="BMIX">      1.00000000</i>
    <i name="AMIN">      0.10000000</i>
    <i name="AMIX_MAG">      1.60000000</i>
    <i name="BMIX_MAG">      1.00000000</i>
    <separator name="electronic mixer details" >
     <i type="int" name="IMIX">     4</i>
     <i type="logical" name="MIXFIRST"> F  </i>
     <i type="int" name="MAXMIX">   -45</i>
     <i name="WC">    100.00000000</i>
     <i type="int" name="INIMIX">     1</i>
     <i type="int" name="MIXPRE">     1</i>
     <i type="int" name="MREMOVE">     5</i>
    </separator>
   </separator>
   <separator name="electronic dipolcorrection" >
    <i type="logical" name="LDIPOL"> F  </i>
    <i type="logical" name="LMONO"> F  </i>
    <i type="int" name="IDIPOL">     0</i>
    <i name="EPSILON">      1.00000000</i>
    <v name="DIPOL">   -100.00000000   -100.00000000   -100.00000000</v>
    <i name="EFIELD">      0.00000000</i>
   </separator>
  </separator>
  <separator name="grids" >
   <i type="int" name="NGX">    24</i>
   <i type="int" name="NGY">    24</i>
   <i type="int" name="NGZ">    24</i>
   <i type="int" name="NGXF">    48</i>
   <i type="int" name="NGYF">    48</i>
   <i type="int" name="NGZF">    48</i>
   <i type="logical" name="ADDGRID"> F  </i>
  </separator>
  <separator name="ionic" >
   <i type="int" name="NSW">     0</i>
   <i type="int" name="IBRION">    -1</i>
   <i type="int" name="MDALGO">     0</i>
   <i type="int" name="ISIF">     2</i>
   <i name="PSTRESS">      0.00000000</i>
   <i name="EDIFFG">      0.00100000</i>
   <i type="int" name="NFREE">     0</i>
   <i name="POTIM">      0.50000000</i>
   <i name="SMASS">     -3.00000000</i>
   <i name="SCALEE">      1.00000000</i>
  </separator>
  <separator name="ionic md" >
   <i name="TEBEG">      0.00010000</i>
   <i name="TEEND">      0.00010000</i>
   <i type="int" name="NBLOCK">     1</i>
   <i type="int" name="KBLOCK">     1</i>
   <i type="int" name="NPACO">   256</i>
   <i name="APACO">     10.00000000</i>
  </separator>
  <separator name="symmetry" >
   <i type="int" name="ISYM">     0</i>
   <i name="SYMPREC">      0.00001000</i>
  </separator>
  <separator name="dos" >
   <i type="int" name="LORBIT">    11</i>
   <v name="RWIGS">     -1.00000000</v>
   <i type="int" name="NEDOS">   301</i>
   <i name="EMIN">     10.00000000</i>
   <i name="EMAX">    -10.00000000</i>
   <i name="EFERMI">      0.00000000</i>
  </separator>
  <separator name="writing" >
   <i type="int" name="NWRITE">     2</i>
   <i type="logical" name="LWAVE"> T  </i>
   <i type="logical" name="LDOWNSAMPLE"> F  </i>
   <i type="logical" name="LCHARG"> T  </i>
   <i type="logical" name="LPARD"> F  </i>
   <i type="logical" name="LVTOT"> F  </i>
   <i type="logical" name="LVHAR"> F  </i>
   <i type="logical" name="LELF"> F  </i>
   <i type="logical" name="LOPTICS"> F  </i>
   <v name="STM">      0.00000000      0.00000000      0.00000000      0.00000000      0.00000000      0.00000000      0.00000000</v>
  </separator>
  <separator name="performance" >
   <i type="int" name="NPAR">     1</i>
   <i type="int" name="NSIM">     4</i>
   <i type="int" name="NBLK">    -1</i>
   <i type="logical" name="LPLANE"> T  </i>
   <i type="logical" name="LSCALAPACK"> T  </i>
   <i type="logical" name="LSCAAWARE"> F  </i>
   <i type="logical" name="LSCALU"> F  </i>
   <i type="logical" name="LASYNC"> F  </i>
   <i type="logical" name="LORBITALREAL"> F  </i>
  </separator>
  <separator name="miscellaneous" >
   <i type="int" name="IDIOT">     3</i>
   <i type="int" name="PHON_NSTRUCT">    -1</i>
   <i type="logical" name="LMUSIC"> F  </i>
   <v name="POMASS">     28.08500000</v>
   <v name="DARWINR">      0.00000000</v>
   <v name="DARWINV">      1.00000000</v>
   <i type="logical" name="LCORR"> T  </i>
  </separator>
  <i type="logical" name="GGA_COMPAT"> T  </i>
  <i type="logical" name="LBERRY"> F  </i>
  <i type="int" name="ICORELEVEL">     0</i>
  <i type="logical" name="LDAU"> F  </i>
  <i type="int" name="I_CONSTRAINED_M">     0</i>
  <separator name="electronic exchange-correlation" >
   <i type="string" name="GGA">PE</i>
   <i type="int" name="VOSKOWN">     0</i>
   <i type="logical" name="LHFCALC"> F  </i>
   <i type="string" name="PRECFOCK"></i>
   <i type="logical" name="LSYMGRAD"> F  </i>
   <i type="logical" name="LHFONE"> F  </i>
   <i type="logical" name="LRHFCALC"> F  </i>
   <i type="logical" name="LTHOMAS"> F  </i>
   <i type="logical" name="LMODELHF"> F  </i>
   <i type="logical" name="LFOCKACE"> F  </i>
   <i name="ENCUT4O">     -1.00000000</i>
   <i type="int" name="EXXOEP">     0</i>
   <i type="int" name="FOURORBIT">     0</i>
   <i name="AEXX">      0.00000000</i>
   <i name="HFALPHA">      0.00000000</i>
   <i name="MCALPHA">      0.00000000</i>
   <i name="ALDAX">      1.00000000</i>
   <i name="AGGAX">      1.00000000</i>
   <i name="ALDAC">      1.00000000</i>
   <i name="AGGAC">      1.00000000</i>
   <i type="int" name="NKREDX">     1</i>
   <i type="int" name="NKREDY">     1</i>
   <i type="int" name="NKREDZ">     1</i>
   <i type="logical" name="SHIFTRED"> F  </i>
   <i type="logical" name="ODDONLY"> F  </i>
   <i type="logical" name="EVENONLY"> F  </i>
   <i type="int" name="LMAXFOCK">     0</i>
   <i type="int" name="NMAXFOCKAE">     0</i>
   <i type="logical" name="LFOCKAEDFT"> F  </i>
   <i name="HFSCREEN">      0.00000000</i>
   <i name="HFSCREENC">      0.00000000</i>
   <i type="int" name="NBANDSGWLOW">     0</i>
  </separator>
  <separator name="vdW DFT" >
   <i type="logical" name="LUSE_VDW"> F  </i>
   <i name="Zab_VDW">     -0.84910000</i>
   <i name="PARAM1">      0.12340000</i>
   <i name="PARAM2">      1.00000000</i>
   <i name="PARAM3">      0.00000000</i>
  </separator>
  <separator name="model GW" >
   <i type="int" name="MODEL_GW">     0</i>
   <i name="MODEL_EPS0">     11.98371007</i>
   <i name="MODEL_ALPHA">      1.00000000</i>
  </separator>
  <separator name="linear response parameters" >
   <i type="logical" name="LEPSILON"> F  </i>
   <i type="logical" name="LRPA"> F  </i>
   <i type="logical" name="LNABLA"> F  </i>
   <i type="logical" name="LVEL"> F  </i>
   <i name="CSHIFT">      0.10000000</i>
   <i name="OMEGAMAX">     -1.00000000</i>
   <i name="DEG_THRESHOLD">      0.00200000</i>
   <i name="RTIME">     -0.10000000</i>
   <i name="WPLASMAI">      0.00000000</i>
   <v name="DFIELD">      0.00000000      0.00000000      0.00000000</v>
   <v name="WPLASMA">      0.00000000      0.00000000      0.00000000      0.00000000      0.00000000      0.00000000      0.00000000      0.00000000      0.00000000</v>
  </separator>
  <separator name="orbital magnetization" >
   <i type="logical" name="NUCIND"> F  </i>
   <v name="MAGPOS">      0.00000000      0.00000000      0.00000000</v>
   <i type="logical" name="LNICSALL"> T  </i>
   <i type="logical" name="ORBITALMAG"> F  </i>
   <i type="logical" name="LMAGBLOCH"> F  </i>
   <i type="logical" name="LCHIMAG"> F  </i>
   <i type="logical" name="LGAUGE"> T  </i>
   <i type="int" name="MAGATOM">     0</i>
   <v name="MAGDIPOL">      0.00000000      0.00000000      0.00000000</v>
   <v name="AVECCONST">      0.00000000      0.00000000      0.00000000</v>
  </separator>
  <separator name="response functions" >
   <i type="logical" name="LFINITE_TEMPERATURE"> F  </i>
   <i type="logical" name="LADDER"> F  </i>
   <i type="logical" name="LRPAFORCE"> F  </i>
   <i type="logical" name="LFXC"> F  </i>
   <i type="logical" name="LHARTREE"> T  </i>
   <i type="int" name="IBSE">     0</i>
   <v type="int" name="KPOINT">    -1     0     0     0</v>
   <i type="logical" name="LTCTC"> F  </i>
   <i type="logical" name="LTCTE"> F  </i>
   <i type="logical" name="LTETE"> F  </i>
   <i type="logical" name="LTRIPLET"> F  </i>
   <i type="logical" name="LFXCEPS"> F  </i>
   <i type="logical" name="LFXHEG"> F  </i>
   <i type="int" name="NATURALO">     2</i>
   <i type="logical" name="LHOLEGF"> F  </i>
   <i type="logical" name="L2ORDER"> F  </i>
   <i type="logical" name="LDMP1"> F  </i>
   <i type="logical" name="LMP2LT"> F  </i>
   <i type="logical" name="LSMP2LT"> F  </i>
   <i type="logical" name="LGWLF"> F  </i>
   <i name="ENCUTGW">     -2.00000000</i>
   <i name="ENCUTGWSOFT">     -2.00000000</i>
   <i name="ENCUTLF">     -1.00000000</i>
   <i type="logical" name="LESF_SPLINES"> F  </i>
   <i type="int" name="LMAXMP2">    -1</i>
   <i name="SCISSOR">      0.00000000</i>
   <i type="int" name="NOMEGA">     0</i>
   <i type="int" name="NOMEGAR">     0</i>
   <i type="int" name="NBANDSGW">    -1</i>
   <i type="int" name="NBANDSO">    -1</i>
   <i type="int" name="NBANDSV">    -1</i>
   <i type="int" name="NELMGW">     1</i>
   <i type="int" name="NELMHF">     1</i>
   <i type="int" name="DIM">     3</i>
   <i type="int" name="IESPILON">     4</i>
   <i type="int" name="ANTIRES">     0</i>
   <i name="OMEGAMAX">    -30.00000000</i>
   <i name="OMEGAMIN">    -30.00000000</i>
   <i name="OMEGATL">   -200.00000000</i>
   <i type="int" name="OMEGAGRID">     0</i>
   <i name="CSHIFT">     -0.10000000</i>
   <i type="logical" name="LSELFENERGY"> F  </i>
   <i type="logical" name="LSPECTRAL"> F  </i>
   <i type="logical" name="LSPECTRALGW"> F  </i>
   <i type="logical" name="LSINGLES"> F  </i>
   <i type="logical" name="LFERMIGW"> F  </i>
   <i type="logical" name="ODDONLYGW"> F  </i>
   <i type="logical" name="EVENONLYGW"> F  </i>
   <i type="int" name="NKREDLFX">     1</i>
   <i type="int" name="NKREDLFY">     1</i>
   <i type="int" name="NKREDLFZ">     1</i>
   <i type="int" name="MAXMEM">  2800</i>
   <i type="int" name="TELESCOPE">     0</i>
   <i type="int" name="NTAUPAR">    -1</i>
   <i type="int" name="NOMEGAPAR">    -1</i>
   <i name="DAMP_NEWTON">      0.80000001</i>
   <i name="LAMBDA">      1.00000000</i>
  </separator>
  <separator name="External order field" >
   <i name="OFIELD_KAPPA">      0.00000000</i>
   <v name="OFIELD_K">      0.00000000      0.00000000      0.00000000</v>
   <i name="OFIELD_Q6_NEAR">      0.00000000</i>
   <i name="OFIELD_Q6_FAR">      0.00000000</i>
   <i name="OFIELD_A">      0.00000000</i>
  </separator>
  <separator name="optional k-points parameters" >
   <i type="int" name="KPOINTS_OPT_MODE">     1</i>
   <i type="logical" name="LKPOINTS_OPT"> F  </i>
  </separator>
 </parameters>
 <atominfo>
  <atoms>       2 </atoms>
  <types>       1 </types>
  <array name="atoms" >
   <dimension dim="1">ion</dimension>
   <field type="string">element</field>
   <field type="int">atomtype</field>
   <set>
    <rc><c>Si</c><c>   1</c></rc>
    <rc><c>Si</c><c>   1</c></rc>
   </set>
  </array>
  <array name="atomtypes" >
   <dimension dim="1">type</dimension>
   <field type="int">atomspertype</field>
   <field type="string">element</field>
   <field>mass</field>
   <field>valence</field>
   <field type="string">pseudopotential</field>
   <set>
    <rc><c>   2</c><c>Si</c><c>     28.08500000</c><c>      4.00000000</c><c>  PAW_PBE Si 05Jan2001                  </c></rc>
   </set>
  </array>
 </atominfo>
 <structure name="initialpos" >
  <crystal>
   <varray name="basis" >
    <v>       0.00000000       2.71500000       2.71500000 </v>
    <v>       2.70957000       0.00000000       2.71500000 </v>
    <v>       2.70957000       2.71500000       0.00000000 </v>
   </varray>
   <i name="volume">     39.94570025 </i>
   <varray name="rec_basis" >
    <v>      -0.18453112       0.18416206       0.18416206 </v>
    <v>       0.18453112      -0.18416206       0.18416206 </v>
    <v>       0.18453112       0.18416206      -0.18416206 </v>
   </varray>
  </crystal>
  <varray name="positions" >
   <v>       0.00000000       0.00000000       0.00000000 </v>
   <v>       0.25000000       0.25000000       0.25000000 </v>
  </varray>
 </structure>
 <calculation>
  <scstep>
   <time name="dav">    0.88    0.88</time>
   <time name="total">    0.93    0.93</time>
   <energy>
    <i name="alphaZ">      3.37088904 </i>
    <i name="ewald">   -228.71624421 </i>
    <i name="hartreedc">    -14.90425480 </i>
    <i name="XCdc">    -17.94977794 </i>
    <i name="pawpsdc">    898.36377201 </i>
    <i name="pawaedc">   -863.40490144 </i>
    <i name="eentropy">     -0.00109118 </i>
    <i name="bandstr">     26.19008242 </i>
    <i name="atom">    206.13066687 </i>
    <i name="e_fr_energy">      9.07914077 </i>
    <i name="e_wo_entrp">      9.08023195 </i>
    <i name="e_0_energy">      9.07968636 </i>
   </energy>
  </scstep>
  <scstep>
   <time name="dav">    1.28    1.28</time>
   <time name="total">    1.28    1.28</time>
   <energy>
    <i name="e_fr_energy">     -5.07556129 </i>
    <i name="e_wo_entrp">     -5.07405273 </i>
    <i name="e_0_energy">     -5.07480701 </i>
   </energy>
  </scstep>
  <scstep>
   <time name="dav">    1.05    1.05</time>
   <time name="total">    1.05    1.05</time>
   <energy>
    <i name="e_fr_energy">     -5.27609034 </i>
    <i name="e_wo_entrp">     -5.27609034 </i>
    <i name="e_0_energy">     -5.27609034 </i>
   </energy>
  </scstep>
  <scstep>
   <time name="dav">    1.24    1.24</time>
   <time name="total">    1.24    1.24</time>
   <energy>
    <i name="e_fr_energy">     -5.27677785 </i>
    <i name="e_wo_entrp">     -5.27677785 </i>
    <i name="e_0_energy">     -5.27677785 </i>
   </energy>
  </scstep>
  <scstep>
   <time name="dav">    1.03    1.03</time>
   <time name="total">    1.03    1.03</time>
   <energy>
    <i name="e_fr_energy">     -5.27677925 </i>
    <i name="e_wo_entrp">     -5.27677925 </i>
    <i name="e_0_energy">     -5.27677925 </i>
   </energy>
  </scstep>
  <scstep>
   <time name="dav">    1.02    1.02</time>
   <time name="total">    1.02    1.02</time>
   <energy>
    <i name="alphaZ">      3.37088904 </i>
    <i name="ewald">   -228.71624421 </i>
    <i name="hartreedc">    -14.90425480 </i>
    <i name="XCdc">    -17.94977794 </i>
    <i name="pawpsdc">    898.36377201 </i>
    <i name="pawaedc">   -863.40490144 </i>
    <i name="eentropy">     -0.00000000 </i>
    <i name="bandstr">     11.83307119 </i>
    <i name="atom">    206.13066687 </i>
    <i name="e_fr_energy">     -5.27677927 </i>
    <i name="e_wo_entrp">     -5.27677927 </i>
    <i name="e_0_energy">     -5.27677927 </i>
   </energy>
  </scstep>
  <structure>
   <crystal>
    <varray name="basis" >
     <v>       0.00000000       2.71500000       2.71500000 </v>
     <v>       2.70957000       0.00000000       2.71500000 </v>
     <v>       2.70957000       2.71500000       0.00000000 </v>
    </varray>
    <i name="volume">     39.94570025 </i>
    <varray name="rec_basis" >
     <v>      -0.18453112       0.18416206       0.18416206 </v>
     <v>       0.18453112      -0.18416206       0.18416206 </v>
     <v>       0.18453112       0.18416206      -0.18416206 </v>
    </varray>
   </crystal>
   <varray name="positions" >
    <v>       0.00000000       0.00000000       0.00000000 </v>
    <v>       0.25000000       0.25000000       0.25000000 </v>
   </varray>
  </structure>
  <varray name="forces" >
   <v>      -0.00000004       0.00000277      -0.00000030 </v>
   <v>       0.00000004      -0.00000277       0.00000030 </v>
  </varray>
  <varray name="stress" >
   <v>     243.84286870      -0.00016237      -0.00011866 </v>
   <v>      -0.00016235     241.86988394      -0.00020079 </v>
   <v>      -0.00011865      -0.00020092     338.20830870 </v>
  </varray>
  <energy>
   <i name="e_fr_energy">     -5.27677927 </i>
   <i name="e_wo_entrp">     -5.27677927 </i>
   <i name="e_0_energy">     -5.27677927 </i>
  </energy>
  <time name="totalsc">    7.16    7.16</time>
  <eigenvalues>
   <array>
    <dimension dim="1">band</dimension>
    <dimension dim="2">kpoint</dimension>
    <dimension dim="3">spin</dimension>
    <field>eigene</field>
    <field>occ</field>
    <set>
     <set comment="spin 1">
      <set comment="kpoint 1">
       <r>   -1.9613    1.0000 </r>
       <r>   -1.9613    1.0000 </r>
       <r>    2.9862    1.0000 </r>
       <r>    2.9862    1.0000 </r>
       <r>    6.5496    0.0000 </r>
       <r>    6.5496    0.0000 </r>
       <r>   15.9914    0.0000 </r>
       <r>   15.9930    0.0000 </r>
      </set>
      <set comment="kpoint 2">
       <r>   -2.1587    1.0000 </r>
       <r>   -1.7605    1.0000 </r>
       <r>    2.9888    1.0000 </r>
       <r>    2.9888    1.0000 </r>
       <r>    6.5075    0.0000 </r>
       <r>    6.5995    0.0000 </r>
       <r>   15.9190    0.0000 </r>
       <r>   15.9218    0.0000 </r>
      </set>
      <set comment="kpoint 3">
       <r>   -2.3525    1.0000 </r>
       <r>   -1.5564    1.0000 </r>
       <r>    2.9966    1.0000 </r>
       <r>    2.9966    1.0000 </r>
       <r>    6.4732    0.0000 </r>
       <r>    6.6576    0.0000 </r>
       <r>   15.7484    0.0000 </r>
       <r>   15.7484    0.0000 </r>
      </set>
      <set comment="kpoint 4">
       <r>   -2.5426    1.0000 </r>
       <r>   -1.3493    1.0000 </r>
       <r>    3.0097    1.0000 </r>
       <r>    3.0097    1.0000 </r>
       <r>    6.4464    0.0000 </r>
       <r>    6.7235    0.0000 </r>
       <r>   15.5350    0.0000 </r>
       <r>   15.5350    0.0000 </r>
      </set>
      <set comment="kpoint 5">
       <r>   -2.7287    1.0000 </r>
       <r>   -1.1392    1.0000 </r>
       <r>    3.0279    1.0000 </r>
       <r>    3.0279    1.0000 </r>
       <r>    6.4271    0.0000 </r>
       <r>    6.7976    0.0000 </r>
       <r>   15.3043    0.0000 </r>
       <r>   15.3043    0.0000 </r>
      </set>
      <set comment="kpoint 6">
       <r>   -2.9109    1.0000 </r>
       <r>   -0.9263    1.0000 </r>
       <r>    3.0513    1.0000 </r>
       <r>    3.0513    1.0000 </r>
       <r>    6.4151    0.0000 </r>
       <r>    6.8800    0.0000 </r>
       <r>   15.0660    0.0000 </r>
       <r>   15.0660    0.0000 </r>
      </set>
      <set comment="kpoint 7">
       <r>   -3.0889    1.0000 </r>
       <r>   -0.7109    1.0000 </r>
       <r>    3.0799    1.0000 </r>
       <r>    3.0799    1.0000 </r>
       <r>    6.4103    0.0000 </r>
       <r>    6.9706    0.0000 </r>
       <r>   14.8244    0.0000 </r>
       <r>   14.8244    0.0000 </r>
      </set>
      <set comment="kpoint 8">
       <r>   -3.2627    1.0000 </r>
       <r>   -0.4931    1.0000 </r>
       <r>    3.1138    1.0000 </r>
       <r>    3.1138    1.0000 </r>
       <r>    6.4127    0.0000 </r>
       <r>    7.0695    0.0000 </r>
       <r>   14.5808    0.0000 </r>
       <r>   14.5808    0.0000 </r>
      </set>
      <set comment="kpoint 9">
       <r>   -3.4321    1.0000 </r>
       <r>   -0.2732    1.0000 </r>
       <r>    3.1527    1.0000 </r>
       <r>    3.1527    1.0000 </r>
       <r>    6.4220    0.0000 </r>
       <r>    7.1770    0.0000 </r>
       <r>   14.3377    0.0000 </r>
       <r>   14.3377    0.0000 </r>
      </set>
      <set comment="kpoint 10">
       <r>   -3.5971    1.0000 </r>
       <r>   -0.0513    1.0000 </r>
       <r>    3.1966    1.0000 </r>
       <r>    3.1966    1.0000 </r>
       <r>    6.4378    0.0000 </r>
       <r>    7.2927    0.0000 </r>
       <r>   14.0952    0.0000 </r>
       <r>   14.0952    0.0000 </r>
      </set>
      <set comment="kpoint 11">
       <r>   -3.7574    1.0000 </r>
       <r>    0.1723    1.0000 </r>
       <r>    3.2456    1.0000 </r>
       <r>    3.2456    1.0000 </r>
       <r>    6.4605    0.0000 </r>
       <r>    7.4170    0.0000 </r>
       <r>   13.8530    0.0000 </r>
       <r>   13.8530    0.0000 </r>
      </set>
      <set comment="kpoint 12">
       <r>   -3.9130    1.0000 </r>
       <r>    0.3976    1.0000 </r>
       <r>    3.2997    1.0000 </r>
       <r>    3.2997    1.0000 </r>
       <r>    6.4905    0.0000 </r>
       <r>    7.5499    0.0000 </r>
       <r>   13.6133    0.0000 </r>
       <r>   13.6133    0.0000 </r>
      </set>
      <set comment="kpoint 13">
       <r>   -4.0639    1.0000 </r>
       <r>    0.6243    1.0000 </r>
       <r>    3.3587    1.0000 </r>
       <r>    3.3587    1.0000 </r>
       <r>    6.5260    0.0000 </r>
       <r>    7.6911    0.0000 </r>
       <r>   13.3738    0.0000 </r>
       <r>   13.3738    0.0000 </r>
      </set>
      <set comment="kpoint 14">
       <r>   -4.2100    1.0000 </r>
       <r>    0.8521    1.0000 </r>
       <r>    3.4226    1.0000 </r>
       <r>    3.4226    1.0000 </r>
       <r>    6.5677    0.0000 </r>
       <r>    7.8406    0.0000 </r>
       <r>   13.1356    0.0000 </r>
       <r>   13.1356    0.0000 </r>
      </set>
      <set comment="kpoint 15">
       <r>   -4.3511    1.0000 </r>
       <r>    1.0809    1.0000 </r>
       <r>    3.4914    1.0000 </r>
       <r>    3.4914    1.0000 </r>
       <r>    6.6152    0.0000 </r>
       <r>    7.9981    0.0000 </r>
       <r>   12.8989    0.0000 </r>
       <r>   12.8989    0.0000 </r>
      </set>
      <set comment="kpoint 16">
       <r>   -4.4872    1.0000 </r>
       <r>    1.3104    1.0000 </r>
       <r>    3.5650    1.0000 </r>
       <r>    3.5650    1.0000 </r>
       <r>    6.6687    0.0000 </r>
       <r>    8.1635    0.0000 </r>
       <r>   12.6637    0.0000 </r>
       <r>   12.6637    0.0000 </r>
      </set>
      <set comment="kpoint 17">
       <r>   -4.6182    1.0000 </r>
       <r>    1.5406    1.0000 </r>
       <r>    3.6432    1.0000 </r>
       <r>    3.6432    1.0000 </r>
       <r>    6.7275    0.0000 </r>
       <r>    8.3362    0.0000 </r>
       <r>   12.4300    0.0000 </r>
       <r>   12.4300    0.0000 </r>
      </set>
      <set comment="kpoint 18">
       <r>   -4.7440    1.0000 </r>
       <r>    1.7711    1.0000 </r>
       <r>    3.7260    1.0000 </r>
       <r>    3.7260    1.0000 </r>
       <r>    6.7917    0.0000 </r>
       <r>    8.5159    0.0000 </r>
       <r>   12.1979    0.0000 </r>
       <r>   12.1979    0.0000 </r>
      </set>
      <set comment="kpoint 19">
       <r>   -4.8647    1.0000 </r>
       <r>    2.0018    1.0000 </r>
       <r>    3.8133    1.0000 </r>
       <r>    3.8133    1.0000 </r>
       <r>    6.8606    0.0000 </r>
       <r>    8.7016    0.0000 </r>
       <r>   11.9665    0.0000 </r>
       <r>   11.9665    0.0000 </r>
      </set>
      <set comment="kpoint 20">
       <r>   -4.9801    1.0000 </r>
       <r>    2.2325    1.0000 </r>
       <r>    3.9048    1.0000 </r>
       <r>    3.9048    1.0000 </r>
       <r>    6.9343    0.0000 </r>
       <r>    8.8928    0.0000 </r>
       <r>   11.7374    0.0000 </r>
       <r>   11.7374    0.0000 </r>
      </set>
      <set comment="kpoint 21">
       <r>   -5.0902    1.0000 </r>
       <r>    2.4630    1.0000 </r>
       <r>    4.0007    1.0000 </r>
       <r>    4.0007    1.0000 </r>
       <r>    7.0126    0.0000 </r>
       <r>    9.0882    0.0000 </r>
       <r>   11.5111    0.0000 </r>
       <r>   11.5111    0.0000 </r>
      </set>
      <set comment="kpoint 22">
       <r>   -5.1949    1.0000 </r>
       <r>    2.6932    1.0000 </r>
       <r>    4.1006    1.0000 </r>
       <r>    4.1006    1.0000 </r>
       <r>    7.0952    0.0000 </r>
       <r>    9.2860    0.0000 </r>
       <r>   11.2875    0.0000 </r>
       <r>   11.2875    0.0000 </r>
      </set>
      <set comment="kpoint 23">
       <r>   -5.2942    1.0000 </r>
       <r>    2.9226    1.0000 </r>
       <r>    4.2043    1.0000 </r>
       <r>    4.2043    1.0000 </r>
       <r>    7.1812    0.0000 </r>
       <r>    9.4836    0.0000 </r>
       <r>   11.0658    0.0000 </r>
       <r>   11.0658    0.0000 </r>
      </set>
      <set comment="kpoint 24">
       <r>   -5.3880    1.0000 </r>
       <r>    3.1510    1.0000 </r>
       <r>    4.3115    1.0000 </r>
       <r>    4.3115    1.0000 </r>
       <r>    7.2703    0.0000 </r>
       <r>    9.6775    0.0000 </r>
       <r>   10.8468    0.0000 </r>
       <r>   10.8468    0.0000 </r>
      </set>
      <set comment="kpoint 25">
       <r>   -5.4763    1.0000 </r>
       <r>    3.3782    1.0000 </r>
       <r>    4.4221    1.0000 </r>
       <r>    4.4221    1.0000 </r>
       <r>    7.3622    0.0000 </r>
       <r>    9.8623    0.0000 </r>
       <r>   10.6308    0.0000 </r>
       <r>   10.6308    0.0000 </r>
      </set>
      <set comment="kpoint 26">
       <r>   -5.5591    1.0000 </r>
       <r>    3.6038    1.0000 </r>
       <r>    4.5356    1.0000 </r>
       <r>    4.5356    1.0000 </r>
       <r>    7.4560    0.0000 </r>
       <r>   10.0304    0.0000 </r>
       <r>   10.4183    0.0000 </r>
       <r>   10.4183    0.0000 </r>
      </set>
      <set comment="kpoint 27">
       <r>   -5.6363    1.0000 </r>
       <r>    3.8275    1.0000 </r>
       <r>    4.6516    1.0000 </r>
       <r>    4.6516    1.0000 </r>
       <r>    7.5513    0.0000 </r>
       <r>   10.1717    0.0000 </r>
       <r>   10.2097    0.0000 </r>
       <r>   10.2097    0.0000 </r>
      </set>
      <set comment="kpoint 28">
       <r>   -5.7079    1.0000 </r>
       <r>    4.0484    1.0000 </r>
       <r>    4.7696    1.0000 </r>
       <r>    4.7696    1.0000 </r>
       <r>    7.6472    0.0000 </r>
       <r>   10.0059    0.0000 </r>
       <r>   10.0059    0.0000 </r>
       <r>   10.2697    0.0000 </r>
      </set>
      <set comment="kpoint 29">
       <r>   -5.7739    1.0000 </r>
       <r>    4.2658    1.0000 </r>
       <r>    4.8891    1.0000 </r>
       <r>    4.8891    1.0000 </r>
       <r>    7.7428    0.0000 </r>
       <r>    9.8069    0.0000 </r>
       <r>    9.8069    0.0000 </r>
       <r>   10.3113    0.0000 </r>
      </set>
      <set comment="kpoint 30">
       <r>   -5.8343    1.0000 </r>
       <r>    4.4790    1.0000 </r>
       <r>    5.0091    1.0000 </r>
       <r>    5.0091    1.0000 </r>
       <r>    7.8371    0.0000 </r>
       <r>    9.6140    0.0000 </r>
       <r>    9.6140    0.0000 </r>
       <r>   10.2911    0.0000 </r>
      </set>
      <set comment="kpoint 31">
       <r>   -5.8889    1.0000 </r>
       <r>    4.6867    1.0000 </r>
       <r>    5.1286    1.0000 </r>
       <r>    5.1286    1.0000 </r>
       <r>    7.9288    0.0000 </r>
       <r>    9.4275    0.0000 </r>
       <r>    9.4275    0.0000 </r>
       <r>   10.2160    0.0000 </r>
      </set>
      <set comment="kpoint 32">
       <r>   -5.9379    1.0000 </r>
       <r>    4.8874    1.0000 </r>
       <r>    5.2466    1.0000 </r>
       <r>    5.2466    1.0000 </r>
       <r>    8.0170    0.0000 </r>
       <r>    9.2501    0.0000 </r>
       <r>    9.2501    0.0000 </r>
       <r>   10.1010    0.0000 </r>
      </set>
      <set comment="kpoint 33">
       <r>   -5.9811    1.0000 </r>
       <r>    5.0790    1.0000 </r>
       <r>    5.3613    1.0000 </r>
       <r>    5.3613    1.0000 </r>
       <r>    8.1002    0.0000 </r>
       <r>    9.0827    0.0000 </r>
       <r>    9.0827    0.0000 </r>
       <r>    9.9628    0.0000 </r>
      </set>
      <set comment="kpoint 34">
       <r>   -6.0186    1.0000 </r>
       <r>    5.2590    1.0000 </r>
       <r>    5.4708    1.0000 </r>
       <r>    5.4708    1.0000 </r>
       <r>    8.1768    0.0000 </r>
       <r>    8.9275    0.0000 </r>
       <r>    8.9275    0.0000 </r>
       <r>    9.8152    0.0000 </r>
      </set>
      <set comment="kpoint 35">
       <r>   -6.0504    1.0000 </r>
       <r>    5.4241    1.0000 </r>
       <r>    5.5725    1.0000 </r>
       <r>    5.5725    1.0000 </r>
       <r>    8.2453    0.0000 </r>
       <r>    8.7870    0.0000 </r>
       <r>    8.7870    0.0000 </r>
       <r>    9.6693    0.0000 </r>
      </set>
      <set comment="kpoint 36">
       <r>   -6.0764    1.0000 </r>
       <r>    5.5700    1.0000 </r>
       <r>    5.6635    1.0000 </r>
       <r>    5.6635    1.0000 </r>
       <r>    8.3042    0.0000 </r>
       <r>    8.6642    0.0000 </r>
       <r>    8.6642    0.0000 </r>
       <r>    9.5344    0.0000 </r>
      </set>
      <set comment="kpoint 37">
       <r>   -6.0966    1.0000 </r>
       <r>    5.6918    1.0000 </r>
       <r>    5.7401    1.0000 </r>
       <r>    5.7401    1.0000 </r>
       <r>    8.3518    0.0000 </r>
       <r>    8.5628    0.0000 </r>
       <r>    8.5628    0.0000 </r>
       <r>    9.4184    0.0000 </r>
      </set>
      <set comment="kpoint 38">
       <r>   -6.1111    1.0000 </r>
       <r>    5.7843    1.0000 </r>
       <r>    5.7986    1.0000 </r>
       <r>    5.7986    1.0000 </r>
       <r>    8.3869    0.0000 </r>
       <r>    8.4866    0.0000 </r>
       <r>    8.4866    0.0000 </r>
       <r>    9.3290    0.0000 </r>
      </set>
      <set comment="kpoint 39">
       <r>   -6.1197    1.0000 </r>
       <r>    5.8354    1.0000 </r>
       <r>    5.8354    1.0000 </r>
       <r>    5.8424    1.0000 </r>
       <r>    8.4084    0.0000 </r>
       <r>    8.4391    0.0000 </r>
       <r>    8.4391    0.0000 </r>
       <r>    9.2723    0.0000 </r>
      </set>
      <set comment="kpoint 40">
       <r>   -6.1226    1.0000 </r>
       <r>    5.8480    1.0000 </r>
       <r>    5.8480    1.0000 </r>
       <r>    5.8622    1.0000 </r>
       <r>    8.4157    0.0000 </r>
       <r>    8.4230    0.0000 </r>
       <r>    8.4230    0.0000 </r>
       <r>    9.2529    0.0000 </r>
      </set>
      <set comment="kpoint 41">
       <r>   -6.1226    1.0000 </r>
       <r>    5.8480    1.0000 </r>
       <r>    5.8480    1.0000 </r>
       <r>    5.8622    1.0000 </r>
       <r>    8.4157    0.0000 </r>
       <r>    8.4230    0.0000 </r>
       <r>    8.4230    0.0000 </r>
       <r>    9.2529    0.0000 </r>
      </set>
      <set comment="kpoint 42">
       <r>   -6.1197    1.0000 </r>
       <r>    5.8283    1.0000 </r>
       <r>    5.8355    1.0000 </r>
       <r>    5.8495    1.0000 </r>
       <r>    8.4158    0.0000 </r>
       <r>    8.4318    0.0000 </r>
       <r>    8.4392    0.0000 </r>
       <r>    9.2723    0.0000 </r>
      </set>
      <set comment="kpoint 43">
       <r>   -6.1111    1.0000 </r>
       <r>    5.7704    1.0000 </r>
       <r>    5.7989    1.0000 </r>
       <r>    5.8125    1.0000 </r>
       <r>    8.3944    0.0000 </r>
       <r>    8.4790    0.0000 </r>
       <r>    8.4869    0.0000 </r>
       <r>    9.3289    0.0000 </r>
      </set>
      <set comment="kpoint 44">
       <r>   -6.0967    1.0000 </r>
       <r>    5.6781    1.0000 </r>
       <r>    5.7407    1.0000 </r>
       <r>    5.7539    1.0000 </r>
       <r>    8.3596    0.0000 </r>
       <r>    8.5549    0.0000 </r>
       <r>    8.5635    0.0000 </r>
       <r>    9.4182    0.0000 </r>
      </set>
      <set comment="kpoint 45">
       <r>   -6.0765    1.0000 </r>
       <r>    5.5565    1.0000 </r>
       <r>    5.6645    1.0000 </r>
       <r>    5.6770    1.0000 </r>
       <r>    8.3123    0.0000 </r>
       <r>    8.6559    0.0000 </r>
       <r>    8.6653    0.0000 </r>
       <r>    9.5341    0.0000 </r>
      </set>
      <set comment="kpoint 46">
       <r>   -6.0506    1.0000 </r>
       <r>    5.4108    1.0000 </r>
       <r>    5.5740    1.0000 </r>
       <r>    5.5859    1.0000 </r>
       <r>    8.2539    0.0000 </r>
       <r>    8.7782    0.0000 </r>
       <r>    8.7885    0.0000 </r>
       <r>    9.6691    0.0000 </r>
      </set>
      <set comment="kpoint 47">
       <r>   -6.0190    1.0000 </r>
       <r>    5.2460    1.0000 </r>
       <r>    5.4728    1.0000 </r>
       <r>    5.4840    1.0000 </r>
       <r>    8.1858    0.0000 </r>
       <r>    8.9181    0.0000 </r>
       <r>    8.9295    0.0000 </r>
       <r>    9.8152    0.0000 </r>
      </set>
      <set comment="kpoint 48">
       <r>   -5.9816    1.0000 </r>
       <r>    5.0661    1.0000 </r>
       <r>    5.3639    1.0000 </r>
       <r>    5.3744    1.0000 </r>
       <r>    8.1097    0.0000 </r>
       <r>    9.0728    0.0000 </r>
       <r>    9.0853    0.0000 </r>
       <r>    9.9630    0.0000 </r>
      </set>
      <set comment="kpoint 49">
       <r>   -5.9385    1.0000 </r>
       <r>    4.8745    1.0000 </r>
       <r>    5.2497    1.0000 </r>
       <r>    5.2596    1.0000 </r>
       <r>    8.0271    0.0000 </r>
       <r>    9.2395    0.0000 </r>
       <r>    9.2532    0.0000 </r>
       <r>   10.1015    0.0000 </r>
      </set>
      <set comment="kpoint 50">
       <r>   -5.8897    1.0000 </r>
       <r>    4.6739    1.0000 </r>
       <r>    5.1324    1.0000 </r>
       <r>    5.1416    1.0000 </r>
       <r>    7.9395    0.0000 </r>
       <r>    9.4163    0.0000 </r>
       <r>    9.4311    0.0000 </r>
       <r>   10.2167    0.0000 </r>
      </set>
      <set comment="kpoint 51">
       <r>   -5.8353    1.0000 </r>
       <r>    4.4662    1.0000 </r>
       <r>    5.0133    1.0000 </r>
       <r>    5.0220    1.0000 </r>
       <r>    7.8482    0.0000 </r>
       <r>    9.6015    0.0000 </r>
       <r>    9.6175    0.0000 </r>
       <r>   10.2916    0.0000 </r>
      </set>
      <set comment="kpoint 52">
       <r>   -5.7751    1.0000 </r>
       <r>    4.2530    1.0000 </r>
       <r>    4.8940    1.0000 </r>
       <r>    4.9021    1.0000 </r>
       <r>    7.7546    0.0000 </r>
       <r>    9.7945    0.0000 </r>
       <r>    9.8117    0.0000 </r>
       <r>   10.3109    0.0000 </r>
      </set>
      <set comment="kpoint 53">
       <r>   -5.7094    1.0000 </r>
       <r>    4.0354    1.0000 </r>
       <r>    4.7752    1.0000 </r>
       <r>    4.7828    1.0000 </r>
       <r>    7.6596    0.0000 </r>
       <r>    9.9928    0.0000 </r>
       <r>   10.0113    0.0000 </r>
       <r>   10.2679    0.0000 </r>
      </set>
      <set comment="kpoint 54">
       <r>   -5.6380    1.0000 </r>
       <r>    3.8145    1.0000 </r>
       <r>    4.6577    1.0000 </r>
       <r>    4.6648    1.0000 </r>
       <r>    7.5642    0.0000 </r>
       <r>   10.1685    0.0000 </r>
       <r>   10.1960    0.0000 </r>
       <r>   10.2158    0.0000 </r>
      </set>
      <set comment="kpoint 55">
       <r>   -5.5610    1.0000 </r>
       <r>    3.5906    1.0000 </r>
       <r>    4.5423    1.0000 </r>
       <r>    4.5490    1.0000 </r>
       <r>    7.4696    0.0000 </r>
       <r>   10.0260    0.0000 </r>
       <r>   10.4041    0.0000 </r>
       <r>   10.4252    0.0000 </r>
      </set>
      <set comment="kpoint 56">
       <r>   -5.4785    1.0000 </r>
       <r>    3.3649    1.0000 </r>
       <r>    4.4293    1.0000 </r>
       <r>    4.4356    1.0000 </r>
       <r>    7.3762    0.0000 </r>
       <r>    9.8574    0.0000 </r>
       <r>   10.6160    0.0000 </r>
       <r>   10.6384    0.0000 </r>
      </set>
      <set comment="kpoint 57">
       <r>   -5.3905    1.0000 </r>
       <r>    3.1375    1.0000 </r>
       <r>    4.3193    1.0000 </r>
       <r>    4.3252    1.0000 </r>
       <r>    7.2849    0.0000 </r>
       <r>    9.6725    0.0000 </r>
       <r>   10.8313    0.0000 </r>
       <r>   10.8551    0.0000 </r>
      </set>
      <set comment="kpoint 58">
       <r>   -5.2970    1.0000 </r>
       <r>    2.9089    1.0000 </r>
       <r>    4.2126    1.0000 </r>
       <r>    4.2180    1.0000 </r>
       <r>    7.1962    0.0000 </r>
       <r>    9.4789    0.0000 </r>
       <r>   11.0498    0.0000 </r>
       <r>   11.0749    0.0000 </r>
      </set>
      <set comment="kpoint 59">
       <r>   -5.1980    1.0000 </r>
       <r>    2.6793    1.0000 </r>
       <r>    4.1094    1.0000 </r>
       <r>    4.1145    1.0000 </r>
       <r>    7.1106    0.0000 </r>
       <r>    9.2820    0.0000 </r>
       <r>   11.2710    0.0000 </r>
       <r>   11.2974    0.0000 </r>
      </set>
      <set comment="kpoint 60">
       <r>   -5.0937    1.0000 </r>
       <r>    2.4490    1.0000 </r>
       <r>    4.0100    1.0000 </r>
       <r>    4.0147    1.0000 </r>
       <r>    7.0284    0.0000 </r>
       <r>    9.0850    0.0000 </r>
       <r>   11.4940    0.0000 </r>
       <r>   11.5219    0.0000 </r>
      </set>
      <set comment="kpoint 61">
       <r>   -4.9840    1.0000 </r>
       <r>    2.2183    1.0000 </r>
       <r>    3.9146    1.0000 </r>
       <r>    3.9191    1.0000 </r>
       <r>    6.9505    0.0000 </r>
       <r>    8.8906    0.0000 </r>
       <r>   11.7199    0.0000 </r>
       <r>   11.7491    0.0000 </r>
      </set>
      <set comment="kpoint 62">
       <r>   -4.8689    1.0000 </r>
       <r>    1.9875    1.0000 </r>
       <r>    3.8236    1.0000 </r>
       <r>    3.8277    1.0000 </r>
       <r>    6.8772    0.0000 </r>
       <r>    8.7004    0.0000 </r>
       <r>   11.9484    0.0000 </r>
       <r>   11.9790    0.0000 </r>
      </set>
      <set comment="kpoint 63">
       <r>   -4.7486    1.0000 </r>
       <r>    1.7567    1.0000 </r>
       <r>    3.7367    1.0000 </r>
       <r>    3.7406    1.0000 </r>
       <r>    6.8086    0.0000 </r>
       <r>    8.5160    0.0000 </r>
       <r>   12.1785    0.0000 </r>
       <r>   12.2111    0.0000 </r>
      </set>
      <set comment="kpoint 64">
       <r>   -4.6232    1.0000 </r>
       <r>    1.5261    1.0000 </r>
       <r>    3.6543    1.0000 </r>
       <r>    3.6579    1.0000 </r>
       <r>    6.7447    0.0000 </r>
       <r>    8.3375    0.0000 </r>
       <r>   12.4110    0.0000 </r>
       <r>   12.4443    0.0000 </r>
      </set>
      <set comment="kpoint 65">
       <r>   -4.4926    1.0000 </r>
       <r>    1.2959    1.0000 </r>
       <r>    3.5765    1.0000 </r>
       <r>    3.5798    1.0000 </r>
       <r>    6.6860    0.0000 </r>
       <r>    8.1659    0.0000 </r>
       <r>   12.6442    0.0000 </r>
       <r>   12.6788    0.0000 </r>
      </set>
      <set comment="kpoint 66">
       <r>   -4.3569    1.0000 </r>
       <r>    1.0662    1.0000 </r>
       <r>    3.5033    1.0000 </r>
       <r>    3.5064    1.0000 </r>
       <r>    6.6329    0.0000 </r>
       <r>    8.0018    0.0000 </r>
       <r>   12.8791    0.0000 </r>
       <r>   12.9150    0.0000 </r>
      </set>
      <set comment="kpoint 67">
       <r>   -4.2162    1.0000 </r>
       <r>    0.8374    1.0000 </r>
       <r>    3.4349    1.0000 </r>
       <r>    3.4377    1.0000 </r>
       <r>    6.5855    0.0000 </r>
       <r>    7.8455    0.0000 </r>
       <r>   13.1154    0.0000 </r>
       <r>   13.1526    0.0000 </r>
      </set>
      <set comment="kpoint 68">
       <r>   -4.0706    1.0000 </r>
       <r>    0.6096    1.0000 </r>
       <r>    3.3714    1.0000 </r>
       <r>    3.3739    1.0000 </r>
       <r>    6.5440    0.0000 </r>
       <r>    7.6972    0.0000 </r>
       <r>   13.3532    0.0000 </r>
       <r>   13.3916    0.0000 </r>
      </set>
      <set comment="kpoint 69">
       <r>   -3.9201    1.0000 </r>
       <r>    0.3831    1.0000 </r>
       <r>    3.3127    1.0000 </r>
       <r>    3.3150    1.0000 </r>
       <r>    6.5086    0.0000 </r>
       <r>    7.5571    0.0000 </r>
       <r>   13.5923    0.0000 </r>
       <r>   13.6319    0.0000 </r>
      </set>
      <set comment="kpoint 70">
       <r>   -3.7649    1.0000 </r>
       <r>    0.1579    1.0000 </r>
       <r>    3.2589    1.0000 </r>
       <r>    3.2610    1.0000 </r>
       <r>    6.4790    0.0000 </r>
       <r>    7.4253    0.0000 </r>
       <r>   13.8321    0.0000 </r>
       <r>   13.8730    0.0000 </r>
      </set>
      <set comment="kpoint 71">
       <r>   -3.6050    1.0000 </r>
       <r>   -0.0656    1.0000 </r>
       <r>    3.2102    1.0000 </r>
       <r>    3.2120    1.0000 </r>
       <r>    6.4559    0.0000 </r>
       <r>    7.3020    0.0000 </r>
       <r>   14.0735    0.0000 </r>
       <r>   14.1153    0.0000 </r>
      </set>
      <set comment="kpoint 72">
       <r>   -3.4405    1.0000 </r>
       <r>   -0.2874    1.0000 </r>
       <r>    3.1665    1.0000 </r>
       <r>    3.1681    1.0000 </r>
       <r>    6.4400    0.0000 </r>
       <r>    7.1873    0.0000 </r>
       <r>   14.3158    0.0000 </r>
       <r>   14.3585    0.0000 </r>
      </set>
      <set comment="kpoint 73">
       <r>   -3.2716    1.0000 </r>
       <r>   -0.5071    1.0000 </r>
       <r>    3.1279    1.0000 </r>
       <r>    3.1293    1.0000 </r>
       <r>    6.4307    0.0000 </r>
       <r>    7.0807    0.0000 </r>
       <r>   14.5586    0.0000 </r>
       <r>   14.6021    0.0000 </r>
      </set>
      <set comment="kpoint 74">
       <r>   -3.0982    1.0000 </r>
       <r>   -0.7247    1.0000 </r>
       <r>    3.0943    1.0000 </r>
       <r>    3.0954    1.0000 </r>
       <r>    6.4282    0.0000 </r>
       <r>    6.9827    0.0000 </r>
       <r>   14.8024    0.0000 </r>
       <r>   14.8464    0.0000 </r>
      </set>
      <set comment="kpoint 75">
       <r>   -2.9206    1.0000 </r>
       <r>   -0.9398    1.0000 </r>
       <r>    3.0659    1.0000 </r>
       <r>    3.0668    1.0000 </r>
       <r>    6.4328    0.0000 </r>
       <r>    6.8928    0.0000 </r>
       <r>   15.0439    0.0000 </r>
       <r>   15.0882    0.0000 </r>
      </set>
      <set comment="kpoint 76">
       <r>   -2.7389    1.0000 </r>
       <r>   -1.1524    1.0000 </r>
       <r>    3.0426    1.0000 </r>
       <r>    3.0434    1.0000 </r>
       <r>    6.4445    0.0000 </r>
       <r>    6.8112    0.0000 </r>
       <r>   15.2826    0.0000 </r>
       <r>   15.3266    0.0000 </r>
      </set>
      <set comment="kpoint 77">
       <r>   -2.5532    1.0000 </r>
       <r>   -1.3621    1.0000 </r>
       <r>    3.0245    1.0000 </r>
       <r>    3.0251    1.0000 </r>
       <r>    6.4635    0.0000 </r>
       <r>    6.7378    0.0000 </r>
       <r>   15.5145    0.0000 </r>
       <r>   15.5570    0.0000 </r>
      </set>
      <set comment="kpoint 78">
       <r>   -2.3635    1.0000 </r>
       <r>   -1.5690    1.0000 </r>
       <r>    3.0116    1.0000 </r>
       <r>    3.0120    1.0000 </r>
       <r>    6.4899    0.0000 </r>
       <r>    6.6723    0.0000 </r>
       <r>   15.7303    0.0000 </r>
       <r>   15.7682    0.0000 </r>
      </set>
      <set comment="kpoint 79">
       <r>   -2.1702    1.0000 </r>
       <r>   -1.7727    1.0000 </r>
       <r>    3.0039    1.0000 </r>
       <r>    3.0041    1.0000 </r>
       <r>    6.5239    0.0000 </r>
       <r>    6.6150    0.0000 </r>
       <r>   15.9101    0.0000 </r>
       <r>   15.9341    0.0000 </r>
      </set>
      <set comment="kpoint 80">
       <r>   -1.9732    1.0000 </r>
       <r>   -1.9732    1.0000 </r>
       <r>    3.0014    1.0000 </r>
       <r>    3.0014    1.0000 </r>
       <r>    6.5656    0.0000 </r>
       <r>    6.5656    0.0000 </r>
       <r>   15.9936    0.0000 </r>
       <r>   16.0240    0.0000 </r>
      </set>
     </set>
    </set>
   </array>
  </eigenvalues>
  <separator name="orbital magnetization" >
   <v name="MAGDIPOLOUT">      0.00000000      0.00000000      0.00000000</v>
  </separator>
  <dos>
   <i name="efermi">      6.09259925 </i>
   <total>
    <array>
     <dimension dim="1">gridpoints</dimension>
     <dimension dim="2">spin</dimension>
     <field>energy</field>
     <field>total</field>
     <field>integrated</field>
     <set>
      <set comment="spin 1">
       <r>    -7.2299     0.0000     0.0000 </r>
       <r>    -7.1487     0.0000     0.0000 </r>
       <r>    -7.0675     0.0000     0.0000 </r>
       <r>    -6.9863     0.0000     0.0000 </r>
       <r>    -6.9051     0.0000     0.0000 </r>
       <r>    -6.8239     0.0000     0.0000 </r>
       <r>    -6.7427     0.0000     0.0000 </r>
       <r>    -6.6615     0.0000     0.0000 </r>
       <r>    -6.5803     0.0000     0.0000 </r>
       <r>    -6.4991     0.0000     0.0000 </r>
       <r>    -6.4179     0.0000     0.0000 </r>
       <r>    -6.3367     0.0000     0.0000 </r>
       <r>    -6.2555     0.0001     0.0000 </r>
       <r>    -6.1743     0.1153     0.0094 </r>
       <r>    -6.0931     1.8916     0.1630 </r>
       <r>    -6.0119     2.0608     0.3303 </r>
       <r>    -5.9307     1.2436     0.4313 </r>
       <r>    -5.8495     0.9813     0.5110 </r>
       <r>    -5.7683     0.8411     0.5793 </r>
       <r>    -5.6871     0.7486     0.6401 </r>
       <r>    -5.6059     0.6811     0.6954 </r>
       <r>    -5.5247     0.6305     0.7466 </r>
       <r>    -5.4435     0.5924     0.7947 </r>
       <r>    -5.3623     0.5620     0.8403 </r>
       <r>    -5.2810     0.5297     0.8833 </r>
       <r>    -5.1998     0.4883     0.9230 </r>
       <r>    -5.1186     0.4629     0.9606 </r>
       <r>    -5.0374     0.4837     0.9999 </r>
       <r>    -4.9562     0.4776     1.0386 </r>
       <r>    -4.8750     0.3905     1.0703 </r>
       <r>    -4.7938     0.4085     1.1035 </r>
       <r>    -4.7126     0.4702     1.1417 </r>
       <r>    -4.6314     0.3363     1.1690 </r>
       <r>    -4.5502     0.3945     1.2010 </r>
       <r>    -4.4690     0.4319     1.2361 </r>
       <r>    -4.3878     0.2745     1.2584 </r>
       <r>    -4.3066     0.4588     1.2957 </r>
       <r>    -4.2254     0.2776     1.3182 </r>
       <r>    -4.1442     0.3847     1.3495 </r>
       <r>    -4.0630     0.3441     1.3774 </r>
       <r>    -3.9818     0.2939     1.4013 </r>
       <r>    -3.9006     0.3994     1.4337 </r>
       <r>    -3.8194     0.2302     1.4524 </r>
       <r>    -3.7382     0.4271     1.4871 </r>
       <r>    -3.6570     0.1939     1.5028 </r>
       <r>    -3.5758     0.4341     1.5381 </r>
       <r>    -3.4946     0.1774     1.5525 </r>
       <r>    -3.4134     0.4254     1.5870 </r>
       <r>    -3.3322     0.1797     1.6016 </r>
       <r>    -3.2509     0.3958     1.6338 </r>
       <r>    -3.1697     0.2082     1.6507 </r>
       <r>    -3.0885     0.3343     1.6778 </r>
       <r>    -3.0073     0.2717     1.6999 </r>
       <r>    -2.9261     0.2392     1.7193 </r>
       <r>    -2.8449     0.3642     1.7489 </r>
       <r>    -2.7637     0.1379     1.7601 </r>
       <r>    -2.6825     0.4454     1.7962 </r>
       <r>    -2.6013     0.0879     1.8034 </r>
       <r>    -2.5201     0.4395     1.8391 </r>
       <r>    -2.4389     0.1413     1.8505 </r>
       <r>    -2.3577     0.3034     1.8752 </r>
       <r>    -2.2765     0.2992     1.8995 </r>
       <r>    -2.1953     0.1262     1.9097 </r>
       <r>    -2.1141     0.4468     1.9460 </r>
       <r>    -2.0329     0.0904     1.9533 </r>
       <r>    -1.9517     0.7813     2.0168 </r>
       <r>    -1.8705     0.4058     2.0497 </r>
       <r>    -1.7893     0.1657     2.0632 </r>
       <r>    -1.7081     0.4216     2.0974 </r>
       <r>    -1.6269     0.0544     2.1018 </r>
       <r>    -1.5457     0.3975     2.1341 </r>
       <r>    -1.4645     0.1943     2.1499 </r>
       <r>    -1.3833     0.1377     2.1611 </r>
       <r>    -1.3020     0.4375     2.1966 </r>
       <r>    -1.2208     0.0530     2.2009 </r>
       <r>    -1.1396     0.3382     2.2284 </r>
       <r>    -1.0584     0.2617     2.2496 </r>
       <r>    -0.9772     0.0722     2.2555 </r>
       <r>    -0.8960     0.4546     2.2924 </r>
       <r>    -0.8148     0.0953     2.3002 </r>
       <r>    -0.7336     0.2016     2.3165 </r>
       <r>    -0.6524     0.3909     2.3483 </r>
       <r>    -0.5712     0.0363     2.3512 </r>
       <r>    -0.4900     0.3610     2.3805 </r>
       <r>    -0.4088     0.2364     2.3997 </r>
       <r>    -0.3276     0.0617     2.4047 </r>
       <r>    -0.2464     0.4504     2.4413 </r>
       <r>    -0.1652     0.1074     2.4500 </r>
       <r>    -0.0840     0.1471     2.4620 </r>
       <r>    -0.0028     0.4303     2.4969 </r>
       <r>     0.0784     0.0427     2.5004 </r>
       <r>     0.1596     0.2657     2.5220 </r>
       <r>     0.2408     0.3340     2.5491 </r>
       <r>     0.3220     0.0290     2.5515 </r>
       <r>     0.4032     0.3758     2.5820 </r>
       <r>     0.4844     0.2193     2.5998 </r>
       <r>     0.5656     0.0505     2.6039 </r>
       <r>     0.6469     0.4424     2.6398 </r>
       <r>     0.7281     0.1253     2.6500 </r>
       <r>     0.8093     0.1005     2.6581 </r>
       <r>     0.8905     0.4522     2.6949 </r>
       <r>     0.9717     0.0646     2.7001 </r>
       <r>     1.0529     0.1732     2.7142 </r>
       <r>     1.1341     0.4124     2.7477 </r>
       <r>     1.2153     0.0334     2.7504 </r>
       <r>     1.2965     0.2582     2.7713 </r>
       <r>     1.3777     0.3410     2.7990 </r>
       <r>     1.4589     0.0240     2.8010 </r>
       <r>     1.5401     0.3415     2.8287 </r>
       <r>     1.6213     0.2576     2.8496 </r>
       <r>     1.7025     0.0318     2.8522 </r>
       <r>     1.7837     0.4087     2.8854 </r>
       <r>     1.8649     0.1782     2.8999 </r>
       <r>     1.9461     0.0565     2.9045 </r>
       <r>     2.0273     0.4484     2.9409 </r>
       <r>     2.1085     0.1123     2.9500 </r>
       <r>     2.1897     0.0994     2.9581 </r>
       <r>     2.2709     0.4528     2.9948 </r>
       <r>     2.3521     0.0648     3.0001 </r>
       <r>     2.4333     0.1620     3.0132 </r>
       <r>     2.5145     0.4205     3.0474 </r>
       <r>     2.5957     0.0358     3.0503 </r>
       <r>     2.6770     0.2416     3.0699 </r>
       <r>     2.7582     0.3564     3.0989 </r>
       <r>     2.8394     0.0246     3.1008 </r>
       <r>     2.9206     0.3972     3.1331 </r>
       <r>     3.0018     2.9073     3.3692 </r>
       <r>     3.0830     4.9660     3.7724 </r>
       <r>     3.1642     3.3052     4.0408 </r>
       <r>     3.2454     2.3639     4.2328 </r>
       <r>     3.3266     1.9137     4.3882 </r>
       <r>     3.4078     2.0878     4.5577 </r>
       <r>     3.4890     1.5816     4.6862 </r>
       <r>     3.5702     1.5116     4.8089 </r>
       <r>     3.6514     1.7193     4.9485 </r>
       <r>     3.7326     1.2542     5.0504 </r>
       <r>     3.8138     1.3991     5.1640 </r>
       <r>     3.8950     1.4328     5.2803 </r>
       <r>     3.9762     1.0822     5.3682 </r>
       <r>     4.0574     1.4286     5.4842 </r>
       <r>     4.1386     1.2270     5.5839 </r>
       <r>     4.2198     1.0372     5.6681 </r>
       <r>     4.3010     1.3317     5.7762 </r>
       <r>     4.3822     0.9983     5.8573 </r>
       <r>     4.4634     1.2142     5.9559 </r>
       <r>     4.5446     1.2007     6.0534 </r>
       <r>     4.6259     0.8456     6.1220 </r>
       <r>     4.7071     1.3755     6.2337 </r>
       <r>     4.7883     1.0070     6.3155 </r>
       <r>     4.8695     0.9586     6.3934 </r>
       <r>     4.9507     1.2780     6.4971 </r>
       <r>     5.0319     0.9763     6.5764 </r>
       <r>     5.1131     1.1808     6.6723 </r>
       <r>     5.1943     1.0069     6.7541 </r>
       <r>     5.2755     1.3437     6.8632 </r>
       <r>     5.3567     0.9788     6.9427 </r>
       <r>     5.4379     1.3083     7.0489 </r>
       <r>     5.5191     1.2475     7.1502 </r>
       <r>     5.6003     1.4862     7.2709 </r>
       <r>     5.6815     1.5021     7.3929 </r>
       <r>     5.7627     1.9772     7.5534 </r>
       <r>     5.8439     3.4257     7.8316 </r>
       <r>     5.9251     2.0181     7.9955 </r>
       <r>     6.0063     0.0556     8.0000 </r>
       <r>     6.0875     0.0000     8.0000 </r>
       <r>     6.1687     0.0000     8.0000 </r>
       <r>     6.2499     0.0000     8.0000 </r>
       <r>     6.3311     0.0159     8.0013 </r>
       <r>     6.4123     1.3105     8.1077 </r>
       <r>     6.4935     4.1393     8.4438 </r>
       <r>     6.5747     3.0980     8.6954 </r>
       <r>     6.6560     2.1569     8.8706 </r>
       <r>     6.7372     1.6440     9.0041 </r>
       <r>     6.8184     1.4492     9.1217 </r>
       <r>     6.8996     1.3158     9.2286 </r>
       <r>     6.9808     1.2096     9.3268 </r>
       <r>     7.0620     1.1174     9.4176 </r>
       <r>     7.1432     1.0647     9.5040 </r>
       <r>     7.2244     1.0652     9.5905 </r>
       <r>     7.3056     0.9857     9.6706 </r>
       <r>     7.3868     0.8952     9.7432 </r>
       <r>     7.4680     0.9912     9.8237 </r>
       <r>     7.5492     0.8474     9.8925 </r>
       <r>     7.6304     0.8682     9.9630 </r>
       <r>     7.7116     0.9396    10.0393 </r>
       <r>     7.7928     0.7768    10.1024 </r>
       <r>     7.8740     0.9954    10.1833 </r>
       <r>     7.9552     0.7323    10.2427 </r>
       <r>     8.0364     1.0316    10.3265 </r>
       <r>     8.1176     0.7594    10.3882 </r>
       <r>     8.1988     1.1278    10.4797 </r>
       <r>     8.2800     0.9183    10.5543 </r>
       <r>     8.3612     1.6112    10.6851 </r>
       <r>     8.4424     3.4355    10.9641 </r>
       <r>     8.5236     2.6484    11.1792 </r>
       <r>     8.6049     1.4168    11.2942 </r>
       <r>     8.6861     1.2007    11.3917 </r>
       <r>     8.7673     1.0753    11.4791 </r>
       <r>     8.8485     0.9140    11.5533 </r>
       <r>     8.9297     1.1584    11.6473 </r>
       <r>     9.0109     0.6785    11.7024 </r>
       <r>     9.0921     1.0827    11.7904 </r>
       <r>     9.1733     0.7560    11.8518 </r>
       <r>     9.2545     1.3230    11.9592 </r>
       <r>     9.3357     2.0204    12.1232 </r>
       <r>     9.4169     1.1421    12.2160 </r>
       <r>     9.4981     1.5165    12.3391 </r>
       <r>     9.5793     0.9162    12.4135 </r>
       <r>     9.6605     1.4158    12.5285 </r>
       <r>     9.7417     0.9096    12.6024 </r>
       <r>     9.8229     1.2740    12.7058 </r>
       <r>     9.9041     1.1207    12.7968 </r>
       <r>     9.9853     0.9348    12.8727 </r>
       <r>    10.0665     1.5311    12.9971 </r>
       <r>    10.1477     0.8313    13.0646 </r>
       <r>    10.2289     1.7976    13.2106 </r>
       <r>    10.3101     1.7574    13.3533 </r>
       <r>    10.3913     0.8666    13.4236 </r>
       <r>    10.4725     0.8660    13.4940 </r>
       <r>    10.5537     0.0980    13.5019 </r>
       <r>    10.6350     0.6716    13.5565 </r>
       <r>    10.7162     0.5267    13.5992 </r>
       <r>    10.7974     0.1271    13.6095 </r>
       <r>    10.8786     0.8945    13.6822 </r>
       <r>    10.9598     0.2212    13.7001 </r>
       <r>    11.0410     0.3225    13.7263 </r>
       <r>    11.1222     0.8390    13.7945 </r>
       <r>    11.2034     0.0832    13.8012 </r>
       <r>    11.2846     0.5830    13.8486 </r>
       <r>    11.3658     0.6159    13.8986 </r>
       <r>    11.4470     0.0725    13.9045 </r>
       <r>    11.5282     0.7995    13.9694 </r>
       <r>    11.6094     0.3735    13.9997 </r>
       <r>    11.6906     0.1384    14.0110 </r>
       <r>    11.7718     0.8928    14.0835 </r>
       <r>    11.8530     0.2045    14.1001 </r>
       <r>    11.9342     0.2480    14.1202 </r>
       <r>    12.0154     0.8760    14.1913 </r>
       <r>    12.0966     0.1112    14.2004 </r>
       <r>    12.1778     0.3759    14.2309 </r>
       <r>    12.2590     0.7948    14.2954 </r>
       <r>    12.3402     0.0672    14.3009 </r>
       <r>    12.4214     0.5078    14.3421 </r>
       <r>    12.5026     0.6839    14.3977 </r>
       <r>    12.5839     0.0509    14.4018 </r>
       <r>    12.6651     0.6252    14.4526 </r>
       <r>    12.7463     0.5690    14.4988 </r>
       <r>    12.8275     0.0529    14.5031 </r>
       <r>    12.9087     0.7155    14.5612 </r>
       <r>    12.9899     0.4698    14.5993 </r>
       <r>    13.0711     0.0650    14.6046 </r>
       <r>    13.1523     0.7781    14.6678 </r>
       <r>    13.2335     0.3918    14.6996 </r>
       <r>    13.3147     0.0814    14.7062 </r>
       <r>    13.3959     0.8175    14.7726 </r>
       <r>    13.4771     0.3343    14.7997 </r>
       <r>    13.5583     0.0978    14.8077 </r>
       <r>    13.6395     0.8402    14.8759 </r>
       <r>    13.7207     0.2944    14.8998 </r>
       <r>    13.8019     0.1154    14.9092 </r>
       <r>    13.8831     0.8548    14.9786 </r>
       <r>    13.9643     0.2619    14.9999 </r>
       <r>    14.0455     0.1243    15.0100 </r>
       <r>    14.1267     0.8588    15.0797 </r>
       <r>    14.2079     0.2486    15.0999 </r>
       <r>    14.2891     0.1304    15.1105 </r>
       <r>    14.3703     0.8600    15.1803 </r>
       <r>    14.4515     0.2411    15.1999 </r>
       <r>    14.5327     0.1341    15.2108 </r>
       <r>    14.6140     0.8598    15.2806 </r>
       <r>    14.6952     0.2376    15.2999 </r>
       <r>    14.7764     0.1334    15.3107 </r>
       <r>    14.8576     0.8581    15.3804 </r>
       <r>    14.9388     0.2400    15.3999 </r>
       <r>    15.0200     0.1457    15.4117 </r>
       <r>    15.1012     0.8625    15.4818 </r>
       <r>    15.1824     0.2239    15.4999 </r>
       <r>    15.2636     0.1799    15.5146 </r>
       <r>    15.3448     0.8691    15.5851 </r>
       <r>    15.4260     0.1847    15.6001 </r>
       <r>    15.5072     0.2843    15.6232 </r>
       <r>    15.5884     0.8419    15.6916 </r>
       <r>    15.6696     0.1253    15.7018 </r>
       <r>    15.7508     0.6200    15.7521 </r>
       <r>    15.8320     0.5812    15.7993 </r>
       <r>    15.9132     0.5288    15.8422 </r>
       <r>    15.9944     1.2263    15.9418 </r>
       <r>    16.0756     0.6855    15.9975 </r>
       <r>    16.1568     0.0309    16.0000 </r>
       <r>    16.2380     0.0000    16.0000 </r>
       <r>    16.3192     0.0000    16.0000 </r>
       <r>    16.4004     0.0000    16.0000 </r>
       <r>    16.4816     0.0000    16.0000 </r>
       <r>    16.5629     0.0000    16.0000 </r>
       <r>    16.6441     0.0000    16.0000 </r>
       <r>    16.7253     0.0000    16.0000 </r>
       <r>    16.8065     0.0000    16.0000 </r>
       <r>    16.8877     0.0000    16.0000 </r>
       <r>    16.9689     0.0000    16.0000 </r>
       <r>    17.0501     0.0000    16.0000 </r>
       <r>    17.1313     0.0000    16.0000 </r>
      </set>
     </set>
    </array>
   </total>
   <partial>
    <array>
     <dimension dim="1">gridpoints</dimension>
     <dimension dim="2">spin</dimension>
     <dimension dim="3">ion</dimension>
     <field>energy</field>
     <field>    s</field>
     <field>   py</field>
     <field>   pz</field>
     <field>   px</field>
     <field>  dxy</field>
     <field>  dyz</field>
     <field>  dz2</field>
     <field>  dxz</field>
     <field>x2-y2</field>
     <set>
      <set comment="ion 1">
       <set comment="spin 1">
        <r>    -7.2299     0.0000     0.0000     0.0000     0.0000     0.0000     0.0000     0.0000     0.0000     0.0000 </r>
        <r>    -7.1487     0.0000     0.0000     0.0000     0.0000     0.0000     0.0000     0.0000     0.0000     0.0000 </r>
        <r>    -7.0675     0.0000     0.0000     0.0000     0.0000     0.0000     0.0000     0.0000     0.0000     0.0000 </r>
        <r>    -6.9863     0.0000     0.0000     0.0000     0.0000     0.0000     0.0000     0.0000     0.0000     0.0000 </r>
        <r>    -6.9051     0.0000     0.0000     0.0000     0.0000     0.0000     0.0000     0.0000     0.0000     0.0000 </r>
        <r>    -6.8239     0.0000     0.0000     0.0000     0.0000     0.0000     0.0000     0.0000     0.0000     0.0000 </r>
        <r>    -6.7427     0.0000     0.0000     0.0000     0.0000     0.0000     0.0000     0.0000     0.0000     0.0000 </r>
        <r>    -6.6615     0.0000     0.0000     0.0000     0.0000     0.0000     0.0000     0.0000     0.0000     0.0000 </r>
        <r>    -6.5803     0.0000     0.0000     0.0000     0.0000     0.0000     0.0000     0.0000     0.0000     0.0000 </r>
        <r>    -6.4991     0.0000     0.0000     0.0000     0.0000     0.0000     0.0000     0.0000     0.0000     0.0000 </r>
        <r>    -6.4179     0.0000     0.0000     0.0000     0.0000     0.0000     0.0000     0.0000     0.0000     0.0000 </r>
        <r>    -6.3367     0.0000     0.0000     0.0000     0.0000     0.0000     0.0000     0.0000     0.0000     0.0000 </r>
        <r>    -6.2555     0.0000     0.0000     0.0000     0.0000     0.0000     0.0000     0.0000     0.0000     0.0000 </r>
        <r>    -6.1743     0.0246     0.0000     0.0000     0.0000     0.0000     0.0000     0.0000     0.0000     0.0000 </r>
        <r>    -6.0931     0.4039     0.0002     0.0000     0.0002     0.0000     0.0000     0.0000     0.0000     0.0000 </r>
        <r>    -6.0119     0.4395     0.0006     0.0000     0.0006     0.0000     0.0000     0.0000     0.0000     0.0000 </r>
        <r>    -5.9307     0.2647     0.0010     0.0000     0.0010     0.0000     0.0000     0.0000     0.0000     0.0000 </r>
        <r>    -5.8495     0.2084     0.0012     0.0000     0.0012     0.0000     0.0000     0.0000     0.0000     0.0000 </r>
        <r>    -5.7683     0.1783     0.0014     0.0000     0.0014     0.0000     0.0000     0.0000     0.0000     0.0000 </r>
        <r>    -5.6871     0.1584     0.0016     0.0000     0.0016     0.0000     0.0000     0.0000     0.0000     0.0000 </r>
        <r>    -5.6059     0.1438     0.0018     0.0000     0.0018     0.0000     0.0000     0.0000     0.0000     0.0000 </r>
        <r>    -5.5247     0.1328     0.0019     0.0000     0.0019     0.0000     0.0000     0.0000     0.0000     0.0000 </r>
        <r>    -5.4435     0.1246     0.0021     0.0000     0.0021     0.0000     0.0000     0.0000     0.0000     0.0000 </r>
        <r>    -5.3623     0.1179     0.0022     0.0000     0.0022     0.0000     0.0000     0.0000     0.0000     0.0000 </r>
        <r>    -5.2810     0.1109     0.0024     0.0000     0.0023     0.0000     0.0000     0.0000     0.0000     0.0000 </r>
        <r>    -5.1998     0.1021     0.0024     0.0000     0.0024     0.0000     0.0000     0.0000     0.0000     0.0000 </r>
        <r>    -5.1186     0.0966     0.0024     0.0000     0.0024     0.0000     0.0000     0.0000     0.0000     0.0000 </r>
        <r>    -5.0374     0.1007     0.0027     0.0000     0.0028     0.0000     0.0000     0.0000     0.0000     0.0000 </r>
        <r>    -4.9562     0.0993     0.0030     0.0000     0.0030     0.0000     0.0000     0.0000     0.0000     0.0000 </r>
        <r>    -4.8750     0.0810     0.0026     0.0000     0.0026     0.0000     0.0000     0.0000     0.0000     0.0000 </r>
        <r>    -4.7938     0.0846     0.0028     0.0000     0.0029     0.0000     0.0000     0.0000     0.0000     0.0000 </r>
        <r>    -4.7126     0.0972     0.0036     0.0000     0.0035     0.0000     0.0000     0.0000     0.0000     0.0000 </r>
        <r>    -4.6314     0.0694     0.0028     0.0000     0.0027     0.0000     0.0000     0.0000     0.0000     0.0000 </r>
        <r>    -4.5502     0.0813     0.0032     0.0000     0.0034     0.0000     0.0000     0.0000     0.0000     0.0000 </r>
        <r>    -4.4690     0.0887     0.0040     0.0000     0.0038     0.0000     0.0000     0.0000     0.0000     0.0000 </r>
        <r>    -4.3878     0.0563     0.0025     0.0000     0.0026     0.0000     0.0000     0.0000     0.0000     0.0000 </r>
        <r>    -4.3066     0.0940     0.0044     0.0000     0.0045     0.0000     0.0000     0.0000     0.0000     0.0000 </r>
        <r>    -4.2254     0.0567     0.0030     0.0000     0.0027     0.0000     0.0000     0.0000     0.0000     0.0000 </r>
        <r>    -4.1442     0.0785     0.0039     0.0000     0.0042     0.0000     0.0000     0.0000     0.0000     0.0000 </r>
        <r>    -4.0630     0.0700     0.0041     0.0000     0.0037     0.0000     0.0000     0.0000     0.0000     0.0000 </r>
        <r>    -3.9818     0.0598     0.0031     0.0000     0.0035     0.0000     0.0000     0.0000     0.0000     0.0000 </r>
        <r>    -3.9006     0.0810     0.0050     0.0000     0.0046     0.0000     0.0000     0.0000     0.0000     0.0000 </r>
        <r>    -3.8194     0.0466     0.0026     0.0000     0.0030     0.0000     0.0000     0.0000     0.0000     0.0000 </r>
        <r>    -3.7382     0.0863     0.0057     0.0000     0.0054     0.0000     0.0000     0.0000     0.0000     0.0000 </r>
        <r>    -3.6570     0.0391     0.0024     0.0000     0.0027     0.0000     0.0000     0.0000     0.0000     0.0000 </r>
        <r>    -3.5758     0.0874     0.0062     0.0000     0.0058     0.0000     0.0000     0.0000     0.0000     0.0000 </r>
        <r>    -3.4946     0.0357     0.0023     0.0000     0.0027     0.0000     0.0000     0.0000     0.0000     0.0000 </r>
        <r>    -3.4134     0.0853     0.0065     0.0000     0.0061     0.0000     0.0000     0.0000     0.0000     0.0000 </r>
        <r>    -3.3322     0.0360     0.0024     0.0000     0.0029     0.0000     0.0000     0.0000     0.0000     0.0000 </r>
        <r>    -3.2509     0.0790     0.0066     0.0000     0.0059     0.0000     0.0000     0.0000     0.0000     0.0000 </r>
        <r>    -3.1697     0.0416     0.0029     0.0000     0.0036     0.0000     0.0000     0.0000     0.0000     0.0000 </r>
        <r>    -3.0885     0.0665     0.0060     0.0000     0.0051     0.0000     0.0000     0.0000     0.0000     0.0000 </r>
        <r>    -3.0073     0.0540     0.0040     0.0000     0.0050     0.0000     0.0000     0.0000     0.0000     0.0000 </r>
        <r>    -2.9261     0.0474     0.0047     0.0000     0.0037     0.0000     0.0000     0.0000     0.0000     0.0000 </r>
        <r>    -2.8449     0.0721     0.0059     0.0000     0.0069     0.0000     0.0000     0.0000     0.0000     0.0000 </r>
        <r>    -2.7637     0.0272     0.0029     0.0000     0.0022     0.0000     0.0000     0.0000     0.0000     0.0000 </r>
        <r>    -2.6825     0.0878     0.0081     0.0000     0.0085     0.0000     0.0000     0.0000     0.0000     0.0000 </r>
        <r>    -2.6013     0.0173     0.0017     0.0000     0.0017     0.0000     0.0000     0.0000     0.0000     0.0000 </r>
        <r>    -2.5201     0.0863     0.0089     0.0000     0.0083     0.0000     0.0000     0.0000     0.0000     0.0000 </r>
        <r>    -2.4389     0.0277     0.0023     0.0000     0.0033     0.0000     0.0000     0.0000     0.0000     0.0000 </r>
        <r>    -2.3577     0.0593     0.0070     0.0000     0.0056     0.0000     0.0000     0.0000     0.0000     0.0000 </r>
        <r>    -2.2765     0.0585     0.0055     0.0000     0.0069     0.0000     0.0000     0.0000     0.0000     0.0000 </r>
        <r>    -2.1953     0.0245     0.0033     0.0000     0.0022     0.0000     0.0000     0.0000     0.0000     0.0000 </r>
        <r>    -2.1141     0.0869     0.0095     0.0000     0.0100     0.0000     0.0000     0.0000     0.0000     0.0000 </r>
        <r>    -2.0329     0.0175     0.0020     0.0000     0.0020     0.0000     0.0000     0.0000     0.0000     0.0000 </r>
        <r>    -1.9517     0.1511     0.0193     0.0000     0.0165     0.0000     0.0000     0.0000     0.0000     0.0000 </r>
        <r>    -1.8705     0.0785     0.0077     0.0000     0.0109     0.0000     0.0000     0.0000     0.0000     0.0000 </r>
        <r>    -1.7893     0.0319     0.0047     0.0000     0.0032     0.0000     0.0000     0.0000     0.0000     0.0000 </r>
        <r>    -1.7081     0.0811     0.0096     0.0000     0.0107     0.0000     0.0000     0.0000     0.0000     0.0000 </r>
        <r>    -1.6269     0.0104     0.0013     0.0000     0.0014     0.0000     0.0000     0.0000     0.0000     0.0000 </r>
        <r>    -1.5457     0.0760     0.0108     0.0000     0.0093     0.0000     0.0000     0.0000     0.0000     0.0000 </r>
        <r>    -1.4645     0.0372     0.0040     0.0000     0.0058     0.0000     0.0000     0.0000     0.0000     0.0000 </r>
        <r>    -1.3833     0.0262     0.0045     0.0000     0.0028     0.0000     0.0000     0.0000     0.0000     0.0000 </r>
        <r>    -1.3020     0.0832     0.0110     0.0000     0.0120     0.0000     0.0000     0.0000     0.0000     0.0000 </r>
        <r>    -1.2208     0.0101     0.0012     0.0000     0.0017     0.0000     0.0000     0.0000     0.0000     0.0000 </r>
        <r>    -1.1396     0.0639     0.0104     0.0000     0.0082     0.0000     0.0000     0.0000     0.0000     0.0000 </r>
        <r>    -1.0584     0.0495     0.0060     0.0000     0.0084     0.0000     0.0000     0.0000     0.0000     0.0000 </r>
        <r>    -0.9772     0.0136     0.0026     0.0000     0.0015     0.0000     0.0000     0.0000     0.0000     0.0000 </r>
        <r>    -0.8960     0.0853     0.0133     0.0000     0.0129     0.0000     0.0000     0.0000     0.0000     0.0000 </r>
        <r>    -0.8148     0.0179     0.0020     0.0000     0.0035     0.0000     0.0000     0.0000     0.0000     0.0000 </r>
        <r>    -0.7336     0.0376     0.0073     0.0000     0.0048     0.0000     0.0000     0.0000     0.0000     0.0000 </r>
        <r>    -0.6524     0.0729     0.0107     0.0000     0.0128     0.0000     0.0000     0.0000     0.0000     0.0000 </r>
        <r>    -0.5712     0.0067     0.0011     0.0000     0.0012     0.0000     0.0000     0.0000     0.0000     0.0000 </r>
        <r>    -0.4900     0.0668     0.0126     0.0000     0.0101     0.0000     0.0000     0.0000     0.0000     0.0000 </r>
        <r>    -0.4088     0.0437     0.0060     0.0000     0.0088     0.0000     0.0000     0.0000     0.0000     0.0000 </r>
        <r>    -0.3276     0.0113     0.0026     0.0000     0.0014     0.0000     0.0000     0.0000     0.0000     0.0000 </r>
        <r>    -0.2464     0.0826     0.0151     0.0000     0.0143     0.0000     0.0000     0.0000     0.0000     0.0000 </r>
        <r>    -0.1652     0.0197     0.0025     0.0000     0.0045     0.0000     0.0000     0.0000     0.0000     0.0000 </r>
        <r>    -0.0840     0.0267     0.0063     0.0000     0.0037     0.0000     0.0000     0.0000     0.0000     0.0000 </r>
        <r>    -0.0028     0.0783     0.0138     0.0000     0.0154     0.0000     0.0000     0.0000     0.0000     0.0000 </r>
        <r>     0.0784     0.0078     0.0011     0.0000     0.0019     0.0000     0.0000     0.0000     0.0000     0.0000 </r>
        <r>     0.1596     0.0479     0.0111     0.0000     0.0077     0.0000     0.0000     0.0000     0.0000     0.0000 </r>
        <r>     0.2408     0.0602     0.0103     0.0000     0.0134     0.0000     0.0000     0.0000     0.0000     0.0000 </r>
        <r>     0.3220     0.0052     0.0012     0.0000     0.0009     0.0000     0.0000     0.0000     0.0000     0.0000 </r>
        <r>     0.4032     0.0670     0.0153     0.0000     0.0124     0.0000     0.0000     0.0000     0.0000     0.0000 </r>
        <r>     0.4844     0.0391     0.0064     0.0000     0.0097     0.0000     0.0000     0.0000     0.0000     0.0000 </r>
        <r>     0.5656     0.0089     0.0026     0.0000     0.0013     0.0000     0.0000     0.0000     0.0000     0.0000 </r>
        <r>     0.6469     0.0780     0.0176     0.0000     0.0162     0.0000     0.0000     0.0000     0.0000     0.0000 </r>
        <r>     0.7281     0.0221     0.0035     0.0000     0.0061     0.0000     0.0000     0.0000     0.0000     0.0000 </r>
        <r>     0.8093     0.0175     0.0052     0.0000     0.0028     0.0000     0.0000     0.0000     0.0000     0.0000 </r>
        <r>     0.8905     0.0787     0.0176     0.0000     0.0183     0.0000     0.0000     0.0000     0.0000     0.0000 </r>
        <r>     0.9717     0.0113     0.0017     0.0000     0.0034     0.0000     0.0000     0.0000     0.0000     0.0000 </r>
        <r>     1.0529     0.0297     0.0089     0.0000     0.0054     0.0000     0.0000     0.0000     0.0000     0.0000 </r>
        <r>     1.1341     0.0709     0.0157     0.0000     0.0182     0.0000     0.0000     0.0000     0.0000     0.0000 </r>
        <r>     1.2153     0.0057     0.0010     0.0000     0.0018     0.0000     0.0000     0.0000     0.0000     0.0000 </r>
        <r>     1.2965     0.0437     0.0131     0.0000     0.0090     0.0000     0.0000     0.0000     0.0000     0.0000 </r>
        <r>     1.3777     0.0577     0.0127     0.0000     0.0164     0.0000     0.0000     0.0000     0.0000     0.0000 </r>
        <r>     1.4589     0.0040     0.0011     0.0000     0.0010     0.0000     0.0000     0.0000     0.0000     0.0000 </r>
        <r>     1.5401     0.0569     0.0171     0.0000     0.0132     0.0000     0.0000     0.0000     0.0000     0.0000 </r>
        <r>     1.6213     0.0429     0.0094     0.0000     0.0135     0.0000     0.0000     0.0000     0.0000     0.0000 </r>
        <r>     1.7025     0.0052     0.0019     0.0000     0.0010     0.0000     0.0000     0.0000     0.0000     0.0000 </r>
        <r>     1.7837     0.0668     0.0202     0.0000     0.0173     0.0000     0.0000     0.0000     0.0000     0.0000 </r>
        <r>     1.8649     0.0292     0.0063     0.0000     0.0101     0.0000     0.0000     0.0000     0.0000     0.0000 </r>
        <r>     1.9461     0.0091     0.0036     0.0000     0.0018     0.0000     0.0000     0.0000     0.0000     0.0000 </r>
        <r>     2.0273     0.0719     0.0220     0.0000     0.0207     0.0000     0.0000     0.0000     0.0000     0.0000 </r>
        <r>     2.1085     0.0180     0.0038     0.0000     0.0069     0.0000     0.0000     0.0000     0.0000     0.0000 </r>
        <r>     2.1897     0.0156     0.0064     0.0000     0.0035     0.0000     0.0000     0.0000     0.0000     0.0000 </r>
        <r>     2.2709     0.0710     0.0220     0.0000     0.0228     0.0000     0.0000     0.0000     0.0000     0.0000 </r>
        <r>     2.3521     0.0102     0.0022     0.0000     0.0042     0.0000     0.0000     0.0000     0.0000     0.0000 </r>
        <r>     2.4333     0.0248     0.0103     0.0000     0.0063     0.0000     0.0000     0.0000     0.0000     0.0000 </r>
        <r>     2.5145     0.0643     0.0202     0.0000     0.0229     0.0000     0.0000     0.0000     0.0000     0.0000 </r>
        <r>     2.5957     0.0055     0.0013     0.0000     0.0024     0.0000     0.0000     0.0000     0.0000     0.0000 </r>
        <r>     2.6770     0.0359     0.0152     0.0000     0.0105     0.0000     0.0000     0.0000     0.0000     0.0000 </r>
        <r>     2.7582     0.0530     0.0169     0.0000     0.0211     0.0000     0.0000     0.0000     0.0000     0.0000 </r>
        <r>     2.8394     0.0036     0.0013     0.0000     0.0014     0.0000     0.0000     0.0000     0.0000     0.0000 </r>
        <r>     2.9206     0.0477     0.0256     0.0066     0.0176     0.0000     0.0000     0.0000     0.0000     0.0000 </r>
        <r>     3.0018     0.0389     0.1666     0.2614     0.1246     0.0000     0.0000     0.0000     0.0000     0.0000 </r>
        <r>     3.0830     0.0045     0.2381     0.4890     0.2547     0.0000     0.0000     0.0000     0.0000     0.0000 </r>
        <r>     3.1642     0.0571     0.1631     0.2871     0.1710     0.0000     0.0000     0.0000     0.0000     0.0000 </r>
        <r>     3.2454     0.0247     0.1142     0.2169     0.1230     0.0000     0.0000     0.0000     0.0000     0.0000 </r>
        <r>     3.3266     0.0089     0.0955     0.1833     0.0958     0.0000     0.0000     0.0000     0.0000     0.0000 </r>
        <r>     3.4078     0.0608     0.1077     0.1622     0.1086     0.0000     0.0000     0.0000     0.0000     0.0000 </r>
        <r>     3.4890     0.0130     0.0773     0.1474     0.0817     0.0000     0.0000     0.0000     0.0000     0.0000 </r>
        <r>     3.5702     0.0178     0.0784     0.1364     0.0752     0.0000     0.0000     0.0000     0.0000     0.0000 </r>
        <r>     3.6514     0.0558     0.0892     0.1276     0.0923     0.0000     0.0000     0.0000     0.0000     0.0000 </r>
        <r>     3.7326     0.0057     0.0619     0.1203     0.0639     0.0000     0.0000     0.0000     0.0000     0.0000 </r>
        <r>     3.8138     0.0310     0.0759     0.1139     0.0709     0.0000     0.0000     0.0000     0.0000     0.0000 </r>
        <r>     3.8950     0.0419     0.0736     0.1084     0.0793     0.0000     0.0000     0.0000     0.0000     0.0000 </r>
        <r>     3.9762     0.0039     0.0540     0.1046     0.0549     0.0000     0.0000     0.0000     0.0000     0.0000 </r>
        <r>     4.0574     0.0447     0.0797     0.1036     0.0765     0.0000     0.0000     0.0000     0.0000     0.0000 </r>
        <r>     4.1386     0.0233     0.0623     0.1024     0.0672     0.0000     0.0000     0.0000     0.0000     0.0000 </r>
        <r>     4.2198     0.0091     0.0559     0.0954     0.0511     0.0000     0.0000     0.0000     0.0000     0.0000 </r>
        <r>     4.3010     0.0488     0.0755     0.0876     0.0763     0.0000     0.0000     0.0000     0.0000     0.0000 </r>
        <r>     4.3822     0.0085     0.0490     0.0919     0.0544     0.0000     0.0000     0.0000     0.0000     0.0000 </r>
        <r>     4.4634     0.0239     0.0698     0.0978     0.0632     0.0000     0.0000     0.0000     0.0000     0.0000 </r>
        <r>     4.5446     0.0351     0.0670     0.0854     0.0700     0.0000     0.0000     0.0000     0.0000     0.0000 </r>
        <r>     4.6259     0.0049     0.0436     0.0796     0.0446     0.0000     0.0000     0.0000     0.0000     0.0000 </r>
        <r>     4.7071     0.0388     0.0818     0.0949     0.0802     0.0000     0.0000     0.0000     0.0000     0.0000 </r>
        <r>     4.7883     0.0127     0.0537     0.0882     0.0552     0.0000     0.0000     0.0000     0.0000     0.0000 </r>
        <r>     4.8695     0.0180     0.0582     0.0740     0.0528     0.0000     0.0000     0.0000     0.0000     0.0000 </r>
        <r>     4.9507     0.0292     0.0721     0.0921     0.0802     0.0000     0.0000     0.0000     0.0000     0.0000 </r>
        <r>     5.0319     0.0066     0.0557     0.0909     0.0494     0.0000     0.0000     0.0000     0.0000     0.0000 </r>
        <r>     5.1131     0.0310     0.0756     0.0742     0.0758     0.0000     0.0000     0.0000     0.0000     0.0000 </r>
        <r>     5.1943     0.0072     0.0536     0.0914     0.0581     0.0000     0.0000     0.0000     0.0000     0.0000 </r>
        <r>     5.2755     0.0237     0.0883     0.0961     0.0809     0.0000     0.0000     0.0000     0.0000     0.0000 </r>
        <r>     5.3567     0.0102     0.0559     0.0826     0.0591     0.0000     0.0000     0.0000     0.0000     0.0000 </r>
        <r>     5.4379     0.0180     0.0869     0.0926     0.0838     0.0000     0.0000     0.0000     0.0000     0.0000 </r>
        <r>     5.5191     0.0097     0.0742     0.1058     0.0763     0.0000     0.0000     0.0000     0.0000     0.0000 </r>
        <r>     5.6003     0.0143     0.1005     0.1092     0.0964     0.0000     0.0000     0.0000     0.0000     0.0000 </r>
        <r>     5.6815     0.0083     0.1000     0.1209     0.0938     0.0000     0.0000     0.0000     0.0000     0.0000 </r>
        <r>     5.7627     0.0081     0.1350     0.1555     0.1284     0.0000     0.0000     0.0000     0.0000     0.0000 </r>
        <r>     5.8439     0.0046     0.2442     0.2703     0.2227     0.0000     0.0000     0.0000     0.0000     0.0000 </r>
        <r>     5.9251     0.0008     0.1272     0.1381     0.1712     0.0000     0.0000     0.0000     0.0000     0.0000 </r>
        <r>     6.0063     0.0000     0.0025     0.0027     0.0068     0.0000     0.0000     0.0000     0.0000     0.0000 </r>
        <r>     6.0875     0.0000     0.0000     0.0000     0.0000     0.0000     0.0000     0.0000     0.0000     0.0000 </r>
        <r>     6.1687     0.0000     0.0000     0.0000     0.0000     0.0000     0.0000     0.0000     0.0000     0.0000 </r>
        <r>     6.2499     0.0000     0.0000     0.0000     0.0000     0.0000     0.0000     0.0000     0.0000     0.0000 </r>
        <r>     6.3311     0.0008     0.0001     0.0000     0.0006     0.0000     0.0000     0.0000     0.0000     0.0000 </r>
        <r>     6.4123     0.0697     0.0205     0.0000     0.0367     0.0000     0.0000     0.0000     0.0000     0.0000 </r>
        <r>     6.4935     0.2191     0.0906     0.0000     0.0916     0.0000     0.0000     0.0000     0.0000     0.0000 </r>
        <r>     6.5747     0.1609     0.0706     0.0000     0.0663     0.0000     0.0000     0.0000     0.0000     0.0000 </r>
        <r>     6.6560     0.1095     0.0517     0.0000     0.0482     0.0000     0.0000     0.0000     0.0000     0.0000 </r>
        <r>     6.7372     0.0813     0.0410     0.0000     0.0400     0.0000     0.0000     0.0000     0.0000     0.0000 </r>
        <r>     6.8184     0.0699     0.0373     0.0000     0.0368     0.0000     0.0000     0.0000     0.0000     0.0000 </r>
        <r>     6.8996     0.0619     0.0351     0.0000     0.0347     0.0000     0.0000     0.0000     0.0000     0.0000 </r>
        <r>     6.9808     0.0554     0.0334     0.0000     0.0332     0.0000     0.0000     0.0000     0.0000     0.0000 </r>
        <r>     7.0620     0.0498     0.0322     0.0000     0.0319     0.0000     0.0000     0.0000     0.0000     0.0000 </r>
        <r>     7.1432     0.0461     0.0319     0.0000     0.0314     0.0000     0.0000     0.0000     0.0000     0.0000 </r>
        <r>     7.2244     0.0449     0.0322     0.0000     0.0321     0.0000     0.0000     0.0000     0.0000     0.0000 </r>
        <r>     7.3056     0.0400     0.0313     0.0000     0.0318     0.0000     0.0000     0.0000     0.0000     0.0000 </r>
        <r>     7.3868     0.0348     0.0307     0.0000     0.0307     0.0000     0.0000     0.0000     0.0000     0.0000 </r>
        <r>     7.4680     0.0381     0.0324     0.0000     0.0327     0.0000     0.0000     0.0000     0.0000     0.0000 </r>
        <r>     7.5492     0.0306     0.0308     0.0000     0.0312     0.0000     0.0000     0.0000     0.0000     0.0000 </r>
        <r>     7.6304     0.0304     0.0327     0.0000     0.0319     0.0000     0.0000     0.0000     0.0000     0.0000 </r>
        <r>     7.7116     0.0320     0.0348     0.0000     0.0349     0.0000     0.0000     0.0000     0.0000     0.0000 </r>
        <r>     7.7928     0.0233     0.0341     0.0000     0.0338     0.0000     0.0000     0.0000     0.0000     0.0000 </r>
        <r>     7.8740     0.0313     0.0384     0.0000     0.0390     0.0000     0.0000     0.0000     0.0000     0.0000 </r>
        <r>     7.9552     0.0182     0.0360     0.0000     0.0364     0.0000     0.0000     0.0000     0.0000     0.0000 </r>
        <r>     8.0364     0.0292     0.0428     0.0000     0.0433     0.0000     0.0000     0.0000     0.0000     0.0000 </r>
        <r>     8.1176     0.0146     0.0419     0.0000     0.0421     0.0000     0.0000     0.0000     0.0000     0.0000 </r>
        <r>     8.1988     0.0268     0.0522     0.0000     0.0529     0.0000     0.0000     0.0000     0.0000     0.0000 </r>
        <r>     8.2800     0.0116     0.0565     0.0000     0.0574     0.0000     0.0000     0.0000     0.0000     0.0000 </r>
        <r>     8.3612     0.0230     0.0878     0.0051     0.0936     0.0000     0.0000     0.0000     0.0000     0.0000 </r>
        <r>     8.4424     0.0087     0.1866     0.1212     0.1914     0.0000     0.0000     0.0000     0.0000     0.0000 </r>
        <r>     8.5236     0.0157     0.1103     0.1522     0.0991     0.0000     0.0000     0.0000     0.0000     0.0000 </r>
        <r>     8.6049     0.0113     0.0495     0.0902     0.0479     0.0000     0.0000     0.0000     0.0000     0.0000 </r>
        <r>     8.6861     0.0095     0.0422     0.0769     0.0425     0.0000     0.0000     0.0000     0.0000     0.0000 </r>
        <r>     8.7673     0.0178     0.0334     0.0534     0.0342     0.0000     0.0000     0.0000     0.0000     0.0000 </r>
        <r>     8.8485     0.0041     0.0348     0.0662     0.0323     0.0000     0.0000     0.0000     0.0000     0.0000 </r>
        <r>     8.9297     0.0219     0.0354     0.0541     0.0383     0.0000     0.0000     0.0000     0.0000     0.0000 </r>
        <r>     9.0109     0.0046     0.0256     0.0476     0.0228     0.0000     0.0000     0.0000     0.0000     0.0000 </r>
        <r>     9.0921     0.0168     0.0359     0.0585     0.0384     0.0000     0.0000     0.0000     0.0000     0.0000 </r>
        <r>     9.1733     0.0166     0.0249     0.0399     0.0225     0.0000     0.0000     0.0000     0.0000     0.0000 </r>
        <r>     9.2545     0.1892     0.0299     0.0539     0.0326     0.0000     0.0000     0.0000     0.0000     0.0000 </r>
        <r>     9.3357     0.3947     0.0329     0.0442     0.0300     0.0000     0.0000     0.0000     0.0000     0.0000 </r>
        <r>     9.4169     0.2027     0.0237     0.0392     0.0272     0.0000     0.0000     0.0000     0.0000     0.0000 </r>
        <r>     9.4981     0.1610     0.0422     0.0590     0.0386     0.0000     0.0000     0.0000     0.0000     0.0000 </r>
        <r>     9.5793     0.1649     0.0189     0.0197     0.0223     0.0000     0.0000     0.0000     0.0000     0.0000 </r>
        <r>     9.6605     0.1107     0.0477     0.0741     0.0454     0.0000     0.0000     0.0000     0.0000     0.0000 </r>
        <r>     9.7417     0.1404     0.0216     0.0129     0.0221     0.0000     0.0000     0.0000     0.0000     0.0000 </r>
        <r>     9.8229     0.1161     0.0435     0.0653     0.0450     0.0000     0.0000     0.0000     0.0000     0.0000 </r>
        <r>     9.9041     0.1187     0.0347     0.0323     0.0325     0.0000     0.0000     0.0000     0.0000     0.0000 </r>
        <r>     9.9853     0.1318     0.0296     0.0299     0.0327     0.0000     0.0000     0.0000     0.0000     0.0000 </r>
        <r>    10.0665     0.1146     0.0552     0.0676     0.0528     0.0000     0.0000     0.0000     0.0000     0.0000 </r>
        <r>    10.1477     0.1506     0.0270     0.0091     0.0277     0.0000     0.0000     0.0000     0.0000     0.0000 </r>
        <r>    10.2289     0.1722     0.0666     0.0682     0.0683     0.0000     0.0000     0.0000     0.0000     0.0000 </r>
        <r>    10.3101     0.2612     0.0661     0.0291     0.0645     0.0000     0.0000     0.0000     0.0000     0.0000 </r>
        <r>    10.3913     0.1043     0.0323     0.0245     0.0353     0.0000     0.0000     0.0000     0.0000     0.0000 </r>
        <r>    10.4725     0.0016     0.0369     0.0716     0.0347     0.0000     0.0000     0.0000     0.0000     0.0000 </r>
        <r>    10.5537     0.0000     0.0040     0.0083     0.0041     0.0000     0.0000     0.0000     0.0000     0.0000 </r>
        <r>    10.6350     0.0000     0.0273     0.0556     0.0291     0.0000     0.0000     0.0000     0.0000     0.0000 </r>
        <r>    10.7162     0.0000     0.0229     0.0442     0.0206     0.0000     0.0000     0.0000     0.0000     0.0000 </r>
        <r>    10.7974     0.0000     0.0046     0.0105     0.0061     0.0000     0.0000     0.0000     0.0000     0.0000 </r>
        <r>    10.8786     0.0000     0.0377     0.0745     0.0369     0.0000     0.0000     0.0000     0.0000     0.0000 </r>
        <r>    10.9598     0.0000     0.0095     0.0186     0.0088     0.0000     0.0000     0.0000     0.0000     0.0000 </r>
        <r>    11.0410     0.0000     0.0124     0.0269     0.0145     0.0000     0.0000     0.0000     0.0000     0.0000 </r>
        <r>    11.1222     0.0000     0.0361     0.0699     0.0339     0.0000     0.0000     0.0000     0.0000     0.0000 </r>
        <r>    11.2034     0.0000     0.0033     0.0070     0.0036     0.0000     0.0000     0.0000     0.0000     0.0000 </r>
        <r>    11.2846     0.0000     0.0235     0.0489     0.0248     0.0000     0.0000     0.0000     0.0000     0.0000 </r>
        <r>    11.3658     0.0000     0.0267     0.0511     0.0250     0.0000     0.0000     0.0000     0.0000     0.0000 </r>
        <r>    11.4470     0.0000     0.0025     0.0062     0.0035     0.0000     0.0000     0.0000     0.0000     0.0000 </r>
        <r>    11.5282     0.0000     0.0334     0.0670     0.0329     0.0000     0.0000     0.0000     0.0000     0.0000 </r>
        <r>    11.6094     0.0000     0.0160     0.0307     0.0156     0.0000     0.0000     0.0000     0.0000     0.0000 </r>
        <r>    11.6906     0.0000     0.0049     0.0119     0.0063     0.0000     0.0000     0.0000     0.0000     0.0000 </r>
        <r>    11.7718     0.0000     0.0381     0.0745     0.0362     0.0000     0.0000     0.0000     0.0000     0.0000 </r>
        <r>    11.8530     0.0000     0.0085     0.0166     0.0090     0.0000     0.0000     0.0000     0.0000     0.0000 </r>
        <r>    11.9342     0.0000     0.0093     0.0214     0.0106     0.0000     0.0000     0.0000     0.0000     0.0000 </r>
        <r>    12.0154     0.0000     0.0377     0.0726     0.0356     0.0000     0.0000     0.0000     0.0000     0.0000 </r>
        <r>    12.0966     0.0000     0.0044     0.0089     0.0052     0.0000     0.0000     0.0000     0.0000     0.0000 </r>
        <r>    12.1778     0.0000     0.0145     0.0325     0.0156     0.0000     0.0000     0.0000     0.0000     0.0000 </r>
        <r>    12.2590     0.0000     0.0345     0.0652     0.0326     0.0000     0.0000     0.0000     0.0000     0.0000 </r>
        <r>    12.3402     0.0000     0.0024     0.0054     0.0034     0.0000     0.0000     0.0000     0.0000     0.0000 </r>
        <r>    12.4214     0.0000     0.0204     0.0437     0.0203     0.0000     0.0000     0.0000     0.0000     0.0000 </r>
        <r>    12.5026     0.0000     0.0295     0.0555     0.0288     0.0000     0.0000     0.0000     0.0000     0.0000 </r>
        <r>    12.5839     0.0000     0.0016     0.0042     0.0026     0.0000     0.0000     0.0000     0.0000     0.0000 </r>
        <r>    12.6651     0.0000     0.0257     0.0535     0.0245     0.0000     0.0000     0.0000     0.0000     0.0000 </r>
        <r>    12.7463     0.0000     0.0242     0.0455     0.0247     0.0000     0.0000     0.0000     0.0000     0.0000 </r>
        <r>    12.8275     0.0000     0.0016     0.0046     0.0026     0.0000     0.0000     0.0000     0.0000     0.0000 </r>
        <r>    12.9087     0.0000     0.0299     0.0609     0.0276     0.0000     0.0000     0.0000     0.0000     0.0000 </r>
        <r>    12.9899     0.0000     0.0197     0.0370     0.0211     0.0000     0.0000     0.0000     0.0000     0.0000 </r>
        <r>    13.0711     0.0000     0.0020     0.0058     0.0029     0.0000     0.0000     0.0000     0.0000     0.0000 </r>
        <r>    13.1523     0.0000     0.0329     0.0658     0.0298     0.0000     0.0000     0.0000     0.0000     0.0000 </r>
        <r>    13.2335     0.0000     0.0161     0.0304     0.0183     0.0000     0.0000     0.0000     0.0000     0.0000 </r>
        <r>    13.3147     0.0000     0.0025     0.0074     0.0035     0.0000     0.0000     0.0000     0.0000     0.0000 </r>
        <r>    13.3959     0.0000     0.0349     0.0688     0.0312     0.0000     0.0000     0.0000     0.0000     0.0000 </r>
        <r>    13.4771     0.0000     0.0134     0.0255     0.0162     0.0000     0.0000     0.0000     0.0000     0.0000 </r>
        <r>    13.5583     0.0000     0.0031     0.0090     0.0040     0.0000     0.0000     0.0000     0.0000     0.0000 </r>
        <r>    13.6395     0.0000     0.0360     0.0704     0.0320     0.0000     0.0000     0.0000     0.0000     0.0000 </r>
        <r>    13.7207     0.0000     0.0116     0.0222     0.0148     0.0000     0.0000     0.0000     0.0000     0.0000 </r>
        <r>    13.8019     0.0000     0.0038     0.0107     0.0045     0.0000     0.0000     0.0000     0.0000     0.0000 </r>
        <r>    13.8831     0.0000     0.0370     0.0715     0.0325     0.0000     0.0000     0.0000     0.0000     0.0000 </r>
        <r>    13.9643     0.0000     0.0100     0.0195     0.0137     0.0000     0.0000     0.0000     0.0000     0.0000 </r>
        <r>    14.0455     0.0000     0.0041     0.0116     0.0048     0.0000     0.0000     0.0000     0.0000     0.0000 </r>
        <r>    14.1267     0.0000     0.0374     0.0719     0.0328     0.0000     0.0000     0.0000     0.0000     0.0000 </r>
        <r>    14.2079     0.0000     0.0095     0.0184     0.0133     0.0000     0.0000     0.0000     0.0000     0.0000 </r>
        <r>    14.2891     0.0000     0.0044     0.0123     0.0050     0.0000     0.0000     0.0000     0.0000     0.0000 </r>
        <r>    14.3703     0.0000     0.0377     0.0722     0.0329     0.0000     0.0000     0.0000     0.0000     0.0000 </r>
        <r>    14.4515     0.0000     0.0091     0.0178     0.0132     0.0000     0.0000     0.0000     0.0000     0.0000 </r>
        <r>    14.5327     0.0000     0.0045     0.0127     0.0052     0.0000     0.0000     0.0000     0.0000     0.0000 </r>
        <r>    14.6140     0.0000     0.0380     0.0727     0.0330     0.0000     0.0000     0.0000     0.0000     0.0000 </r>
        <r>    14.6952     0.0000     0.0089     0.0176     0.0132     0.0000     0.0000     0.0000     0.0000     0.0000 </r>
        <r>    14.7764     0.0000     0.0046     0.0128     0.0052     0.0000     0.0000     0.0000     0.0000     0.0000 </r>
        <r>    14.8576     0.0000     0.0386     0.0736     0.0333     0.0000     0.0000     0.0000     0.0000     0.0000 </r>
        <r>    14.9388     0.0000     0.0091     0.0180     0.0137     0.0000     0.0000     0.0000     0.0000     0.0000 </r>
        <r>    15.0200     0.0000     0.0052     0.0142     0.0058     0.0000     0.0000     0.0000     0.0000     0.0000 </r>
        <r>    15.1012     0.0000     0.0396     0.0753     0.0343     0.0000     0.0000     0.0000     0.0000     0.0000 </r>
        <r>    15.1824     0.0000     0.0085     0.0171     0.0132     0.0000     0.0000     0.0000     0.0000     0.0000 </r>
        <r>    15.2636     0.0000     0.0069     0.0179     0.0072     0.0000     0.0000     0.0000     0.0000     0.0000 </r>
        <r>    15.3448     0.0000     0.0411     0.0776     0.0362     0.0000     0.0000     0.0000     0.0000     0.0000 </r>
        <r>    15.4260     0.0000     0.0069     0.0146     0.0115     0.0000     0.0000     0.0000     0.0000     0.0000 </r>
        <r>    15.5072     0.0000     0.0124     0.0289     0.0118     0.0000     0.0000     0.0000     0.0000     0.0000 </r>
        <r>    15.5884     0.0000     0.0414     0.0778     0.0385     0.0000     0.0000     0.0000     0.0000     0.0000 </r>
        <r>    15.6696     0.0000     0.0046     0.0110     0.0083     0.0000     0.0000     0.0000     0.0000     0.0000 </r>
        <r>    15.7508     0.0000     0.0321     0.0652     0.0281     0.0000     0.0000     0.0000     0.0000     0.0000 </r>
        <r>    15.8320     0.0000     0.0294     0.0569     0.0318     0.0000     0.0000     0.0000     0.0000     0.0000 </r>
        <r>    15.9132     0.0000     0.0290     0.0616     0.0277     0.0000     0.0000     0.0000     0.0000     0.0000 </r>
        <r>    15.9944     0.0000     0.0762     0.1491     0.0575     0.0000     0.0000     0.0000     0.0000     0.0000 </r>
        <r>    16.0756     0.0000     0.0363     0.0749     0.0498     0.0000     0.0000     0.0000     0.0000     0.0000 </r>
        <r>    16.1568     0.0000     0.0007     0.0021     0.0043     0.0000     0.0000     0.0000     0.0000     0.0000 </r>
        <r>    16.2380     0.0000     0.0000     0.0000     0.0000     0.0000     0.0000     0.0000     0.0000     0.0000 </r>
        <r>    16.3192     0.0000     0.0000     0.0000     0.0000     0.0000     0.0000     0.0000     0.0000     0.0000 </r>
        <r>    16.4004     0.0000     0.0000     0.0000     0.0000     0.0000     0.0000     0.0000     0.0000     0.0000 </r>
        <r>    16.4816     0.0000     0.0000     0.0000     0.0000     0.0000     0.0000     0.0000     0.0000     0.0000 </r>
        <r>    16.5629     0.0000     0.0000     0.0000     0.0000     0.0000     0.0000     0.0000     0.0000     0.0000 </r>
        <r>    16.6441     0.0000     0.0000     0.0000     0.0000     0.0000     0.0000     0.0000     0.0000     0.0000 </r>
        <r>    16.7253     0.0000     0.0000     0.0000     0.0000     0.0000     0.0000     0.0000     0.0000     0.0000 </r>
        <r>    16.8065     0.0000     0.0000     0.0000     0.0000     0.0000     0.0000     0.0000     0.0000     0.0000 </r>
        <r>    16.8877     0.0000     0.0000     0.0000     0.0000     0.0000     0.0000     0.0000     0.0000     0.0000 </r>
        <r>    16.9689     0.0000     0.0000     0.0000     0.0000     0.0000     0.0000     0.0000     0.0000     0.0000 </r>
        <r>    17.0501     0.0000     0.0000     0.0000     0.0000     0.0000     0.0000     0.0000     0.0000     0.0000 </r>
        <r>    17.1313     0.0000     0.0000     0.0000     0.0000     0.0000     0.0000     0.0000     0.0000     0.0000 </r>
       </set>
      </set>
      <set comment="ion 2">
       <set comment="spin 1">
        <r>    -7.2299     0.0000     0.0000     0.0000     0.0000     0.0000     0.0000     0.0000     0.0000     0.0000 </r>
        <r>    -7.1487     0.0000     0.0000     0.0000     0.0000     0.0000     0.0000     0.0000     0.0000     0.0000 </r>
        <r>    -7.0675     0.0000     0.0000     0.0000     0.0000     0.0000     0.0000     0.0000     0.0000     0.0000 </r>
        <r>    -6.9863     0.0000     0.0000     0.0000     0.0000     0.0000     0.0000     0.0000     0.0000     0.0000 </r>
        <r>    -6.9051     0.0000     0.0000     0.0000     0.0000     0.0000     0.0000     0.0000     0.0000     0.0000 </r>
        <r>    -6.8239     0.0000     0.0000     0.0000     0.0000     0.0000     0.0000     0.0000     0.0000     0.0000 </r>
        <r>    -6.7427     0.0000     0.0000     0.0000     0.0000     0.0000     0.0000     0.0000     0.0000     0.0000 </r>
        <r>    -6.6615     0.0000     0.0000     0.0000     0.0000     0.0000     0.0000     0.0000     0.0000     0.0000 </r>
        <r>    -6.5803     0.0000     0.0000     0.0000     0.0000     0.0000     0.0000     0.0000     0.0000     0.0000 </r>
        <r>    -6.4991     0.0000     0.0000     0.0000     0.0000     0.0000     0.0000     0.0000     0.0000     0.0000 </r>
        <r>    -6.4179     0.0000     0.0000     0.0000     0.0000     0.0000     0.0000     0.0000     0.0000     0.0000 </r>
        <r>    -6.3367     0.0000     0.0000     0.0000     0.0000     0.0000     0.0000     0.0000     0.0000     0.0000 </r>
        <r>    -6.2555     0.0000     0.0000     0.0000     0.0000     0.0000     0.0000     0.0000     0.0000     0.0000 </r>
        <r>    -6.1743     0.0246     0.0000     0.0000     0.0000     0.0000     0.0000     0.0000     0.0000     0.0000 </r>
        <r>    -6.0931     0.4039     0.0002     0.0000     0.0002     0.0000     0.0000     0.0000     0.0000     0.0000 </r>
        <r>    -6.0119     0.4395     0.0006     0.0000     0.0006     0.0000     0.0000     0.0000     0.0000     0.0000 </r>
        <r>    -5.9307     0.2647     0.0010     0.0000     0.0010     0.0000     0.0000     0.0000     0.0000     0.0000 </r>
        <r>    -5.8495     0.2084     0.0012     0.0000     0.0012     0.0000     0.0000     0.0000     0.0000     0.0000 </r>
        <r>    -5.7683     0.1783     0.0014     0.0000     0.0014     0.0000     0.0000     0.0000     0.0000     0.0000 </r>
        <r>    -5.6871     0.1584     0.0016     0.0000     0.0016     0.0000     0.0000     0.0000     0.0000     0.0000 </r>
        <r>    -5.6059     0.1438     0.0018     0.0000     0.0018     0.0000     0.0000     0.0000     0.0000     0.0000 </r>
        <r>    -5.5247     0.1328     0.0019     0.0000     0.0019     0.0000     0.0000     0.0000     0.0000     0.0000 </r>
        <r>    -5.4435     0.1246     0.0021     0.0000     0.0021     0.0000     0.0000     0.0000     0.0000     0.0000 </r>
        <r>    -5.3623     0.1179     0.0022     0.0000     0.0022     0.0000     0.0000     0.0000     0.0000     0.0000 </r>
        <r>    -5.2810     0.1109     0.0024     0.0000     0.0023     0.0000     0.0000     0.0000     0.0000     0.0000 </r>
        <r>    -5.1998     0.1021     0.0024     0.0000     0.0024     0.0000     0.0000     0.0000     0.0000     0.0000 </r>
        <r>    -5.1186     0.0966     0.0024     0.0000     0.0024     0.0000     0.0000     0.0000     0.0000     0.0000 </r>
        <r>    -5.0374     0.1007     0.0027     0.0000     0.0028     0.0000     0.0000     0.0000     0.0000     0.0000 </r>
        <r>    -4.9562     0.0993     0.0030     0.0000     0.0030     0.0000     0.0000     0.0000     0.0000     0.0000 </r>
        <r>    -4.8750     0.0810     0.0026     0.0000     0.0026     0.0000     0.0000     0.0000     0.0000     0.0000 </r>
        <r>    -4.7938     0.0846     0.0028     0.0000     0.0029     0.0000     0.0000     0.0000     0.0000     0.0000 </r>
        <r>    -4.7126     0.0972     0.0036     0.0000     0.0035     0.0000     0.0000     0.0000     0.0000     0.0000 </r>
        <r>    -4.6314     0.0694     0.0028     0.0000     0.0027     0.0000     0.0000     0.0000     0.0000     0.0000 </r>
        <r>    -4.5502     0.0813     0.0032     0.0000     0.0034     0.0000     0.0000     0.0000     0.0000     0.0000 </r>
        <r>    -4.4690     0.0887     0.0040     0.0000     0.0038     0.0000     0.0000     0.0000     0.0000     0.0000 </r>
        <r>    -4.3878     0.0563     0.0025     0.0000     0.0026     0.0000     0.0000     0.0000     0.0000     0.0000 </r>
        <r>    -4.3066     0.0940     0.0044     0.0000     0.0045     0.0000     0.0000     0.0000     0.0000     0.0000 </r>
        <r>    -4.2254     0.0567     0.0030     0.0000     0.0027     0.0000     0.0000     0.0000     0.0000     0.0000 </r>
        <r>    -4.1442     0.0785     0.0039     0.0000     0.0042     0.0000     0.0000     0.0000     0.0000     0.0000 </r>
        <r>    -4.0630     0.0700     0.0041     0.0000     0.0037     0.0000     0.0000     0.0000     0.0000     0.0000 </r>
        <r>    -3.9818     0.0598     0.0031     0.0000     0.0035     0.0000     0.0000     0.0000     0.0000     0.0000 </r>
        <r>    -3.9006     0.0810     0.0050     0.0000     0.0046     0.0000     0.0000     0.0000     0.0000     0.0000 </r>
        <r>    -3.8194     0.0466     0.0026     0.0000     0.0030     0.0000     0.0000     0.0000     0.0000     0.0000 </r>
        <r>    -3.7382     0.0863     0.0057     0.0000     0.0054     0.0000     0.0000     0.0000     0.0000     0.0000 </r>
        <r>    -3.6570     0.0391     0.0024     0.0000     0.0027     0.0000     0.0000     0.0000     0.0000     0.0000 </r>
        <r>    -3.5758     0.0874     0.0062     0.0000     0.0058     0.0000     0.0000     0.0000     0.0000     0.0000 </r>
        <r>    -3.4946     0.0357     0.0023     0.0000     0.0027     0.0000     0.0000     0.0000     0.0000     0.0000 </r>
        <r>    -3.4134     0.0853     0.0065     0.0000     0.0061     0.0000     0.0000     0.0000     0.0000     0.0000 </r>
        <r>    -3.3322     0.0360     0.0024     0.0000     0.0029     0.0000     0.0000     0.0000     0.0000     0.0000 </r>
        <r>    -3.2509     0.0790     0.0066     0.0000     0.0059     0.0000     0.0000     0.0000     0.0000     0.0000 </r>
        <r>    -3.1697     0.0416     0.0029     0.0000     0.0036     0.0000     0.0000     0.0000     0.0000     0.0000 </r>
        <r>    -3.0885     0.0665     0.0060     0.0000     0.0051     0.0000     0.0000     0.0000     0.0000     0.0000 </r>
        <r>    -3.0073     0.0540     0.0040     0.0000     0.0050     0.0000     0.0000     0.0000     0.0000     0.0000 </r>
        <r>    -2.9261     0.0474     0.0047     0.0000     0.0037     0.0000     0.0000     0.0000     0.0000     0.0000 </r>
        <r>    -2.8449     0.0721     0.0059     0.0000     0.0069     0.0000     0.0000     0.0000     0.0000     0.0000 </r>
        <r>    -2.7637     0.0272     0.0029     0.0000     0.0022     0.0000     0.0000     0.0000     0.0000     0.0000 </r>
        <r>    -2.6825     0.0878     0.0081     0.0000     0.0085     0.0000     0.0000     0.0000     0.0000     0.0000 </r>
        <r>    -2.6013     0.0173     0.0017     0.0000     0.0017     0.0000     0.0000     0.0000     0.0000     0.0000 </r>
        <r>    -2.5201     0.0863     0.0089     0.0000     0.0083     0.0000     0.0000     0.0000     0.0000     0.0000 </r>
        <r>    -2.4389     0.0277     0.0023     0.0000     0.0033     0.0000     0.0000     0.0000     0.0000     0.0000 </r>
        <r>    -2.3577     0.0593     0.0070     0.0000     0.0056     0.0000     0.0000     0.0000     0.0000     0.0000 </r>
        <r>    -2.2765     0.0585     0.0055     0.0000     0.0069     0.0000     0.0000     0.0000     0.0000     0.0000 </r>
        <r>    -2.1953     0.0245     0.0033     0.0000     0.0022     0.0000     0.0000     0.0000     0.0000     0.0000 </r>
        <r>    -2.1141     0.0869     0.0095     0.0000     0.0100     0.0000     0.0000     0.0000     0.0000     0.0000 </r>
        <r>    -2.0329     0.0175     0.0020     0.0000     0.0020     0.0000     0.0000     0.0000     0.0000     0.0000 </r>
        <r>    -1.9517     0.1511     0.0193     0.0000     0.0165     0.0000     0.0000     0.0000     0.0000     0.0000 </r>
        <r>    -1.8705     0.0785     0.0077     0.0000     0.0109     0.0000     0.0000     0.0000     0.0000     0.0000 </r>
        <r>    -1.7893     0.0319     0.0047     0.0000     0.0032     0.0000     0.0000     0.0000     0.0000     0.0000 </r>
        <r>    -1.7081     0.0811     0.0096     0.0000     0.0107     0.0000     0.0000     0.0000     0.0000     0.0000 </r>
        <r>    -1.6269     0.0104     0.0013     0.0000     0.0014     0.0000     0.0000     0.0000     0.0000     0.0000 </r>
        <r>    -1.5457     0.0760     0.0108     0.0000     0.0093     0.0000     0.0000     0.0000     0.0000     0.0000 </r>
        <r>    -1.4645     0.0372     0.0040     0.0000     0.0058     0.0000     0.0000     0.0000     0.0000     0.0000 </r>
        <r>    -1.3833     0.0262     0.0045     0.0000     0.0028     0.0000     0.0000     0.0000     0.0000     0.0000 </r>
        <r>    -1.3020     0.0832     0.0110     0.0000     0.0120     0.0000     0.0000     0.0000     0.0000     0.0000 </r>
        <r>    -1.2208     0.0101     0.0012     0.0000     0.0017     0.0000     0.0000     0.0000     0.0000     0.0000 </r>
        <r>    -1.1396     0.0639     0.0104     0.0000     0.0082     0.0000     0.0000     0.0000     0.0000     0.0000 </r>
        <r>    -1.0584     0.0495     0.0060     0.0000     0.0084     0.0000     0.0000     0.0000     0.0000     0.0000 </r>
        <r>    -0.9772     0.0136     0.0026     0.0000     0.0015     0.0000     0.0000     0.0000     0.0000     0.0000 </r>
        <r>    -0.8960     0.0853     0.0133     0.0000     0.0129     0.0000     0.0000     0.0000     0.0000     0.0000 </r>
        <r>    -0.8148     0.0179     0.0020     0.0000     0.0035     0.0000     0.0000     0.0000     0.0000     0.0000 </r>
        <r>    -0.7336     0.0376     0.0073     0.0000     0.0048     0.0000     0.0000     0.0000     0.0000     0.0000 </r>
        <r>    -0.6524     0.0729     0.0107     0.0000     0.0128     0.0000     0.0000     0.0000     0.0000     0.0000 </r>
        <r>    -0.5712     0.0067     0.0011     0.0000     0.0012     0.0000     0.0000     0.0000     0.0000     0.0000 </r>
        <r>    -0.4900     0.0668     0.0126     0.0000     0.0101     0.0000     0.0000     0.0000     0.0000     0.0000 </r>
        <r>    -0.4088     0.0437     0.0060     0.0000     0.0088     0.0000     0.0000     0.0000     0.0000     0.0000 </r>
        <r>    -0.3276     0.0113     0.0026     0.0000     0.0014     0.0000     0.0000     0.0000     0.0000     0.0000 </r>
        <r>    -0.2464     0.0826     0.0151     0.0000     0.0143     0.0000     0.0000     0.0000     0.0000     0.0000 </r>
        <r>    -0.1652     0.0197     0.0025     0.0000     0.0045     0.0000     0.0000     0.0000     0.0000     0.0000 </r>
        <r>    -0.0840     0.0267     0.0063     0.0000     0.0037     0.0000     0.0000     0.0000     0.0000     0.0000 </r>
        <r>    -0.0028     0.0783     0.0138     0.0000     0.0154     0.0000     0.0000     0.0000     0.0000     0.0000 </r>
        <r>     0.0784     0.0078     0.0011     0.0000     0.0019     0.0000     0.0000     0.0000     0.0000     0.0000 </r>
        <r>     0.1596     0.0479     0.0111     0.0000     0.0077     0.0000     0.0000     0.0000     0.0000     0.0000 </r>
        <r>     0.2408     0.0602     0.0103     0.0000     0.0134     0.0000     0.0000     0.0000     0.0000     0.0000 </r>
        <r>     0.3220     0.0052     0.0012     0.0000     0.0009     0.0000     0.0000     0.0000     0.0000     0.0000 </r>
        <r>     0.4032     0.0670     0.0153     0.0000     0.0124     0.0000     0.0000     0.0000     0.0000     0.0000 </r>
        <r>     0.4844     0.0391     0.0064     0.0000     0.0097     0.0000     0.0000     0.0000     0.0000     0.0000 </r>
        <r>     0.5656     0.0089     0.0026     0.0000     0.0013     0.0000     0.0000     0.0000     0.0000     0.0000 </r>
        <r>     0.6469     0.0780     0.0176     0.0000     0.0162     0.0000     0.0000     0.0000     0.0000     0.0000 </r>
        <r>     0.7281     0.0221     0.0035     0.0000     0.0061     0.0000     0.0000     0.0000     0.0000     0.0000 </r>
        <r>     0.8093     0.0175     0.0052     0.0000     0.0028     0.0000     0.0000     0.0000     0.0000     0.0000 </r>
        <r>     0.8905     0.0787     0.0176     0.0000     0.0183     0.0000     0.0000     0.0000     0.0000     0.0000 </r>
        <r>     0.9717     0.0113     0.0017     0.0000     0.0034     0.0000     0.0000     0.0000     0.0000     0.0000 </r>
        <r>     1.0529     0.0297     0.0089     0.0000     0.0054     0.0000     0.0000     0.0000     0.0000     0.0000 </r>
        <r>     1.1341     0.0709     0.0157     0.0000     0.0182     0.0000     0.0000     0.0000     0.0000     0.0000 </r>
        <r>     1.2153     0.0057     0.0010     0.0000     0.0018     0.0000     0.0000     0.0000     0.0000     0.0000 </r>
        <r>     1.2965     0.0437     0.0131     0.0000     0.0090     0.0000     0.0000     0.0000     0.0000     0.0000 </r>
        <r>     1.3777     0.0577     0.0127     0.0000     0.0164     0.0000     0.0000     0.0000     0.0000     0.0000 </r>
        <r>     1.4589     0.0040     0.0011     0.0000     0.0010     0.0000     0.0000     0.0000     0.0000     0.0000 </r>
        <r>     1.5401     0.0569     0.0171     0.0000     0.0132     0.0000     0.0000     0.0000     0.0000     0.0000 </r>
        <r>     1.6213     0.0429     0.0094     0.0000     0.0135     0.0000     0.0000     0.0000     0.0000     0.0000 </r>
        <r>     1.7025     0.0052     0.0019     0.0000     0.0010     0.0000     0.0000     0.0000     0.0000     0.0000 </r>
        <r>     1.7837     0.0668     0.0202     0.0000     0.0173     0.0000     0.0000     0.0000     0.0000     0.0000 </r>
        <r>     1.8649     0.0292     0.0063     0.0000     0.0101     0.0000     0.0000     0.0000     0.0000     0.0000 </r>
        <r>     1.9461     0.0091     0.0036     0.0000     0.0018     0.0000     0.0000     0.0000     0.0000     0.0000 </r>
        <r>     2.0273     0.0719     0.0220     0.0000     0.0207     0.0000     0.0000     0.0000     0.0000     0.0000 </r>
        <r>     2.1085     0.0180     0.0038     0.0000     0.0069     0.0000     0.0000     0.0000     0.0000     0.0000 </r>
        <r>     2.1897     0.0156     0.0064     0.0000     0.0035     0.0000     0.0000     0.0000     0.0000     0.0000 </r>
        <r>     2.2709     0.0710     0.0220     0.0000     0.0228     0.0000     0.0000     0.0000     0.0000     0.0000 </r>
        <r>     2.3521     0.0102     0.0022     0.0000     0.0042     0.0000     0.0000     0.0000     0.0000     0.0000 </r>
        <r>     2.4333     0.0248     0.0103     0.0000     0.0063     0.0000     0.0000     0.0000     0.0000     0.0000 </r>
        <r>     2.5145     0.0643     0.0202     0.0000     0.0229     0.0000     0.0000     0.0000     0.0000     0.0000 </r>
        <r>     2.5957     0.0055     0.0013     0.0000     0.0024     0.0000     0.0000     0.0000     0.0000     0.0000 </r>
        <r>     2.6770     0.0359     0.0152     0.0000     0.0105     0.0000     0.0000     0.0000     0.0000     0.0000 </r>
        <r>     2.7582     0.0530     0.0169     0.0000     0.0211     0.0000     0.0000     0.0000     0.0000     0.0000 </r>
        <r>     2.8394     0.0036     0.0013     0.0000     0.0014     0.0000     0.0000     0.0000     0.0000     0.0000 </r>
        <r>     2.9206     0.0477     0.0256     0.0066     0.0176     0.0000     0.0000     0.0000     0.0000     0.0000 </r>
        <r>     3.0018     0.0389     0.1666     0.2614     0.1246     0.0000     0.0000     0.0000     0.0000     0.0000 </r>
        <r>     3.0830     0.0045     0.2381     0.4890     0.2547     0.0000     0.0000     0.0000     0.0000     0.0000 </r>
        <r>     3.1642     0.0571     0.1631     0.2871     0.1710     0.0000     0.0000     0.0000     0.0000     0.0000 </r>
        <r>     3.2454     0.0247     0.1142     0.2169     0.1230     0.0000     0.0000     0.0000     0.0000     0.0000 </r>
        <r>     3.3266     0.0089     0.0955     0.1833     0.0958     0.0000     0.0000     0.0000     0.0000     0.0000 </r>
        <r>     3.4078     0.0608     0.1077     0.1622     0.1086     0.0000     0.0000     0.0000     0.0000     0.0000 </r>
        <r>     3.4890     0.0130     0.0773     0.1474     0.0817     0.0000     0.0000     0.0000     0.0000     0.0000 </r>
        <r>     3.5702     0.0178     0.0784     0.1364     0.0752     0.0000     0.0000     0.0000     0.0000     0.0000 </r>
        <r>     3.6514     0.0558     0.0892     0.1276     0.0923     0.0000     0.0000     0.0000     0.0000     0.0000 </r>
        <r>     3.7326     0.0057     0.0619     0.1203     0.0639     0.0000     0.0000     0.0000     0.0000     0.0000 </r>
        <r>     3.8138     0.0310     0.0759     0.1139     0.0709     0.0000     0.0000     0.0000     0.0000     0.0000 </r>
        <r>     3.8950     0.0419     0.0736     0.1084     0.0793     0.0000     0.0000     0.0000     0.0000     0.0000 </r>
        <r>     3.9762     0.0039     0.0540     0.1046     0.0549     0.0000     0.0000     0.0000     0.0000     0.0000 </r>
        <r>     4.0574     0.0447     0.0797     0.1036     0.0765     0.0000     0.0000     0.0000     0.0000     0.0000 </r>
        <r>     4.1386     0.0233     0.0623     0.1024     0.0672     0.0000     0.0000     0.0000     0.0000     0.0000 </r>
        <r>     4.2198     0.0091     0.0559     0.0954     0.0511     0.0000     0.0000     0.0000     0.0000     0.0000 </r>
        <r>     4.3010     0.0488     0.0755     0.0876     0.0763     0.0000     0.0000     0.0000     0.0000     0.0000 </r>
        <r>     4.3822     0.0085     0.0490     0.0919     0.0544     0.0000     0.0000     0.0000     0.0000     0.0000 </r>
        <r>     4.4634     0.0239     0.0698     0.0978     0.0632     0.0000     0.0000     0.0000     0.0000     0.0000 </r>
        <r>     4.5446     0.0351     0.0670     0.0854     0.0700     0.0000     0.0000     0.0000     0.0000     0.0000 </r>
        <r>     4.6259     0.0049     0.0436     0.0796     0.0446     0.0000     0.0000     0.0000     0.0000     0.0000 </r>
        <r>     4.7071     0.0388     0.0818     0.0949     0.0802     0.0000     0.0000     0.0000     0.0000     0.0000 </r>
        <r>     4.7883     0.0127     0.0537     0.0882     0.0552     0.0000     0.0000     0.0000     0.0000     0.0000 </r>
        <r>     4.8695     0.0180     0.0582     0.0740     0.0528     0.0000     0.0000     0.0000     0.0000     0.0000 </r>
        <r>     4.9507     0.0292     0.0721     0.0921     0.0802     0.0000     0.0000     0.0000     0.0000     0.0000 </r>
        <r>     5.0319     0.0066     0.0557     0.0909     0.0494     0.0000     0.0000     0.0000     0.0000     0.0000 </r>
        <r>     5.1131     0.0310     0.0756     0.0742     0.0758     0.0000     0.0000     0.0000     0.0000     0.0000 </r>
        <r>     5.1943     0.0072     0.0536     0.0914     0.0581     0.0000     0.0000     0.0000     0.0000     0.0000 </r>
        <r>     5.2755     0.0237     0.0883     0.0961     0.0809     0.0000     0.0000     0.0000     0.0000     0.0000 </r>
        <r>     5.3567     0.0102     0.0559     0.0826     0.0591     0.0000     0.0000     0.0000     0.0000     0.0000 </r>
        <r>     5.4379     0.0180     0.0869     0.0926     0.0838     0.0000     0.0000     0.0000     0.0000     0.0000 </r>
        <r>     5.5191     0.0097     0.0742     0.1058     0.0763     0.0000     0.0000     0.0000     0.0000     0.0000 </r>
        <r>     5.6003     0.0143     0.1005     0.1092     0.0964     0.0000     0.0000     0.0000     0.0000     0.0000 </r>
        <r>     5.6815     0.0083     0.1000     0.1209     0.0938     0.0000     0.0000     0.0000     0.0000     0.0000 </r>
        <r>     5.7627     0.0081     0.1350     0.1555     0.1284     0.0000     0.0000     0.0000     0.0000     0.0000 </r>
        <r>     5.8439     0.0046     0.2442     0.2703     0.2227     0.0000     0.0000     0.0000     0.0000     0.0000 </r>
        <r>     5.9251     0.0008     0.1272     0.1381     0.1712     0.0000     0.0000     0.0000     0.0000     0.0000 </r>
        <r>     6.0063     0.0000     0.0025     0.0027     0.0068     0.0000     0.0000     0.0000     0.0000     0.0000 </r>
        <r>     6.0875     0.0000     0.0000     0.0000     0.0000     0.0000     0.0000     0.0000     0.0000     0.0000 </r>
        <r>     6.1687     0.0000     0.0000     0.0000     0.0000     0.0000     0.0000     0.0000     0.0000     0.0000 </r>
        <r>     6.2499     0.0000     0.0000     0.0000     0.0000     0.0000     0.0000     0.0000     0.0000     0.0000 </r>
        <r>     6.3311     0.0008     0.0001     0.0000     0.0006     0.0000     0.0000     0.0000     0.0000     0.0000 </r>
        <r>     6.4123     0.0697     0.0205     0.0000     0.0367     0.0000     0.0000     0.0000     0.0000     0.0000 </r>
        <r>     6.4935     0.2191     0.0906     0.0000     0.0916     0.0000     0.0000     0.0000     0.0000     0.0000 </r>
        <r>     6.5747     0.1609     0.0706     0.0000     0.0663     0.0000     0.0000     0.0000     0.0000     0.0000 </r>
        <r>     6.6560     0.1095     0.0517     0.0000     0.0482     0.0000     0.0000     0.0000     0.0000     0.0000 </r>
        <r>     6.7372     0.0813     0.0410     0.0000     0.0400     0.0000     0.0000     0.0000     0.0000     0.0000 </r>
        <r>     6.8184     0.0699     0.0373     0.0000     0.0368     0.0000     0.0000     0.0000     0.0000     0.0000 </r>
        <r>     6.8996     0.0619     0.0351     0.0000     0.0347     0.0000     0.0000     0.0000     0.0000     0.0000 </r>
        <r>     6.9808     0.0554     0.0334     0.0000     0.0332     0.0000     0.0000     0.0000     0.0000     0.0000 </r>
        <r>     7.0620     0.0498     0.0322     0.0000     0.0319     0.0000     0.0000     0.0000     0.0000     0.0000 </r>
        <r>     7.1432     0.0461     0.0319     0.0000     0.0314     0.0000     0.0000     0.0000     0.0000     0.0000 </r>
        <r>     7.2244     0.0449     0.0322     0.0000     0.0321     0.0000     0.0000     0.0000     0.0000     0.0000 </r>
        <r>     7.3056     0.0400     0.0313     0.0000     0.0318     0.0000     0.0000     0.0000     0.0000     0.0000 </r>
        <r>     7.3868     0.0348     0.0307     0.0000     0.0307     0.0000     0.0000     0.0000     0.0000     0.0000 </r>
        <r>     7.4680     0.0381     0.0324     0.0000     0.0327     0.0000     0.0000     0.0000     0.0000     0.0000 </r>
        <r>     7.5492     0.0306     0.0308     0.0000     0.0312     0.0000     0.0000     0.0000     0.0000     0.0000 </r>
        <r>     7.6304     0.0304     0.0327     0.0000     0.0319     0.0000     0.0000     0.0000     0.0000     0.0000 </r>
        <r>     7.7116     0.0320     0.0348     0.0000     0.0349     0.0000     0.0000     0.0000     0.0000     0.0000 </r>
        <r>     7.7928     0.0233     0.0341     0.0000     0.0338     0.0000     0.0000     0.0000     0.0000     0.0000 </r>
        <r>     7.8740     0.0313     0.0384     0.0000     0.0390     0.0000     0.0000     0.0000     0.0000     0.0000 </r>
        <r>     7.9552     0.0182     0.0360     0.0000     0.0364     0.0000     0.0000     0.0000     0.0000     0.0000 </r>
        <r>     8.0364     0.0292     0.0428     0.0000     0.0433     0.0000     0.0000     0.0000     0.0000     0.0000 </r>
        <r>     8.1176     0.0146     0.0419     0.0000     0.0421     0.0000     0.0000     0.0000     0.0000     0.0000 </r>
        <r>     8.1988     0.0268     0.0522     0.0000     0.0529     0.0000     0.0000     0.0000     0.0000     0.0000 </r>
        <r>     8.2800     0.0116     0.0565     0.0000     0.0574     0.0000     0.0000     0.0000     0.0000     0.0000 </r>
        <r>     8.3612     0.0230     0.0878     0.0051     0.0936     0.0000     0.0000     0.0000     0.0000     0.0000 </r>
        <r>     8.4424     0.0087     0.1866     0.1212     0.1914     0.0000     0.0000     0.0000     0.0000     0.0000 </r>
        <r>     8.5236     0.0157     0.1103     0.1522     0.0991     0.0000     0.0000     0.0000     0.0000     0.0000 </r>
        <r>     8.6049     0.0113     0.0495     0.0902     0.0479     0.0000     0.0000     0.0000     0.0000     0.0000 </r>
        <r>     8.6861     0.0095     0.0422     0.0769     0.0425     0.0000     0.0000     0.0000     0.0000     0.0000 </r>
        <r>     8.7673     0.0178     0.0334     0.0534     0.0342     0.0000     0.0000     0.0000     0.0000     0.0000 </r>
        <r>     8.8485     0.0041     0.0348     0.0662     0.0323     0.0000     0.0000     0.0000     0.0000     0.0000 </r>
        <r>     8.9297     0.0219     0.0354     0.0541     0.0383     0.0000     0.0000     0.0000     0.0000     0.0000 </r>
        <r>     9.0109     0.0046     0.0256     0.0476     0.0228     0.0000     0.0000     0.0000     0.0000     0.0000 </r>
        <r>     9.0921     0.0168     0.0358     0.0585     0.0384     0.0000     0.0000     0.0000     0.0000     0.0000 </r>
        <r>     9.1733     0.0166     0.0249     0.0399     0.0225     0.0000     0.0000     0.0000     0.0000     0.0000 </r>
        <r>     9.2545     0.1892     0.0299     0.0539     0.0326     0.0000     0.0000     0.0000     0.0000     0.0000 </r>
        <r>     9.3357     0.3947     0.0329     0.0442     0.0300     0.0000     0.0000     0.0000     0.0000     0.0000 </r>
        <r>     9.4169     0.2027     0.0237     0.0392     0.0272     0.0000     0.0000     0.0000     0.0000     0.0000 </r>
        <r>     9.4981     0.1610     0.0422     0.0590     0.0386     0.0000     0.0000     0.0000     0.0000     0.0000 </r>
        <r>     9.5793     0.1649     0.0189     0.0197     0.0223     0.0000     0.0000     0.0000     0.0000     0.0000 </r>
        <r>     9.6605     0.1107     0.0477     0.0741     0.0454     0.0000     0.0000     0.0000     0.0000     0.0000 </r>
        <r>     9.7417     0.1404     0.0216     0.0129     0.0221     0.0000     0.0000     0.0000     0.0000     0.0000 </r>
        <r>     9.8229     0.1161     0.0435     0.0653     0.0450     0.0000     0.0000     0.0000     0.0000     0.0000 </r>
        <r>     9.9041     0.1187     0.0347     0.0324     0.0325     0.0000     0.0000     0.0000     0.0000     0.0000 </r>
        <r>     9.9853     0.1318     0.0296     0.0299     0.0327     0.0000     0.0000     0.0000     0.0000     0.0000 </r>
        <r>    10.0665     0.1146     0.0552     0.0676     0.0528     0.0000     0.0000     0.0000     0.0000     0.0000 </r>
        <r>    10.1477     0.1507     0.0270     0.0091     0.0277     0.0000     0.0000     0.0000     0.0000     0.0000 </r>
        <r>    10.2289     0.1722     0.0666     0.0682     0.0683     0.0000     0.0000     0.0000     0.0000     0.0000 </r>
        <r>    10.3101     0.2612     0.0661     0.0291     0.0645     0.0000     0.0000     0.0000     0.0000     0.0000 </r>
        <r>    10.3913     0.1043     0.0323     0.0245     0.0352     0.0000     0.0000     0.0000     0.0000     0.0000 </r>
        <r>    10.4725     0.0016     0.0369     0.0716     0.0347     0.0000     0.0000     0.0000     0.0000     0.0000 </r>
        <r>    10.5537     0.0000     0.0040     0.0083     0.0041     0.0000     0.0000     0.0000     0.0000     0.0000 </r>
        <r>    10.6350     0.0000     0.0273     0.0556     0.0291     0.0000     0.0000     0.0000     0.0000     0.0000 </r>
        <r>    10.7162     0.0000     0.0229     0.0442     0.0206     0.0000     0.0000     0.0000     0.0000     0.0000 </r>
        <r>    10.7974     0.0000     0.0046     0.0105     0.0061     0.0000     0.0000     0.0000     0.0000     0.0000 </r>
        <r>    10.8786     0.0000     0.0377     0.0745     0.0369     0.0000     0.0000     0.0000     0.0000     0.0000 </r>
        <r>    10.9598     0.0000     0.0095     0.0186     0.0088     0.0000     0.0000     0.0000     0.0000     0.0000 </r>
        <r>    11.0410     0.0000     0.0124     0.0269     0.0145     0.0000     0.0000     0.0000     0.0000     0.0000 </r>
        <r>    11.1222     0.0000     0.0361     0.0700     0.0339     0.0000     0.0000     0.0000     0.0000     0.0000 </r>
        <r>    11.2034     0.0000     0.0033     0.0070     0.0036     0.0000     0.0000     0.0000     0.0000     0.0000 </r>
        <r>    11.2846     0.0000     0.0235     0.0489     0.0248     0.0000     0.0000     0.0000     0.0000     0.0000 </r>
        <r>    11.3658     0.0000     0.0267     0.0511     0.0250     0.0000     0.0000     0.0000     0.0000     0.0000 </r>
        <r>    11.4470     0.0000     0.0025     0.0062     0.0035     0.0000     0.0000     0.0000     0.0000     0.0000 </r>
        <r>    11.5282     0.0000     0.0334     0.0670     0.0329     0.0000     0.0000     0.0000     0.0000     0.0000 </r>
        <r>    11.6094     0.0000     0.0160     0.0307     0.0156     0.0000     0.0000     0.0000     0.0000     0.0000 </r>
        <r>    11.6906     0.0000     0.0049     0.0119     0.0063     0.0000     0.0000     0.0000     0.0000     0.0000 </r>
        <r>    11.7718     0.0000     0.0381     0.0745     0.0362     0.0000     0.0000     0.0000     0.0000     0.0000 </r>
        <r>    11.8530     0.0000     0.0085     0.0166     0.0090     0.0000     0.0000     0.0000     0.0000     0.0000 </r>
        <r>    11.9342     0.0000     0.0093     0.0214     0.0106     0.0000     0.0000     0.0000     0.0000     0.0000 </r>
        <r>    12.0154     0.0000     0.0377     0.0726     0.0356     0.0000     0.0000     0.0000     0.0000     0.0000 </r>
        <r>    12.0966     0.0000     0.0044     0.0089     0.0052     0.0000     0.0000     0.0000     0.0000     0.0000 </r>
        <r>    12.1778     0.0000     0.0145     0.0325     0.0156     0.0000     0.0000     0.0000     0.0000     0.0000 </r>
        <r>    12.2590     0.0000     0.0345     0.0652     0.0326     0.0000     0.0000     0.0000     0.0000     0.0000 </r>
        <r>    12.3402     0.0000     0.0024     0.0054     0.0034     0.0000     0.0000     0.0000     0.0000     0.0000 </r>
        <r>    12.4214     0.0000     0.0204     0.0437     0.0203     0.0000     0.0000     0.0000     0.0000     0.0000 </r>
        <r>    12.5026     0.0000     0.0295     0.0555     0.0288     0.0000     0.0000     0.0000     0.0000     0.0000 </r>
        <r>    12.5839     0.0000     0.0016     0.0042     0.0026     0.0000     0.0000     0.0000     0.0000     0.0000 </r>
        <r>    12.6651     0.0000     0.0257     0.0535     0.0245     0.0000     0.0000     0.0000     0.0000     0.0000 </r>
        <r>    12.7463     0.0000     0.0242     0.0455     0.0247     0.0000     0.0000     0.0000     0.0000     0.0000 </r>
        <r>    12.8275     0.0000     0.0016     0.0046     0.0026     0.0000     0.0000     0.0000     0.0000     0.0000 </r>
        <r>    12.9087     0.0000     0.0299     0.0609     0.0276     0.0000     0.0000     0.0000     0.0000     0.0000 </r>
        <r>    12.9899     0.0000     0.0197     0.0370     0.0211     0.0000     0.0000     0.0000     0.0000     0.0000 </r>
        <r>    13.0711     0.0000     0.0020     0.0058     0.0029     0.0000     0.0000     0.0000     0.0000     0.0000 </r>
        <r>    13.1523     0.0000     0.0329     0.0658     0.0298     0.0000     0.0000     0.0000     0.0000     0.0000 </r>
        <r>    13.2335     0.0000     0.0161     0.0304     0.0183     0.0000     0.0000     0.0000     0.0000     0.0000 </r>
        <r>    13.3147     0.0000     0.0025     0.0074     0.0035     0.0000     0.0000     0.0000     0.0000     0.0000 </r>
        <r>    13.3959     0.0000     0.0349     0.0688     0.0312     0.0000     0.0000     0.0000     0.0000     0.0000 </r>
        <r>    13.4771     0.0000     0.0134     0.0255     0.0162     0.0000     0.0000     0.0000     0.0000     0.0000 </r>
        <r>    13.5583     0.0000     0.0031     0.0090     0.0040     0.0000     0.0000     0.0000     0.0000     0.0000 </r>
        <r>    13.6395     0.0000     0.0361     0.0704     0.0320     0.0000     0.0000     0.0000     0.0000     0.0000 </r>
        <r>    13.7207     0.0000     0.0116     0.0222     0.0148     0.0000     0.0000     0.0000     0.0000     0.0000 </r>
        <r>    13.8019     0.0000     0.0038     0.0107     0.0045     0.0000     0.0000     0.0000     0.0000     0.0000 </r>
        <r>    13.8831     0.0000     0.0370     0.0715     0.0325     0.0000     0.0000     0.0000     0.0000     0.0000 </r>
        <r>    13.9643     0.0000     0.0100     0.0195     0.0137     0.0000     0.0000     0.0000     0.0000     0.0000 </r>
        <r>    14.0455     0.0000     0.0041     0.0116     0.0048     0.0000     0.0000     0.0000     0.0000     0.0000 </r>
        <r>    14.1267     0.0000     0.0374     0.0719     0.0328     0.0000     0.0000     0.0000     0.0000     0.0000 </r>
        <r>    14.2079     0.0000     0.0095     0.0184     0.0133     0.0000     0.0000     0.0000     0.0000     0.0000 </r>
        <r>    14.2891     0.0000     0.0044     0.0123     0.0050     0.0000     0.0000     0.0000     0.0000     0.0000 </r>
        <r>    14.3703     0.0000     0.0377     0.0722     0.0329     0.0000     0.0000     0.0000     0.0000     0.0000 </r>
        <r>    14.4515     0.0000     0.0091     0.0178     0.0132     0.0000     0.0000     0.0000     0.0000     0.0000 </r>
        <r>    14.5327     0.0000     0.0045     0.0127     0.0052     0.0000     0.0000     0.0000     0.0000     0.0000 </r>
        <r>    14.6140     0.0000     0.0380     0.0727     0.0330     0.0000     0.0000     0.0000     0.0000     0.0000 </r>
        <r>    14.6952     0.0000     0.0089     0.0176     0.0132     0.0000     0.0000     0.0000     0.0000     0.0000 </r>
        <r>    14.7764     0.0000     0.0046     0.0128     0.0052     0.0000     0.0000     0.0000     0.0000     0.0000 </r>
        <r>    14.8576     0.0000     0.0386     0.0736     0.0333     0.0000     0.0000     0.0000     0.0000     0.0000 </r>
        <r>    14.9388     0.0000     0.0091     0.0180     0.0137     0.0000     0.0000     0.0000     0.0000     0.0000 </r>
        <r>    15.0200     0.0000     0.0052     0.0142     0.0058     0.0000     0.0000     0.0000     0.0000     0.0000 </r>
        <r>    15.1012     0.0000     0.0396     0.0752     0.0343     0.0000     0.0000     0.0000     0.0000     0.0000 </r>
        <r>    15.1824     0.0000     0.0085     0.0171     0.0132     0.0000     0.0000     0.0000     0.0000     0.0000 </r>
        <r>    15.2636     0.0000     0.0069     0.0179     0.0072     0.0000     0.0000     0.0000     0.0000     0.0000 </r>
        <r>    15.3448     0.0000     0.0411     0.0776     0.0363     0.0000     0.0000     0.0000     0.0000     0.0000 </r>
        <r>    15.4260     0.0000     0.0069     0.0146     0.0115     0.0000     0.0000     0.0000     0.0000     0.0000 </r>
        <r>    15.5072     0.0000     0.0124     0.0290     0.0118     0.0000     0.0000     0.0000     0.0000     0.0000 </r>
        <r>    15.5884     0.0000     0.0414     0.0778     0.0386     0.0000     0.0000     0.0000     0.0000     0.0000 </r>
        <r>    15.6696     0.0000     0.0046     0.0110     0.0083     0.0000     0.0000     0.0000     0.0000     0.0000 </r>
        <r>    15.7508     0.0000     0.0321     0.0652     0.0282     0.0000     0.0000     0.0000     0.0000     0.0000 </r>
        <r>    15.8320     0.0000     0.0294     0.0569     0.0319     0.0000     0.0000     0.0000     0.0000     0.0000 </r>
        <r>    15.9132     0.0000     0.0310     0.0585     0.0283     0.0000     0.0000     0.0000     0.0000     0.0000 </r>
        <r>    15.9944     0.0000     0.0766     0.1339     0.0731     0.0000     0.0000     0.0000     0.0000     0.0000 </r>
        <r>    16.0756     0.0000     0.0350     0.0901     0.0412     0.0000     0.0000     0.0000     0.0000     0.0000 </r>
        <r>    16.1568     0.0000     0.0006     0.0054     0.0016     0.0000     0.0000     0.0000     0.0000     0.0000 </r>
        <r>    16.2380     0.0000     0.0000     0.0000     0.0000     0.0000     0.0000     0.0000     0.0000     0.0000 </r>
        <r>    16.3192     0.0000     0.0000     0.0000     0.0000     0.0000     0.0000     0.0000     0.0000     0.0000 </r>
        <r>    16.4004     0.0000     0.0000     0.0000     0.0000     0.0000     0.0000     0.0000     0.0000     0.0000 </r>
        <r>    16.4816     0.0000     0.0000     0.0000     0.0000     0.0000     0.0000     0.0000     0.0000     0.0000 </r>
        <r>    16.5629     0.0000     0.0000     0.0000     0.0000     0.0000     0.0000     0.0000     0.0000     0.0000 </r>
        <r>    16.6441     0.0000     0.0000     0.0000     0.0000     0.0000     0.0000     0.0000     0.0000     0.0000 </r>
        <r>    16.7253     0.0000     0.0000     0.0000     0.0000     0.0000     0.0000     0.0000     0.0000     0.0000 </r>
        <r>    16.8065     0.0000     0.0000     0.0000     0.0000     0.0000     0.0000     0.0000     0.0000     0.0000 </r>
        <r>    16.8877     0.0000     0.0000     0.0000     0.0000     0.0000     0.0000     0.0000     0.0000     0.0000 </r>
        <r>    16.9689     0.0000     0.0000     0.0000     0.0000     0.0000     0.0000     0.0000     0.0000     0.0000 </r>
        <r>    17.0501     0.0000     0.0000     0.0000     0.0000     0.0000     0.0000     0.0000     0.0000     0.0000 </r>
        <r>    17.1313     0.0000     0.0000     0.0000     0.0000     0.0000     0.0000     0.0000     0.0000     0.0000 </r>
       </set>
      </set>
     </set>
    </array>
   </partial>
  </dos>
  <projected>
   <eigenvalues>
    <array>
     <dimension dim="1">band</dimension>
     <dimension dim="2">kpoint</dimension>
     <dimension dim="3">spin</dimension>
     <field>eigene</field>
     <field>occ</field>
     <set>
      <set comment="spin 1">
       <set comment="kpoint 1">
        <r>   -1.9613    1.0000 </r>
        <r>   -1.9613    1.0000 </r>
        <r>    2.9862    1.0000 </r>
        <r>    2.9862    1.0000 </r>
        <r>    6.5496    0.0000 </r>
        <r>    6.5496    0.0000 </r>
        <r>   15.9914    0.0000 </r>
        <r>   15.9930    0.0000 </r>
       </set>
       <set comment="kpoint 2">
        <r>   -2.1587    1.0000 </r>
        <r>   -1.7605    1.0000 </r>
        <r>    2.9888    1.0000 </r>
        <r>    2.9888    1.0000 </r>
        <r>    6.5075    0.0000 </r>
        <r>    6.5995    0.0000 </r>
        <r>   15.9190    0.0000 </r>
        <r>   15.9218    0.0000 </r>
       </set>
       <set comment="kpoint 3">
        <r>   -2.3525    1.0000 </r>
        <r>   -1.5564    1.0000 </r>
        <r>    2.9966    1.0000 </r>
        <r>    2.9966    1.0000 </r>
        <r>    6.4732    0.0000 </r>
        <r>    6.6576    0.0000 </r>
        <r>   15.7484    0.0000 </r>
        <r>   15.7484    0.0000 </r>
       </set>
       <set comment="kpoint 4">
        <r>   -2.5426    1.0000 </r>
        <r>   -1.3493    1.0000 </r>
        <r>    3.0097    1.0000 </r>
        <r>    3.0097    1.0000 </r>
        <r>    6.4464    0.0000 </r>
        <r>    6.7235    0.0000 </r>
        <r>   15.5350    0.0000 </r>
        <r>   15.5350    0.0000 </r>
       </set>
       <set comment="kpoint 5">
        <r>   -2.7287    1.0000 </r>
        <r>   -1.1392    1.0000 </r>
        <r>    3.0279    1.0000 </r>
        <r>    3.0279    1.0000 </r>
        <r>    6.4271    0.0000 </r>
        <r>    6.7976    0.0000 </r>
        <r>   15.3043    0.0000 </r>
        <r>   15.3043    0.0000 </r>
       </set>
       <set comment="kpoint 6">
        <r>   -2.9109    1.0000 </r>
        <r>   -0.9263    1.0000 </r>
        <r>    3.0513    1.0000 </r>
        <r>    3.0513    1.0000 </r>
        <r>    6.4151    0.0000 </r>
        <r>    6.8800    0.0000 </r>
        <r>   15.0660    0.0000 </r>
        <r>   15.0660    0.0000 </r>
       </set>
       <set comment="kpoint 7">
        <r>   -3.0889    1.0000 </r>
        <r>   -0.7109    1.0000 </r>
        <r>    3.0799    1.0000 </r>
        <r>    3.0799    1.0000 </r>
        <r>    6.4103    0.0000 </r>
        <r>    6.9706    0.0000 </r>
        <r>   14.8244    0.0000 </r>
        <r>   14.8244    0.0000 </r>
       </set>
       <set comment="kpoint 8">
        <r>   -3.2627    1.0000 </r>
        <r>   -0.4931    1.0000 </r>
        <r>    3.1138    1.0000 </r>
        <r>    3.1138    1.0000 </r>
        <r>    6.4127    0.0000 </r>
        <r>    7.0695    0.0000 </r>
        <r>   14.5808    0.0000 </r>
        <r>   14.5808    0.0000 </r>
       </set>
       <set comment="kpoint 9">
        <r>   -3.4321    1.0000 </r>
        <r>   -0.2732    1.0000 </r>
        <r>    3.1527    1.0000 </r>
        <r>    3.1527    1.0000 </r>
        <r>    6.4220    0.0000 </r>
        <r>    7.1770    0.0000 </r>
        <r>   14.3377    0.0000 </r>
        <r>   14.3377    0.0000 </r>
       </set>
       <set comment="kpoint 10">
        <r>   -3.5971    1.0000 </r>
        <r>   -0.0513    1.0000 </r>
        <r>    3.1966    1.0000 </r>
        <r>    3.1966    1.0000 </r>
        <r>    6.4378    0.0000 </r>
        <r>    7.2927    0.0000 </r>
        <r>   14.0952    0.0000 </r>
        <r>   14.0952    0.0000 </r>
       </set>
       <set comment="kpoint 11">
        <r>   -3.7574    1.0000 </r>
        <r>    0.1723    1.0000 </r>
        <r>    3.2456    1.0000 </r>
        <r>    3.2456    1.0000 </r>
        <r>    6.4605    0.0000 </r>
        <r>    7.4170    0.0000 </r>
        <r>   13.8530    0.0000 </r>
        <r>   13.8530    0.0000 </r>
       </set>
       <set comment="kpoint 12">
        <r>   -3.9130    1.0000 </r>
        <r>    0.3976    1.0000 </r>
        <r>    3.2997    1.0000 </r>
        <r>    3.2997    1.0000 </r>
        <r>    6.4905    0.0000 </r>
        <r>    7.5499    0.0000 </r>
        <r>   13.6133    0.0000 </r>
        <r>   13.6133    0.0000 </r>
       </set>
       <set comment="kpoint 13">
        <r>   -4.0639    1.0000 </r>
        <r>    0.6243    1.0000 </r>
        <r>    3.3587    1.0000 </r>
        <r>    3.3587    1.0000 </r>
        <r>    6.5260    0.0000 </r>
        <r>    7.6911    0.0000 </r>
        <r>   13.3738    0.0000 </r>
        <r>   13.3738    0.0000 </r>
       </set>
       <set comment="kpoint 14">
        <r>   -4.2100    1.0000 </r>
        <r>    0.8521    1.0000 </r>
        <r>    3.4226    1.0000 </r>
        <r>    3.4226    1.0000 </r>
        <r>    6.5677    0.0000 </r>
        <r>    7.8406    0.0000 </r>
        <r>   13.1356    0.0000 </r>
        <r>   13.1356    0.0000 </r>
       </set>
       <set comment="kpoint 15">
        <r>   -4.3511    1.0000 </r>
        <r>    1.0809    1.0000 </r>
        <r>    3.4914    1.0000 </r>
        <r>    3.4914    1.0000 </r>
        <r>    6.6152    0.0000 </r>
        <r>    7.9981    0.0000 </r>
        <r>   12.8989    0.0000 </r>
        <r>   12.8989    0.0000 </r>
       </set>
       <set comment="kpoint 16">
        <r>   -4.4872    1.0000 </r>
        <r>    1.3104    1.0000 </r>
        <r>    3.5650    1.0000 </r>
        <r>    3.5650    1.0000 </r>
        <r>    6.6687    0.0000 </r>
        <r>    8.1635    0.0000 </r>
        <r>   12.6637    0.0000 </r>
        <r>   12.6637    0.0000 </r>
       </set>
       <set comment="kpoint 17">
        <r>   -4.6182    1.0000 </r>
        <r>    1.5406    1.0000 </r>
        <r>    3.6432    1.0000 </r>
        <r>    3.6432    1.0000 </r>
        <r>    6.7275    0.0000 </r>
        <r>    8.3362    0.0000 </r>
        <r>   12.4300    0.0000 </r>
        <r>   12.4300    0.0000 </r>
       </set>
       <set comment="kpoint 18">
        <r>   -4.7440    1.0000 </r>
        <r>    1.7711    1.0000 </r>
        <r>    3.7260    1.0000 </r>
        <r>    3.7260    1.0000 </r>
        <r>    6.7917    0.0000 </r>
        <r>    8.5159    0.0000 </r>
        <r>   12.1979    0.0000 </r>
        <r>   12.1979    0.0000 </r>
       </set>
       <set comment="kpoint 19">
        <r>   -4.8647    1.0000 </r>
        <r>    2.0018    1.0000 </r>
        <r>    3.8133    1.0000 </r>
        <r>    3.8133    1.0000 </r>
        <r>    6.8606    0.0000 </r>
        <r>    8.7016    0.0000 </r>
        <r>   11.9665    0.0000 </r>
        <r>   11.9665    0.0000 </r>
       </set>
       <set comment="kpoint 20">
        <r>   -4.9801    1.0000 </r>
        <r>    2.2325    1.0000 </r>
        <r>    3.9048    1.0000 </r>
        <r>    3.9048    1.0000 </r>
        <r>    6.9343    0.0000 </r>
        <r>    8.8928    0.0000 </r>
        <r>   11.7374    0.0000 </r>
        <r>   11.7374    0.0000 </r>
       </set>
       <set comment="kpoint 21">
        <r>   -5.0902    1.0000 </r>
        <r>    2.4630    1.0000 </r>
        <r>    4.0007    1.0000 </r>
        <r>    4.0007    1.0000 </r>
        <r>    7.0126    0.0000 </r>
        <r>    9.0882    0.0000 </r>
        <r>   11.5111    0.0000 </r>
        <r>   11.5111    0.0000 </r>
       </set>
       <set comment="kpoint 22">
        <r>   -5.1949    1.0000 </r>
        <r>    2.6932    1.0000 </r>
        <r>    4.1006    1.0000 </r>
        <r>    4.1006    1.0000 </r>
        <r>    7.0952    0.0000 </r>
        <r>    9.2860    0.0000 </r>
        <r>   11.2875    0.0000 </r>
        <r>   11.2875    0.0000 </r>
       </set>
       <set comment="kpoint 23">
        <r>   -5.2942    1.0000 </r>
        <r>    2.9226    1.0000 </r>
        <r>    4.2043    1.0000 </r>
        <r>    4.2043    1.0000 </r>
        <r>    7.1812    0.0000 </r>
        <r>    9.4836    0.0000 </r>
        <r>   11.0658    0.0000 </r>
        <r>   11.0658    0.0000 </r>
       </set>
       <set comment="kpoint 24">
        <r>   -5.3880    1.0000 </r>
        <r>    3.1510    1.0000 </r>
        <r>    4.3115    1.0000 </r>
        <r>    4.3115    1.0000 </r>
        <r>    7.2703    0.0000 </r>
        <r>    9.6775    0.0000 </r>
        <r>   10.8468    0.0000 </r>
        <r>   10.8468    0.0000 </r>
       </set>
       <set comment="kpoint 25">
        <r>   -5.4763    1.0000 </r>
        <r>    3.3782    1.0000 </r>
        <r>    4.4221    1.0000 </r>
        <r>    4.4221    1.0000 </r>
        <r>    7.3622    0.0000 </r>
        <r>    9.8623    0.0000 </r>
        <r>   10.6308    0.0000 </r>
        <r>   10.6308    0.0000 </r>
       </set>
       <set comment="kpoint 26">
        <r>   -5.5591    1.0000 </r>
        <r>    3.6038    1.0000 </r>
        <r>    4.5356    1.0000 </r>
        <r>    4.5356    1.0000 </r>
        <r>    7.4560    0.0000 </r>
        <r>   10.0304    0.0000 </r>
        <r>   10.4183    0.0000 </r>
        <r>   10.4183    0.0000 </r>
       </set>
       <set comment="kpoint 27">
        <r>   -5.6363    1.0000 </r>
        <r>    3.8275    1.0000 </r>
        <r>    4.6516    1.0000 </r>
        <r>    4.6516    1.0000 </r>
        <r>    7.5513    0.0000 </r>
        <r>   10.1717    0.0000 </r>
        <r>   10.2097    0.0000 </r>
        <r>   10.2097    0.0000 </r>
       </set>
       <set comment="kpoint 28">
        <r>   -5.7079    1.0000 </r>
        <r>    4.0484    1.0000 </r>
        <r>    4.7696    1.0000 </r>
        <r>    4.7696    1.0000 </r>
        <r>    7.6472    0.0000 </r>
        <r>   10.0059    0.0000 </r>
        <r>   10.0059    0.0000 </r>
        <r>   10.2697    0.0000 </r>
       </set>
       <set comment="kpoint 29">
        <r>   -5.7739    1.0000 </r>
        <r>    4.2658    1.0000 </r>
        <r>    4.8891    1.0000 </r>
        <r>    4.8891    1.0000 </r>
        <r>    7.7428    0.0000 </r>
        <r>    9.8069    0.0000 </r>
        <r>    9.8069    0.0000 </r>
        <r>   10.3113    0.0000 </r>
       </set>
       <set comment="kpoint 30">
        <r>   -5.8343    1.0000 </r>
        <r>    4.4790    1.0000 </r>
        <r>    5.0091    1.0000 </r>
        <r>    5.0091    1.0000 </r>
        <r>    7.8371    0.0000 </r>
        <r>    9.6140    0.0000 </r>
        <r>    9.6140    0.0000 </r>
        <r>   10.2911    0.0000 </r>
       </set>
       <set comment="kpoint 31">
        <r>   -5.8889    1.0000 </r>
        <r>    4.6867    1.0000 </r>
        <r>    5.1286    1.0000 </r>
        <r>    5.1286    1.0000 </r>
        <r>    7.9288    0.0000 </r>
        <r>    9.4275    0.0000 </r>
        <r>    9.4275    0.0000 </r>
        <r>   10.2160    0.0000 </r>
       </set>
       <set comment="kpoint 32">
        <r>   -5.9379    1.0000 </r>
        <r>    4.8874    1.0000 </r>
        <r>    5.2466    1.0000 </r>
        <r>    5.2466    1.0000 </r>
        <r>    8.0170    0.0000 </r>
        <r>    9.2501    0.0000 </r>
        <r>    9.2501    0.0000 </r>
        <r>   10.1010    0.0000 </r>
       </set>
       <set comment="kpoint 33">
        <r>   -5.9811    1.0000 </r>
        <r>    5.0790    1.0000 </r>
        <r>    5.3613    1.0000 </r>
        <r>    5.3613    1.0000 </r>
        <r>    8.1002    0.0000 </r>
        <r>    9.0827    0.0000 </r>
        <r>    9.0827    0.0000 </r>
        <r>    9.9628    0.0000 </r>
       </set>
       <set comment="kpoint 34">
        <r>   -6.0186    1.0000 </r>
        <r>    5.2590    1.0000 </r>
        <r>    5.4708    1.0000 </r>
        <r>    5.4708    1.0000 </r>
        <r>    8.1768    0.0000 </r>
        <r>    8.9275    0.0000 </r>
        <r>    8.9275    0.0000 </r>
        <r>    9.8152    0.0000 </r>
       </set>
       <set comment="kpoint 35">
        <r>   -6.0504    1.0000 </r>
        <r>    5.4241    1.0000 </r>
        <r>    5.5725    1.0000 </r>
        <r>    5.5725    1.0000 </r>
        <r>    8.2453    0.0000 </r>
        <r>    8.7870    0.0000 </r>
        <r>    8.7870    0.0000 </r>
        <r>    9.6693    0.0000 </r>
       </set>
       <set comment="kpoint 36">
        <r>   -6.0764    1.0000 </r>
        <r>    5.5700    1.0000 </r>
        <r>    5.6635    1.0000 </r>
        <r>    5.6635    1.0000 </r>
        <r>    8.3042    0.0000 </r>
        <r>    8.6642    0.0000 </r>
        <r>    8.6642    0.0000 </r>
        <r>    9.5344    0.0000 </r>
       </set>
       <set comment="kpoint 37">
        <r>   -6.0966    1.0000 </r>
        <r>    5.6918    1.0000 </r>
        <r>    5.7401    1.0000 </r>
        <r>    5.7401    1.0000 </r>
        <r>    8.3518    0.0000 </r>
        <r>    8.5628    0.0000 </r>
        <r>    8.5628    0.0000 </r>
        <r>    9.4184    0.0000 </r>
       </set>
       <set comment="kpoint 38">
        <r>   -6.1111    1.0000 </r>
        <r>    5.7843    1.0000 </r>
        <r>    5.7986    1.0000 </r>
        <r>    5.7986    1.0000 </r>
        <r>    8.3869    0.0000 </r>
        <r>    8.4866    0.0000 </r>
        <r>    8.4866    0.0000 </r>
        <r>    9.3290    0.0000 </r>
       </set>
       <set comment="kpoint 39">
        <r>   -6.1197    1.0000 </r>
        <r>    5.8354    1.0000 </r>
        <r>    5.8354    1.0000 </r>
        <r>    5.8424    1.0000 </r>
        <r>    8.4084    0.0000 </r>
        <r>    8.4391    0.0000 </r>
        <r>    8.4391    0.0000 </r>
        <r>    9.2723    0.0000 </r>
       </set>
       <set comment="kpoint 40">
        <r>   -6.1226    1.0000 </r>
        <r>    5.8480    1.0000 </r>
        <r>    5.8480    1.0000 </r>
        <r>    5.8622    1.0000 </r>
        <r>    8.4157    0.0000 </r>
        <r>    8.4230    0.0000 </r>
        <r>    8.4230    0.0000 </r>
        <r>    9.2529    0.0000 </r>
       </set>
       <set comment="kpoint 41">
        <r>   -6.1226    1.0000 </r>
        <r>    5.8480    1.0000 </r>
        <r>    5.8480    1.0000 </r>
        <r>    5.8622    1.0000 </r>
        <r>    8.4157    0.0000 </r>
        <r>    8.4230    0.0000 </r>
        <r>    8.4230    0.0000 </r>
        <r>    9.2529    0.0000 </r>
       </set>
       <set comment="kpoint 42">
        <r>   -6.1197    1.0000 </r>
        <r>    5.8283    1.0000 </r>
        <r>    5.8355    1.0000 </r>
        <r>    5.8495    1.0000 </r>
        <r>    8.4158    0.0000 </r>
        <r>    8.4318    0.0000 </r>
        <r>    8.4392    0.0000 </r>
        <r>    9.2723    0.0000 </r>
       </set>
       <set comment="kpoint 43">
        <r>   -6.1111    1.0000 </r>
        <r>    5.7704    1.0000 </r>
        <r>    5.7989    1.0000 </r>
        <r>    5.8125    1.0000 </r>
        <r>    8.3944    0.0000 </r>
        <r>    8.4790    0.0000 </r>
        <r>    8.4869    0.0000 </r>
        <r>    9.3289    0.0000 </r>
       </set>
       <set comment="kpoint 44">
        <r>   -6.0967    1.0000 </r>
        <r>    5.6781    1.0000 </r>
        <r>    5.7407    1.0000 </r>
        <r>    5.7539    1.0000 </r>
        <r>    8.3596    0.0000 </r>
        <r>    8.5549    0.0000 </r>
        <r>    8.5635    0.0000 </r>
        <r>    9.4182    0.0000 </r>
       </set>
       <set comment="kpoint 45">
        <r>   -6.0765    1.0000 </r>
        <r>    5.5565    1.0000 </r>
        <r>    5.6645    1.0000 </r>
        <r>    5.6770    1.0000 </r>
        <r>    8.3123    0.0000 </r>
        <r>    8.6559    0.0000 </r>
        <r>    8.6653    0.0000 </r>
        <r>    9.5341    0.0000 </r>
       </set>
       <set comment="kpoint 46">
        <r>   -6.0506    1.0000 </r>
        <r>    5.4108    1.0000 </r>
        <r>    5.5740    1.0000 </r>
        <r>    5.5859    1.0000 </r>
        <r>    8.2539    0.0000 </r>
        <r>    8.7782    0.0000 </r>
        <r>    8.7885    0.0000 </r>
        <r>    9.6691    0.0000 </r>
       </set>
       <set comment="kpoint 47">
        <r>   -6.0190    1.0000 </r>
        <r>    5.2460    1.0000 </r>
        <r>    5.4728    1.0000 </r>
        <r>    5.4840    1.0000 </r>
        <r>    8.1858    0.0000 </r>
        <r>    8.9181    0.0000 </r>
        <r>    8.9295    0.0000 </r>
        <r>    9.8152    0.0000 </r>
       </set>
       <set comment="kpoint 48">
        <r>   -5.9816    1.0000 </r>
        <r>    5.0661    1.0000 </r>
        <r>    5.3639    1.0000 </r>
        <r>    5.3744    1.0000 </r>
        <r>    8.1097    0.0000 </r>
        <r>    9.0728    0.0000 </r>
        <r>    9.0853    0.0000 </r>
        <r>    9.9630    0.0000 </r>
       </set>
       <set comment="kpoint 49">
        <r>   -5.9385    1.0000 </r>
        <r>    4.8745    1.0000 </r>
        <r>    5.2497    1.0000 </r>
        <r>    5.2596    1.0000 </r>
        <r>    8.0271    0.0000 </r>
        <r>    9.2395    0.0000 </r>
        <r>    9.2532    0.0000 </r>
        <r>   10.1015    0.0000 </r>
       </set>
       <set comment="kpoint 50">
        <r>   -5.8897    1.0000 </r>
        <r>    4.6739    1.0000 </r>
        <r>    5.1324    1.0000 </r>
        <r>    5.1416    1.0000 </r>
        <r>    7.9395    0.0000 </r>
        <r>    9.4163    0.0000 </r>
        <r>    9.4311    0.0000 </r>
        <r>   10.2167    0.0000 </r>
       </set>
       <set comment="kpoint 51">
        <r>   -5.8353    1.0000 </r>
        <r>    4.4662    1.0000 </r>
        <r>    5.0133    1.0000 </r>
        <r>    5.0220    1.0000 </r>
        <r>    7.8482    0.0000 </r>
        <r>    9.6015    0.0000 </r>
        <r>    9.6175    0.0000 </r>
        <r>   10.2916    0.0000 </r>
       </set>
       <set comment="kpoint 52">
        <r>   -5.7751    1.0000 </r>
        <r>    4.2530    1.0000 </r>
        <r>    4.8940    1.0000 </r>
        <r>    4.9021    1.0000 </r>
        <r>    7.7546    0.0000 </r>
        <r>    9.7945    0.0000 </r>
        <r>    9.8117    0.0000 </r>
        <r>   10.3109    0.0000 </r>
       </set>
       <set comment="kpoint 53">
        <r>   -5.7094    1.0000 </r>
        <r>    4.0354    1.0000 </r>
        <r>    4.7752    1.0000 </r>
        <r>    4.7828    1.0000 </r>
        <r>    7.6596    0.0000 </r>
        <r>    9.9928    0.0000 </r>
        <r>   10.0113    0.0000 </r>
        <r>   10.2679    0.0000 </r>
       </set>
       <set comment="kpoint 54">
        <r>   -5.6380    1.0000 </r>
        <r>    3.8145    1.0000 </r>
        <r>    4.6577    1.0000 </r>
        <r>    4.6648    1.0000 </r>
        <r>    7.5642    0.0000 </r>
        <r>   10.1685    0.0000 </r>
        <r>   10.1960    0.0000 </r>
        <r>   10.2158    0.0000 </r>
       </set>
       <set comment="kpoint 55">
        <r>   -5.5610    1.0000 </r>
        <r>    3.5906    1.0000 </r>
        <r>    4.5423    1.0000 </r>
        <r>    4.5490    1.0000 </r>
        <r>    7.4696    0.0000 </r>
        <r>   10.0260    0.0000 </r>
        <r>   10.4041    0.0000 </r>
        <r>   10.4252    0.0000 </r>
       </set>
       <set comment="kpoint 56">
        <r>   -5.4785    1.0000 </r>
        <r>    3.3649    1.0000 </r>
        <r>    4.4293    1.0000 </r>
        <r>    4.4356    1.0000 </r>
        <r>    7.3762    0.0000 </r>
        <r>    9.8574    0.0000 </r>
        <r>   10.6160    0.0000 </r>
        <r>   10.6384    0.0000 </r>
       </set>
       <set comment="kpoint 57">
        <r>   -5.3905    1.0000 </r>
        <r>    3.1375    1.0000 </r>
        <r>    4.3193    1.0000 </r>
        <r>    4.3252    1.0000 </r>
        <r>    7.2849    0.0000 </r>
        <r>    9.6725    0.0000 </r>
        <r>   10.8313    0.0000 </r>
        <r>   10.8551    0.0000 </r>
       </set>
       <set comment="kpoint 58">
        <r>   -5.2970    1.0000 </r>
        <r>    2.9089    1.0000 </r>
        <r>    4.2126    1.0000 </r>
        <r>    4.2180    1.0000 </r>
        <r>    7.1962    0.0000 </r>
        <r>    9.4789    0.0000 </r>
        <r>   11.0498    0.0000 </r>
        <r>   11.0749    0.0000 </r>
       </set>
       <set comment="kpoint 59">
        <r>   -5.1980    1.0000 </r>
        <r>    2.6793    1.0000 </r>
        <r>    4.1094    1.0000 </r>
        <r>    4.1145    1.0000 </r>
        <r>    7.1106    0.0000 </r>
        <r>    9.2820    0.0000 </r>
        <r>   11.2710    0.0000 </r>
        <r>   11.2974    0.0000 </r>
       </set>
       <set comment="kpoint 60">
        <r>   -5.0937    1.0000 </r>
        <r>    2.4490    1.0000 </r>
        <r>    4.0100    1.0000 </r>
        <r>    4.0147    1.0000 </r>
        <r>    7.0284    0.0000 </r>
        <r>    9.0850    0.0000 </r>
        <r>   11.4940    0.0000 </r>
        <r>   11.5219    0.0000 </r>
       </set>
       <set comment="kpoint 61">
        <r>   -4.9840    1.0000 </r>
        <r>    2.2183    1.0000 </r>
        <r>    3.9146    1.0000 </r>
        <r>    3.9191    1.0000 </r>
        <r>    6.9505    0.0000 </r>
        <r>    8.8906    0.0000 </r>
        <r>   11.7199    0.0000 </r>
        <r>   11.7491    0.0000 </r>
       </set>
       <set comment="kpoint 62">
        <r>   -4.8689    1.0000 </r>
        <r>    1.9875    1.0000 </r>
        <r>    3.8236    1.0000 </r>
        <r>    3.8277    1.0000 </r>
        <r>    6.8772    0.0000 </r>
        <r>    8.7004    0.0000 </r>
        <r>   11.9484    0.0000 </r>
        <r>   11.9790    0.0000 </r>
       </set>
       <set comment="kpoint 63">
        <r>   -4.7486    1.0000 </r>
        <r>    1.7567    1.0000 </r>
        <r>    3.7367    1.0000 </r>
        <r>    3.7406    1.0000 </r>
        <r>    6.8086    0.0000 </r>
        <r>    8.5160    0.0000 </r>
        <r>   12.1785    0.0000 </r>
        <r>   12.2111    0.0000 </r>
       </set>
       <set comment="kpoint 64">
        <r>   -4.6232    1.0000 </r>
        <r>    1.5261    1.0000 </r>
        <r>    3.6543    1.0000 </r>
        <r>    3.6579    1.0000 </r>
        <r>    6.7447    0.0000 </r>
        <r>    8.3375    0.0000 </r>
        <r>   12.4110    0.0000 </r>
        <r>   12.4443    0.0000 </r>
       </set>
       <set comment="kpoint 65">
        <r>   -4.4926    1.0000 </r>
        <r>    1.2959    1.0000 </r>
        <r>    3.5765    1.0000 </r>
        <r>    3.5798    1.0000 </r>
        <r>    6.6860    0.0000 </r>
        <r>    8.1659    0.0000 </r>
        <r>   12.6442    0.0000 </r>
        <r>   12.6788    0.0000 </r>
       </set>
       <set comment="kpoint 66">
        <r>   -4.3569    1.0000 </r>
        <r>    1.0662    1.0000 </r>
        <r>    3.5033    1.0000 </r>
        <r>    3.5064    1.0000 </r>
        <r>    6.6329    0.0000 </r>
        <r>    8.0018    0.0000 </r>
        <r>   12.8791    0.0000 </r>
        <r>   12.9150    0.0000 </r>
       </set>
       <set comment="kpoint 67">
        <r>   -4.2162    1.0000 </r>
        <r>    0.8374    1.0000 </r>
        <r>    3.4349    1.0000 </r>
        <r>    3.4377    1.0000 </r>
        <r>    6.5855    0.0000 </r>
        <r>    7.8455    0.0000 </r>
        <r>   13.1154    0.0000 </r>
        <r>   13.1526    0.0000 </r>
       </set>
       <set comment="kpoint 68">
        <r>   -4.0706    1.0000 </r>
        <r>    0.6096    1.0000 </r>
        <r>    3.3714    1.0000 </r>
        <r>    3.3739    1.0000 </r>
        <r>    6.5440    0.0000 </r>
        <r>    7.6972    0.0000 </r>
        <r>   13.3532    0.0000 </r>
        <r>   13.3916    0.0000 </r>
       </set>
       <set comment="kpoint 69">
        <r>   -3.9201    1.0000 </r>
        <r>    0.3831    1.0000 </r>
        <r>    3.3127    1.0000 </r>
        <r>    3.3150    1.0000 </r>
        <r>    6.5086    0.0000 </r>
        <r>    7.5571    0.0000 </r>
        <r>   13.5923    0.0000 </r>
        <r>   13.6319    0.0000 </r>
       </set>
       <set comment="kpoint 70">
        <r>   -3.7649    1.0000 </r>
        <r>    0.1579    1.0000 </r>
        <r>    3.2589    1.0000 </r>
        <r>    3.2610    1.0000 </r>
        <r>    6.4790    0.0000 </r>
        <r>    7.4253    0.0000 </r>
        <r>   13.8321    0.0000 </r>
        <r>   13.8730    0.0000 </r>
       </set>
       <set comment="kpoint 71">
        <r>   -3.6050    1.0000 </r>
        <r>   -0.0656    1.0000 </r>
        <r>    3.2102    1.0000 </r>
        <r>    3.2120    1.0000 </r>
        <r>    6.4559    0.0000 </r>
        <r>    7.3020    0.0000 </r>
        <r>   14.0735    0.0000 </r>
        <r>   14.1153    0.0000 </r>
       </set>
       <set comment="kpoint 72">
        <r>   -3.4405    1.0000 </r>
        <r>   -0.2874    1.0000 </r>
        <r>    3.1665    1.0000 </r>
        <r>    3.1681    1.0000 </r>
        <r>    6.4400    0.0000 </r>
        <r>    7.1873    0.0000 </r>
        <r>   14.3158    0.0000 </r>
        <r>   14.3585    0.0000 </r>
       </set>
       <set comment="kpoint 73">
        <r>   -3.2716    1.0000 </r>
        <r>   -0.5071    1.0000 </r>
        <r>    3.1279    1.0000 </r>
        <r>    3.1293    1.0000 </r>
        <r>    6.4307    0.0000 </r>
        <r>    7.0807    0.0000 </r>
        <r>   14.5586    0.0000 </r>
        <r>   14.6021    0.0000 </r>
       </set>
       <set comment="kpoint 74">
        <r>   -3.0982    1.0000 </r>
        <r>   -0.7247    1.0000 </r>
        <r>    3.0943    1.0000 </r>
        <r>    3.0954    1.0000 </r>
        <r>    6.4282    0.0000 </r>
        <r>    6.9827    0.0000 </r>
        <r>   14.8024    0.0000 </r>
        <r>   14.8464    0.0000 </r>
       </set>
       <set comment="kpoint 75">
        <r>   -2.9206    1.0000 </r>
        <r>   -0.9398    1.0000 </r>
        <r>    3.0659    1.0000 </r>
        <r>    3.0668    1.0000 </r>
        <r>    6.4328    0.0000 </r>
        <r>    6.8928    0.0000 </r>
        <r>   15.0439    0.0000 </r>
        <r>   15.0882    0.0000 </r>
       </set>
       <set comment="kpoint 76">
        <r>   -2.7389    1.0000 </r>
        <r>   -1.1524    1.0000 </r>
        <r>    3.0426    1.0000 </r>
        <r>    3.0434    1.0000 </r>
        <r>    6.4445    0.0000 </r>
        <r>    6.8112    0.0000 </r>
        <r>   15.2826    0.0000 </r>
        <r>   15.3266    0.0000 </r>
       </set>
       <set comment="kpoint 77">
        <r>   -2.5532    1.0000 </r>
        <r>   -1.3621    1.0000 </r>
        <r>    3.0245    1.0000 </r>
        <r>    3.0251    1.0000 </r>
        <r>    6.4635    0.0000 </r>
        <r>    6.7378    0.0000 </r>
        <r>   15.5145    0.0000 </r>
        <r>   15.5570    0.0000 </r>
       </set>
       <set comment="kpoint 78">
        <r>   -2.3635    1.0000 </r>
        <r>   -1.5690    1.0000 </r>
        <r>    3.0116    1.0000 </r>
        <r>    3.0120    1.0000 </r>
        <r>    6.4899    0.0000 </r>
        <r>    6.6723    0.0000 </r>
        <r>   15.7303    0.0000 </r>
        <r>   15.7682    0.0000 </r>
       </set>
       <set comment="kpoint 79">
        <r>   -2.1702    1.0000 </r>
        <r>   -1.7727    1.0000 </r>
        <r>    3.0039    1.0000 </r>
        <r>    3.0041    1.0000 </r>
        <r>    6.5239    0.0000 </r>
        <r>    6.6150    0.0000 </r>
        <r>   15.9101    0.0000 </r>
        <r>   15.9341    0.0000 </r>
       </set>
       <set comment="kpoint 80">
        <r>   -1.9732    1.0000 </r>
        <r>   -1.9732    1.0000 </r>
        <r>    3.0014    1.0000 </r>
        <r>    3.0014    1.0000 </r>
        <r>    6.5656    0.0000 </r>
        <r>    6.5656    0.0000 </r>
        <r>   15.9936    0.0000 </r>
        <r>   16.0240    0.0000 </r>
       </set>
      </set>
     </set>
    </array>
   </eigenvalues>
   <array>
    <dimension dim="1">ion</dimension>
    <dimension dim="2">band</dimension>
    <dimension dim="3">kpoint</dimension>
    <dimension dim="4">spin</dimension>
    <field>    s</field>
    <field>   py</field>
    <field>   pz</field>
    <field>   px</field>
    <field>  dxy</field>
    <field>  dyz</field>
    <field>  dz2</field>
    <field>  dxz</field>
    <field>x2-y2</field>
    <set>
     <set comment="spin1">
      <set comment="kpoint 1">
       <set comment="band 1">
        <r>  0.0075  0.0000  0.0000  0.0898  0.0000  0.0000  0.0000  0.0000  0.0000 </r>
        <r>  0.3795  0.0000  0.0000  0.0018  0.0000  0.0000  0.0000  0.0000  0.0000 </r>
       </set>
       <set comment="band 2">
        <r>  0.3795  0.0000  0.0000  0.0018  0.0000  0.0000  0.0000  0.0000  0.0000 </r>
        <r>  0.0075  0.0000  0.0000  0.0898  0.0000  0.0000  0.0000  0.0000  0.0000 </r>
       </set>
       <set comment="band 3">
        <r>  0.0000  0.1024  0.0958  0.0000  0.0000  0.0000  0.0000  0.0000  0.0000 </r>
        <r>  0.0000  0.0958  0.1024  0.0000  0.0000  0.0000  0.0000  0.0000  0.0000 </r>
       </set>
       <set comment="band 4">
        <r>  0.0000  0.0958  0.1024  0.0000  0.0000  0.0000  0.0000  0.0000  0.0000 </r>
        <r>  0.0000  0.1024  0.0958  0.0000  0.0000  0.0000  0.0000  0.0000  0.0000 </r>
       </set>
       <set comment="band 5">
        <r>  0.0093  0.0000  0.0000  0.0639  0.0000  0.0000  0.0000  0.0000  0.0000 </r>
        <r>  0.0943  0.0000  0.0000  0.0063  0.0000  0.0000  0.0000  0.0000  0.0000 </r>
       </set>
       <set comment="band 6">
        <r>  0.0943  0.0000  0.0000  0.0063  0.0000  0.0000  0.0000  0.0000  0.0000 </r>
        <r>  0.0093  0.0000  0.0000  0.0639  0.0000  0.0000  0.0000  0.0000  0.0000 </r>
       </set>
       <set comment="band 7">
        <r>  0.0000  0.0048  0.2350  0.0000  0.0000  0.0000  0.0000  0.0000  0.0000 </r>
        <r>  0.0000  0.2351  0.0048  0.0000  0.0000  0.0000  0.0000  0.0000  0.0000 </r>
       </set>
       <set comment="band 8">
        <r>  0.0000  0.2349  0.0046  0.0000  0.0000  0.0000  0.0000  0.0000  0.0000 </r>
        <r>  0.0000  0.0048  0.2351  0.0000  0.0000  0.0000  0.0000  0.0000  0.0000 </r>
       </set>
      </set>
      <set comment="kpoint 2">
       <set comment="band 1">
        <r>  0.1945  0.0000  0.0000  0.0436  0.0000  0.0000  0.0000  0.0000  0.0000 </r>
        <r>  0.1945  0.0000  0.0000  0.0436  0.0000  0.0000  0.0000  0.0000  0.0000 </r>
       </set>
       <set comment="band 2">
        <r>  0.1925  0.0000  0.0000  0.0480  0.0000  0.0000  0.0000  0.0000  0.0000 </r>
        <r>  0.1925  0.0000  0.0000  0.0480  0.0000  0.0000  0.0000  0.0000  0.0000 </r>
       </set>
       <set comment="band 3">
        <r>  0.0000  0.1024  0.0958  0.0000  0.0000  0.0000  0.0000  0.0000  0.0000 </r>
        <r>  0.0000  0.0958  0.1024  0.0000  0.0000  0.0000  0.0000  0.0000  0.0000 </r>
       </set>
       <set comment="band 4">
        <r>  0.0000  0.0958  0.1024  0.0000  0.0000  0.0000  0.0000  0.0000  0.0000 </r>
        <r>  0.0000  0.1024  0.0958  0.0000  0.0000  0.0000  0.0000  0.0000  0.0000 </r>
       </set>
       <set comment="band 5">
        <r>  0.0523  0.0000  0.0000  0.0362  0.0000  0.0000  0.0000  0.0000  0.0000 </r>
        <r>  0.0523  0.0000  0.0000  0.0362  0.0000  0.0000  0.0000  0.0000  0.0000 </r>
       </set>
       <set comment="band 6">
        <r>  0.0512  0.0000  0.0000  0.0341  0.0000  0.0000  0.0000  0.0000  0.0000 </r>
        <r>  0.0512  0.0000  0.0000  0.0341  0.0000  0.0000  0.0000  0.0000  0.0000 </r>
       </set>
       <set comment="band 7">
        <r>  0.0000  0.0393  0.1857  0.0000  0.0000  0.0000  0.0000  0.0000  0.0000 </r>
        <r>  0.0000  0.2029  0.0225  0.0000  0.0000  0.0000  0.0000  0.0000  0.0000 </r>
       </set>
       <set comment="band 8">
        <r>  0.0000  0.1823  0.0400  0.0000  0.0000  0.0000  0.0000  0.0000  0.0000 </r>
        <r>  0.0000  0.0219  0.1986  0.0000  0.0000  0.0000  0.0000  0.0000  0.0000 </r>
       </set>
      </set>
      <set comment="kpoint 3">
       <set comment="band 1">
        <r>  0.1954  0.0000  0.0000  0.0414  0.0000  0.0000  0.0000  0.0000  0.0000 </r>
        <r>  0.1954  0.0000  0.0000  0.0414  0.0000  0.0000  0.0000  0.0000  0.0000 </r>
       </set>
       <set comment="band 2">
        <r>  0.1914  0.0000  0.0000  0.0504  0.0000  0.0000  0.0000  0.0000  0.0000 </r>
        <r>  0.1914  0.0000  0.0000  0.0504  0.0000  0.0000  0.0000  0.0000  0.0000 </r>
       </set>
       <set comment="band 3">
        <r>  0.0000  0.1024  0.0958  0.0000  0.0000  0.0000  0.0000  0.0000  0.0000 </r>
        <r>  0.0000  0.0958  0.1024  0.0000  0.0000  0.0000  0.0000  0.0000  0.0000 </r>
       </set>
       <set comment="band 4">
        <r>  0.0000  0.0958  0.1024  0.0000  0.0000  0.0000  0.0000  0.0000  0.0000 </r>
        <r>  0.0000  0.1024  0.0958  0.0000  0.0000  0.0000  0.0000  0.0000  0.0000 </r>
       </set>
       <set comment="band 5">
        <r>  0.0526  0.0000  0.0000  0.0373  0.0000  0.0000  0.0000  0.0000  0.0000 </r>
        <r>  0.0526  0.0000  0.0000  0.0373  0.0000  0.0000  0.0000  0.0000  0.0000 </r>
       </set>
       <set comment="band 6">
        <r>  0.0506  0.0000  0.0000  0.0333  0.0000  0.0000  0.0000  0.0000  0.0000 </r>
        <r>  0.0506  0.0000  0.0000  0.0333  0.0000  0.0000  0.0000  0.0000  0.0000 </r>
       </set>
       <set comment="band 7">
        <r>  0.0000  0.0671  0.1358  0.0000  0.0000  0.0000  0.0000  0.0000  0.0000 </r>
        <r>  0.0000  0.0955  0.1073  0.0000  0.0000  0.0000  0.0000  0.0000  0.0000 </r>
       </set>
       <set comment="band 8">
        <r>  0.0000  0.1359  0.0669  0.0000  0.0000  0.0000  0.0000  0.0000  0.0000 </r>
        <r>  0.0000  0.1072  0.0955  0.0000  0.0000  0.0000  0.0000  0.0000  0.0000 </r>
       </set>
      </set>
      <set comment="kpoint 4">
       <set comment="band 1">
        <r>  0.1964  0.0000  0.0000  0.0393  0.0000  0.0000  0.0000  0.0000  0.0000 </r>
        <r>  0.1964  0.0000  0.0000  0.0393  0.0000  0.0000  0.0000  0.0000  0.0000 </r>
       </set>
       <set comment="band 2">
        <r>  0.1903  0.0000  0.0000  0.0527  0.0000  0.0000  0.0000  0.0000  0.0000 </r>
        <r>  0.1903  0.0000  0.0000  0.0527  0.0000  0.0000  0.0000  0.0000  0.0000 </r>
       </set>
       <set comment="band 3">
        <r>  0.0000  0.1024  0.0958  0.0000  0.0000  0.0000  0.0000  0.0000  0.0000 </r>
        <r>  0.0000  0.0958  0.1024  0.0000  0.0000  0.0000  0.0000  0.0000  0.0000 </r>
       </set>
       <set comment="band 4">
        <r>  0.0000  0.0958  0.1024  0.0000  0.0000  0.0000  0.0000  0.0000  0.0000 </r>
        <r>  0.0000  0.1024  0.0958  0.0000  0.0000  0.0000  0.0000  0.0000  0.0000 </r>
       </set>
       <set comment="band 5">
        <r>  0.0530  0.0000  0.0000  0.0387  0.0000  0.0000  0.0000  0.0000  0.0000 </r>
        <r>  0.0530  0.0000  0.0000  0.0387  0.0000  0.0000  0.0000  0.0000  0.0000 </r>
       </set>
       <set comment="band 6">
        <r>  0.0500  0.0000  0.0000  0.0325  0.0000  0.0000  0.0000  0.0000  0.0000 </r>
        <r>  0.0500  0.0000  0.0000  0.0325  0.0000  0.0000  0.0000  0.0000  0.0000 </r>
       </set>
       <set comment="band 7">
        <r>  0.0000  0.1539  0.0335  0.0000  0.0000  0.0000  0.0000  0.0000  0.0000 </r>
        <r>  0.0000  0.0620  0.1255  0.0000  0.0000  0.0000  0.0000  0.0000  0.0000 </r>
       </set>
       <set comment="band 8">
        <r>  0.0000  0.0333  0.1535  0.0000  0.0000  0.0000  0.0000  0.0000  0.0000 </r>
        <r>  0.0000  0.1250  0.0618  0.0000  0.0000  0.0000  0.0000  0.0000  0.0000 </r>
       </set>
      </set>
      <set comment="kpoint 5">
       <set comment="band 1">
        <r>  0.1973  0.0000  0.0000  0.0373  0.0000  0.0000  0.0000  0.0000  0.0000 </r>
        <r>  0.1973  0.0000  0.0000  0.0373  0.0000  0.0000  0.0000  0.0000  0.0000 </r>
       </set>
       <set comment="band 2">
        <r>  0.1891  0.0000  0.0000  0.0551  0.0000  0.0000  0.0000  0.0000  0.0000 </r>
        <r>  0.1891  0.0000  0.0000  0.0551  0.0000  0.0000  0.0000  0.0000  0.0000 </r>
       </set>
       <set comment="band 3">
        <r>  0.0000  0.1024  0.0958  0.0000  0.0000  0.0000  0.0000  0.0000  0.0000 </r>
        <r>  0.0000  0.0958  0.1024  0.0000  0.0000  0.0000  0.0000  0.0000  0.0000 </r>
       </set>
       <set comment="band 4">
        <r>  0.0000  0.0958  0.1024  0.0000  0.0000  0.0000  0.0000  0.0000  0.0000 </r>
        <r>  0.0000  0.1024  0.0958  0.0000  0.0000  0.0000  0.0000  0.0000  0.0000 </r>
       </set>
       <set comment="band 5">
        <r>  0.0532  0.0000  0.0000  0.0401  0.0000  0.0000  0.0000  0.0000  0.0000 </r>
        <r>  0.0532  0.0000  0.0000  0.0401  0.0000  0.0000  0.0000  0.0000  0.0000 </r>
       </set>
       <set comment="band 6">
        <r>  0.0493  0.0000  0.0000  0.0318  0.0000  0.0000  0.0000  0.0000  0.0000 </r>
        <r>  0.0493  0.0000  0.0000  0.0318  0.0000  0.0000  0.0000  0.0000  0.0000 </r>
       </set>
       <set comment="band 7">
        <r>  0.0000  0.1709  0.0074  0.0000  0.0000  0.0000  0.0000  0.0000  0.0000 </r>
        <r>  0.0000  0.0357  0.1426  0.0000  0.0000  0.0000  0.0000  0.0000  0.0000 </r>
       </set>
       <set comment="band 8">
        <r>  0.0000  0.0074  0.1709  0.0000  0.0000  0.0000  0.0000  0.0000  0.0000 </r>
        <r>  0.0000  0.1426  0.0357  0.0000  0.0000  0.0000  0.0000  0.0000  0.0000 </r>
       </set>
      </set>
      <set comment="kpoint 6">
       <set comment="band 1">
        <r>  0.1981  0.0000  0.0000  0.0353  0.0000  0.0000  0.0000  0.0000  0.0000 </r>
        <r>  0.1981  0.0000  0.0000  0.0353  0.0000  0.0000  0.0000  0.0000  0.0000 </r>
       </set>
       <set comment="band 2">
        <r>  0.1879  0.0000  0.0000  0.0576  0.0000  0.0000  0.0000  0.0000  0.0000 </r>
        <r>  0.1879  0.0000  0.0000  0.0576  0.0000  0.0000  0.0000  0.0000  0.0000 </r>
       </set>
       <set comment="band 3">
        <r>  0.0000  0.1024  0.0958  0.0000  0.0000  0.0000  0.0000  0.0000  0.0000 </r>
        <r>  0.0000  0.0958  0.1024  0.0000  0.0000  0.0000  0.0000  0.0000  0.0000 </r>
       </set>
       <set comment="band 4">
        <r>  0.0000  0.0958  0.1024  0.0000  0.0000  0.0000  0.0000  0.0000  0.0000 </r>
        <r>  0.0000  0.1024  0.0958  0.0000  0.0000  0.0000  0.0000  0.0000  0.0000 </r>
       </set>
       <set comment="band 5">
        <r>  0.0533  0.0000  0.0000  0.0416  0.0000  0.0000  0.0000  0.0000  0.0000 </r>
        <r>  0.0533  0.0000  0.0000  0.0416  0.0000  0.0000  0.0000  0.0000  0.0000 </r>
       </set>
       <set comment="band 6">
        <r>  0.0485  0.0000  0.0000  0.0313  0.0000  0.0000  0.0000  0.0000  0.0000 </r>
        <r>  0.0485  0.0000  0.0000  0.0313  0.0000  0.0000  0.0000  0.0000  0.0000 </r>
       </set>
       <set comment="band 7">
        <r>  0.0000  0.1247  0.0482  0.0000  0.0000  0.0000  0.0000  0.0000  0.0000 </r>
        <r>  0.0000  0.0846  0.0883  0.0000  0.0000  0.0000  0.0000  0.0000  0.0000 </r>
       </set>
       <set comment="band 8">
        <r>  0.0000  0.0482  0.1247  0.0000  0.0000  0.0000  0.0000  0.0000  0.0000 </r>
        <r>  0.0000  0.0883  0.0846  0.0000  0.0000  0.0000  0.0000  0.0000  0.0000 </r>
       </set>
      </set>
      <set comment="kpoint 7">
       <set comment="band 1">
        <r>  0.1990  0.0000  0.0000  0.0333  0.0000  0.0000  0.0000  0.0000  0.0000 </r>
        <r>  0.1990  0.0000  0.0000  0.0333  0.0000  0.0000  0.0000  0.0000  0.0000 </r>
       </set>
       <set comment="band 2">
        <r>  0.1866  0.0000  0.0000  0.0601  0.0000  0.0000  0.0000  0.0000  0.0000 </r>
        <r>  0.1866  0.0000  0.0000  0.0601  0.0000  0.0000  0.0000  0.0000  0.0000 </r>
       </set>
       <set comment="band 3">
        <r>  0.0000  0.1024  0.0958  0.0000  0.0000  0.0000  0.0000  0.0000  0.0000 </r>
        <r>  0.0000  0.0958  0.1024  0.0000  0.0000  0.0000  0.0000  0.0000  0.0000 </r>
       </set>
       <set comment="band 4">
        <r>  0.0000  0.0958  0.1024  0.0000  0.0000  0.0000  0.0000  0.0000  0.0000 </r>
        <r>  0.0000  0.1024  0.0958  0.0000  0.0000  0.0000  0.0000  0.0000  0.0000 </r>
       </set>
       <set comment="band 5">
        <r>  0.0534  0.0000  0.0000  0.0432  0.0000  0.0000  0.0000  0.0000  0.0000 </r>
        <r>  0.0534  0.0000  0.0000  0.0432  0.0000  0.0000  0.0000  0.0000  0.0000 </r>
       </set>
       <set comment="band 6">
        <r>  0.0478  0.0000  0.0000  0.0308  0.0000  0.0000  0.0000  0.0000  0.0000 </r>
        <r>  0.0478  0.0000  0.0000  0.0308  0.0000  0.0000  0.0000  0.0000  0.0000 </r>
       </set>
       <set comment="band 7">
        <r>  0.0000  0.0034  0.1662  0.0000  0.0000  0.0000  0.0000  0.0000  0.0000 </r>
        <r>  0.0000  0.1649  0.0047  0.0000  0.0000  0.0000  0.0000  0.0000  0.0000 </r>
       </set>
       <set comment="band 8">
        <r>  0.0000  0.1662  0.0034  0.0000  0.0000  0.0000  0.0000  0.0000  0.0000 </r>
        <r>  0.0000  0.0047  0.1649  0.0000  0.0000  0.0000  0.0000  0.0000  0.0000 </r>
       </set>
      </set>
      <set comment="kpoint 8">
       <set comment="band 1">
        <r>  0.1998  0.0000  0.0000  0.0314  0.0000  0.0000  0.0000  0.0000  0.0000 </r>
        <r>  0.1998  0.0000  0.0000  0.0314  0.0000  0.0000  0.0000  0.0000  0.0000 </r>
       </set>
       <set comment="band 2">
        <r>  0.1851  0.0000  0.0000  0.0626  0.0000  0.0000  0.0000  0.0000  0.0000 </r>
        <r>  0.1851  0.0000  0.0000  0.0626  0.0000  0.0000  0.0000  0.0000  0.0000 </r>
       </set>
       <set comment="band 3">
        <r>  0.0000  0.1024  0.0958  0.0000  0.0000  0.0000  0.0000  0.0000  0.0000 </r>
        <r>  0.0000  0.0958  0.1024  0.0000  0.0000  0.0000  0.0000  0.0000  0.0000 </r>
       </set>
       <set comment="band 4">
        <r>  0.0000  0.0958  0.1024  0.0000  0.0000  0.0000  0.0000  0.0000  0.0000 </r>
        <r>  0.0000  0.1024  0.0958  0.0000  0.0000  0.0000  0.0000  0.0000  0.0000 </r>
       </set>
       <set comment="band 5">
        <r>  0.0533  0.0000  0.0000  0.0450  0.0000  0.0000  0.0000  0.0000  0.0000 </r>
        <r>  0.0533  0.0000  0.0000  0.0450  0.0000  0.0000  0.0000  0.0000  0.0000 </r>
       </set>
       <set comment="band 6">
        <r>  0.0470  0.0000  0.0000  0.0305  0.0000  0.0000  0.0000  0.0000  0.0000 </r>
        <r>  0.0470  0.0000  0.0000  0.0305  0.0000  0.0000  0.0000  0.0000  0.0000 </r>
       </set>
       <set comment="band 7">
        <r>  0.0000  0.0308  0.1364  0.0000  0.0000  0.0000  0.0000  0.0000  0.0000 </r>
        <r>  0.0000  0.1022  0.0650  0.0000  0.0000  0.0000  0.0000  0.0000  0.0000 </r>
       </set>
       <set comment="band 8">
        <r>  0.0000  0.1364  0.0309  0.0000  0.0000  0.0000  0.0000  0.0000  0.0000 </r>
        <r>  0.0000  0.0650  0.1023  0.0000  0.0000  0.0000  0.0000  0.0000  0.0000 </r>
       </set>
      </set>
      <set comment="kpoint 9">
       <set comment="band 1">
        <r>  0.2005  0.0000  0.0000  0.0296  0.0000  0.0000  0.0000  0.0000  0.0000 </r>
        <r>  0.2005  0.0000  0.0000  0.0296  0.0000  0.0000  0.0000  0.0000  0.0000 </r>
       </set>
       <set comment="band 2">
        <r>  0.1836  0.0000  0.0000  0.0653  0.0000  0.0000  0.0000  0.0000  0.0000 </r>
        <r>  0.1836  0.0000  0.0000  0.0653  0.0000  0.0000  0.0000  0.0000  0.0000 </r>
       </set>
       <set comment="band 3">
        <r>  0.0000  0.1024  0.0958  0.0000  0.0000  0.0000  0.0000  0.0000  0.0000 </r>
        <r>  0.0000  0.0958  0.1024  0.0000  0.0000  0.0000  0.0000  0.0000  0.0000 </r>
       </set>
       <set comment="band 4">
        <r>  0.0000  0.0958  0.1024  0.0000  0.0000  0.0000  0.0000  0.0000  0.0000 </r>
        <r>  0.0000  0.1024  0.0958  0.0000  0.0000  0.0000  0.0000  0.0000  0.0000 </r>
       </set>
       <set comment="band 5">
        <r>  0.0532  0.0000  0.0000  0.0468  0.0000  0.0000  0.0000  0.0000  0.0000 </r>
        <r>  0.0532  0.0000  0.0000  0.0468  0.0000  0.0000  0.0000  0.0000  0.0000 </r>
       </set>
       <set comment="band 6">
        <r>  0.0463  0.0000  0.0000  0.0303  0.0000  0.0000  0.0000  0.0000  0.0000 </r>
        <r>  0.0463  0.0000  0.0000  0.0303  0.0000  0.0000  0.0000  0.0000  0.0000 </r>
       </set>
       <set comment="band 7">
        <r>  0.0000  0.0708  0.0952  0.0000  0.0000  0.0000  0.0000  0.0000  0.0000 </r>
        <r>  0.0000  0.0678  0.0982  0.0000  0.0000  0.0000  0.0000  0.0000  0.0000 </r>
       </set>
       <set comment="band 8">
        <r>  0.0000  0.0952  0.0709  0.0000  0.0000  0.0000  0.0000  0.0000  0.0000 </r>
        <r>  0.0000  0.0982  0.0679  0.0000  0.0000  0.0000  0.0000  0.0000  0.0000 </r>
       </set>
      </set>
      <set comment="kpoint 10">
       <set comment="band 1">
        <r>  0.2013  0.0000  0.0000  0.0277  0.0000  0.0000  0.0000  0.0000  0.0000 </r>
        <r>  0.2013  0.0000  0.0000  0.0277  0.0000  0.0000  0.0000  0.0000  0.0000 </r>
       </set>
       <set comment="band 2">
        <r>  0.1820  0.0000  0.0000  0.0679  0.0000  0.0000  0.0000  0.0000  0.0000 </r>
        <r>  0.1820  0.0000  0.0000  0.0679  0.0000  0.0000  0.0000  0.0000  0.0000 </r>
       </set>
       <set comment="band 3">
        <r>  0.0000  0.1024  0.0959  0.0000  0.0000  0.0000  0.0000  0.0000  0.0000 </r>
        <r>  0.0000  0.0959  0.1024  0.0000  0.0000  0.0000  0.0000  0.0000  0.0000 </r>
       </set>
       <set comment="band 4">
        <r>  0.0000  0.0959  0.1024  0.0000  0.0000  0.0000  0.0000  0.0000  0.0000 </r>
        <r>  0.0000  0.1024  0.0959  0.0000  0.0000  0.0000  0.0000  0.0000  0.0000 </r>
       </set>
       <set comment="band 5">
        <r>  0.0529  0.0000  0.0000  0.0487  0.0000  0.0000  0.0000  0.0000  0.0000 </r>
        <r>  0.0529  0.0000  0.0000  0.0487  0.0000  0.0000  0.0000  0.0000  0.0000 </r>
       </set>
       <set comment="band 6">
        <r>  0.0456  0.0000  0.0000  0.0302  0.0000  0.0000  0.0000  0.0000  0.0000 </r>
        <r>  0.0456  0.0000  0.0000  0.0302  0.0000  0.0000  0.0000  0.0000  0.0000 </r>
       </set>
       <set comment="band 7">
        <r>  0.0000  0.0869  0.0785  0.0000  0.0000  0.0000  0.0000  0.0000  0.0000 </r>
        <r>  0.0000  0.1063  0.0591  0.0000  0.0000  0.0000  0.0000  0.0000  0.0000 </r>
       </set>
       <set comment="band 8">
        <r>  0.0000  0.0785  0.0869  0.0000  0.0000  0.0000  0.0000  0.0000  0.0000 </r>
        <r>  0.0000  0.0592  0.1063  0.0000  0.0000  0.0000  0.0000  0.0000  0.0000 </r>
       </set>
      </set>
      <set comment="kpoint 11">
       <set comment="band 1">
        <r>  0.2020  0.0000  0.0000  0.0259  0.0000  0.0000  0.0000  0.0000  0.0000 </r>
        <r>  0.2020  0.0000  0.0000  0.0259  0.0000  0.0000  0.0000  0.0000  0.0000 </r>
       </set>
       <set comment="band 2">
        <r>  0.1803  0.0000  0.0000  0.0707  0.0000  0.0000  0.0000  0.0000  0.0000 </r>
        <r>  0.1803  0.0000  0.0000  0.0707  0.0000  0.0000  0.0000  0.0000  0.0000 </r>
       </set>
       <set comment="band 3">
        <r>  0.0000  0.1024  0.0959  0.0000  0.0000  0.0000  0.0000  0.0000  0.0000 </r>
        <r>  0.0000  0.0959  0.1024  0.0000  0.0000  0.0000  0.0000  0.0000  0.0000 </r>
       </set>
       <set comment="band 4">
        <r>  0.0000  0.0959  0.1024  0.0000  0.0000  0.0000  0.0000  0.0000  0.0000 </r>
        <r>  0.0000  0.1024  0.0959  0.0000  0.0000  0.0000  0.0000  0.0000  0.0000 </r>
       </set>
       <set comment="band 5">
        <r>  0.0526  0.0000  0.0000  0.0508  0.0000  0.0000  0.0000  0.0000  0.0000 </r>
        <r>  0.0526  0.0000  0.0000  0.0508  0.0000  0.0000  0.0000  0.0000  0.0000 </r>
       </set>
       <set comment="band 6">
        <r>  0.0449  0.0000  0.0000  0.0302  0.0000  0.0000  0.0000  0.0000  0.0000 </r>
        <r>  0.0449  0.0000  0.0000  0.0302  0.0000  0.0000  0.0000  0.0000  0.0000 </r>
       </set>
       <set comment="band 7">
        <r>  0.0000  0.0845  0.0804  0.0000  0.0000  0.0000  0.0000  0.0000  0.0000 </r>
        <r>  0.0000  0.0754  0.0896  0.0000  0.0000  0.0000  0.0000  0.0000  0.0000 </r>
       </set>
       <set comment="band 8">
        <r>  0.0000  0.0804  0.0845  0.0000  0.0000  0.0000  0.0000  0.0000  0.0000 </r>
        <r>  0.0000  0.0896  0.0754  0.0000  0.0000  0.0000  0.0000  0.0000  0.0000 </r>
       </set>
      </set>
      <set comment="kpoint 12">
       <set comment="band 1">
        <r>  0.2027  0.0000  0.0000  0.0242  0.0000  0.0000  0.0000  0.0000  0.0000 </r>
        <r>  0.2027  0.0000  0.0000  0.0242  0.0000  0.0000  0.0000  0.0000  0.0000 </r>
       </set>
       <set comment="band 2">
        <r>  0.1785  0.0000  0.0000  0.0735  0.0000  0.0000  0.0000  0.0000  0.0000 </r>
        <r>  0.1785  0.0000  0.0000  0.0735  0.0000  0.0000  0.0000  0.0000  0.0000 </r>
       </set>
       <set comment="band 3">
        <r>  0.0000  0.1024  0.0960  0.0000  0.0000  0.0000  0.0000  0.0000  0.0000 </r>
        <r>  0.0000  0.0960  0.1025  0.0000  0.0000  0.0000  0.0000  0.0000  0.0000 </r>
       </set>
       <set comment="band 4">
        <r>  0.0000  0.0960  0.1024  0.0000  0.0000  0.0000  0.0000  0.0000  0.0000 </r>
        <r>  0.0000  0.1025  0.0960  0.0000  0.0000  0.0000  0.0000  0.0000  0.0000 </r>
       </set>
       <set comment="band 5">
        <r>  0.0521  0.0000  0.0000  0.0530  0.0000  0.0000  0.0000  0.0000  0.0000 </r>
        <r>  0.0521  0.0000  0.0000  0.0530  0.0000  0.0000  0.0000  0.0000  0.0000 </r>
       </set>
       <set comment="band 6">
        <r>  0.0444  0.0000  0.0000  0.0303  0.0000  0.0000  0.0000  0.0000  0.0000 </r>
        <r>  0.0444  0.0000  0.0000  0.0303  0.0000  0.0000  0.0000  0.0000  0.0000 </r>
       </set>
       <set comment="band 7">
        <r>  0.0000  0.0027  0.1620  0.0000  0.0000  0.0000  0.0000  0.0000  0.0000 </r>
        <r>  0.0000  0.1523  0.0125  0.0000  0.0000  0.0000  0.0000  0.0000  0.0000 </r>
       </set>
       <set comment="band 8">
        <r>  0.0000  0.1620  0.0027  0.0000  0.0000  0.0000  0.0000  0.0000  0.0000 </r>
        <r>  0.0000  0.0125  0.1522  0.0000  0.0000  0.0000  0.0000  0.0000  0.0000 </r>
       </set>
      </set>
      <set comment="kpoint 13">
       <set comment="band 1">
        <r>  0.2034  0.0000  0.0000  0.0226  0.0000  0.0000  0.0000  0.0000  0.0000 </r>
        <r>  0.2034  0.0000  0.0000  0.0226  0.0000  0.0000  0.0000  0.0000  0.0000 </r>
       </set>
       <set comment="band 2">
        <r>  0.1765  0.0000  0.0000  0.0763  0.0000  0.0000  0.0000  0.0000  0.0000 </r>
        <r>  0.1765  0.0000  0.0000  0.0763  0.0000  0.0000  0.0000  0.0000  0.0000 </r>
       </set>
       <set comment="band 3">
        <r>  0.0000  0.1024  0.0960  0.0000  0.0000  0.0000  0.0000  0.0000  0.0000 </r>
        <r>  0.0000  0.0960  0.1025  0.0000  0.0000  0.0000  0.0000  0.0000  0.0000 </r>
       </set>
       <set comment="band 4">
        <r>  0.0000  0.0960  0.1024  0.0000  0.0000  0.0000  0.0000  0.0000  0.0000 </r>
        <r>  0.0000  0.1025  0.0960  0.0000  0.0000  0.0000  0.0000  0.0000  0.0000 </r>
       </set>
       <set comment="band 5">
        <r>  0.0515  0.0000  0.0000  0.0554  0.0000  0.0000  0.0000  0.0000  0.0000 </r>
        <r>  0.0515  0.0000  0.0000  0.0554  0.0000  0.0000  0.0000  0.0000  0.0000 </r>
       </set>
       <set comment="band 6">
        <r>  0.0439  0.0000  0.0000  0.0306  0.0000  0.0000  0.0000  0.0000  0.0000 </r>
        <r>  0.0439  0.0000  0.0000  0.0306  0.0000  0.0000  0.0000  0.0000  0.0000 </r>
       </set>
       <set comment="band 7">
        <r>  0.0000  0.0431  0.1218  0.0000  0.0000  0.0000  0.0000  0.0000  0.0000 </r>
        <r>  0.0000  0.1202  0.0448  0.0000  0.0000  0.0000  0.0000  0.0000  0.0000 </r>
       </set>
       <set comment="band 8">
        <r>  0.0000  0.1217  0.0431  0.0000  0.0000  0.0000  0.0000  0.0000  0.0000 </r>
        <r>  0.0000  0.0447  0.1201  0.0000  0.0000  0.0000  0.0000  0.0000  0.0000 </r>
       </set>
      </set>
      <set comment="kpoint 14">
       <set comment="band 1">
        <r>  0.2041  0.0000  0.0000  0.0210  0.0000  0.0000  0.0000  0.0000  0.0000 </r>
        <r>  0.2041  0.0000  0.0000  0.0210  0.0000  0.0000  0.0000  0.0000  0.0000 </r>
       </set>
       <set comment="band 2">
        <r>  0.1743  0.0000  0.0000  0.0793  0.0000  0.0000  0.0000  0.0000  0.0000 </r>
        <r>  0.1743  0.0000  0.0000  0.0793  0.0000  0.0000  0.0000  0.0000  0.0000 </r>
       </set>
       <set comment="band 3">
        <r>  0.0000  0.1024  0.0961  0.0000  0.0000  0.0000  0.0000  0.0000  0.0000 </r>
        <r>  0.0000  0.0961  0.1025  0.0000  0.0000  0.0000  0.0000  0.0000  0.0000 </r>
       </set>
       <set comment="band 4">
        <r>  0.0000  0.0961  0.1024  0.0000  0.0000  0.0000  0.0000  0.0000  0.0000 </r>
        <r>  0.0000  0.1025  0.0961  0.0000  0.0000  0.0000  0.0000  0.0000  0.0000 </r>
       </set>
       <set comment="band 5">
        <r>  0.0508  0.0000  0.0000  0.0578  0.0000  0.0000  0.0000  0.0000  0.0000 </r>
        <r>  0.0508  0.0000  0.0000  0.0578  0.0000  0.0000  0.0000  0.0000  0.0000 </r>
       </set>
       <set comment="band 6">
        <r>  0.0435  0.0000  0.0000  0.0310  0.0000  0.0000  0.0000  0.0000  0.0000 </r>
        <r>  0.0435  0.0000  0.0000  0.0310  0.0000  0.0000  0.0000  0.0000  0.0000 </r>
       </set>
       <set comment="band 7">
        <r>  0.0000  0.1505  0.0147  0.0000  0.0000  0.0000  0.0000  0.0000  0.0000 </r>
        <r>  0.0000  0.0385  0.1267  0.0000  0.0000  0.0000  0.0000  0.0000  0.0000 </r>
       </set>
       <set comment="band 8">
        <r>  0.0000  0.0147  0.1504  0.0000  0.0000  0.0000  0.0000  0.0000  0.0000 </r>
        <r>  0.0000  0.1267  0.0385  0.0000  0.0000  0.0000  0.0000  0.0000  0.0000 </r>
       </set>
      </set>
      <set comment="kpoint 15">
       <set comment="band 1">
        <r>  0.2048  0.0000  0.0000  0.0195  0.0000  0.0000  0.0000  0.0000  0.0000 </r>
        <r>  0.2048  0.0000  0.0000  0.0195  0.0000  0.0000  0.0000  0.0000  0.0000 </r>
       </set>
       <set comment="band 2">
        <r>  0.1720  0.0000  0.0000  0.0823  0.0000  0.0000  0.0000  0.0000  0.0000 </r>
        <r>  0.1720  0.0000  0.0000  0.0823  0.0000  0.0000  0.0000  0.0000  0.0000 </r>
       </set>
       <set comment="band 3">
        <r>  0.0000  0.1024  0.0962  0.0000  0.0000  0.0000  0.0000  0.0000  0.0000 </r>
        <r>  0.0000  0.0961  0.1025  0.0000  0.0000  0.0000  0.0000  0.0000  0.0000 </r>
       </set>
       <set comment="band 4">
        <r>  0.0000  0.0962  0.1024  0.0000  0.0000  0.0000  0.0000  0.0000  0.0000 </r>
        <r>  0.0000  0.1025  0.0961  0.0000  0.0000  0.0000  0.0000  0.0000  0.0000 </r>
       </set>
       <set comment="band 5">
        <r>  0.0499  0.0000  0.0000  0.0604  0.0000  0.0000  0.0000  0.0000  0.0000 </r>
        <r>  0.0499  0.0000  0.0000  0.0604  0.0000  0.0000  0.0000  0.0000  0.0000 </r>
       </set>
       <set comment="band 6">
        <r>  0.0434  0.0000  0.0000  0.0315  0.0000  0.0000  0.0000  0.0000  0.0000 </r>
        <r>  0.0434  0.0000  0.0000  0.0315  0.0000  0.0000  0.0000  0.0000  0.0000 </r>
       </set>
       <set comment="band 7">
        <r>  0.0000  0.1035  0.0620  0.0000  0.0000  0.0000  0.0000  0.0000  0.0000 </r>
        <r>  0.0000  0.0881  0.0775  0.0000  0.0000  0.0000  0.0000  0.0000  0.0000 </r>
       </set>
       <set comment="band 8">
        <r>  0.0000  0.0620  0.1035  0.0000  0.0000  0.0000  0.0000  0.0000  0.0000 </r>
        <r>  0.0000  0.0775  0.0881  0.0000  0.0000  0.0000  0.0000  0.0000  0.0000 </r>
       </set>
      </set>
      <set comment="kpoint 16">
       <set comment="band 1">
        <r>  0.2055  0.0000  0.0000  0.0180  0.0000  0.0000  0.0000  0.0000  0.0000 </r>
        <r>  0.2055  0.0000  0.0000  0.0180  0.0000  0.0000  0.0000  0.0000  0.0000 </r>
       </set>
       <set comment="band 2">
        <r>  0.1695  0.0000  0.0000  0.0854  0.0000  0.0000  0.0000  0.0000  0.0000 </r>
        <r>  0.1695  0.0000  0.0000  0.0854  0.0000  0.0000  0.0000  0.0000  0.0000 </r>
       </set>
       <set comment="band 3">
        <r>  0.0000  0.1024  0.0962  0.0000  0.0000  0.0000  0.0000  0.0000  0.0000 </r>
        <r>  0.0000  0.0962  0.1025  0.0000  0.0000  0.0000  0.0000  0.0000  0.0000 </r>
       </set>
       <set comment="band 4">
        <r>  0.0000  0.0962  0.1024  0.0000  0.0000  0.0000  0.0000  0.0000  0.0000 </r>
        <r>  0.0000  0.1025  0.0962  0.0000  0.0000  0.0000  0.0000  0.0000  0.0000 </r>
       </set>
       <set comment="band 5">
        <r>  0.0489  0.0000  0.0000  0.0631  0.0000  0.0000  0.0000  0.0000  0.0000 </r>
        <r>  0.0489  0.0000  0.0000  0.0631  0.0000  0.0000  0.0000  0.0000  0.0000 </r>
       </set>
       <set comment="band 6">
        <r>  0.0434  0.0000  0.0000  0.0322  0.0000  0.0000  0.0000  0.0000  0.0000 </r>
        <r>  0.0434  0.0000  0.0000  0.0322  0.0000  0.0000  0.0000  0.0000  0.0000 </r>
       </set>
       <set comment="band 7">
        <r>  0.0000  0.0818  0.0841  0.0000  0.0000  0.0000  0.0000  0.0000  0.0000 </r>
        <r>  0.0000  0.0856  0.0803  0.0000  0.0000  0.0000  0.0000  0.0000  0.0000 </r>
       </set>
       <set comment="band 8">
        <r>  0.0000  0.0841  0.0818  0.0000  0.0000  0.0000  0.0000  0.0000  0.0000 </r>
        <r>  0.0000  0.0803  0.0856  0.0000  0.0000  0.0000  0.0000  0.0000  0.0000 </r>
       </set>
      </set>
      <set comment="kpoint 17">
       <set comment="band 1">
        <r>  0.2061  0.0000  0.0000  0.0166  0.0000  0.0000  0.0000  0.0000  0.0000 </r>
        <r>  0.2061  0.0000  0.0000  0.0166  0.0000  0.0000  0.0000  0.0000  0.0000 </r>
       </set>
       <set comment="band 2">
        <r>  0.1667  0.0000  0.0000  0.0885  0.0000  0.0000  0.0000  0.0000  0.0000 </r>
        <r>  0.1667  0.0000  0.0000  0.0885  0.0000  0.0000  0.0000  0.0000  0.0000 </r>
       </set>
       <set comment="band 3">
        <r>  0.0000  0.1024  0.0963  0.0000  0.0000  0.0000  0.0000  0.0000  0.0000 </r>
        <r>  0.0000  0.0963  0.1025  0.0000  0.0000  0.0000  0.0000  0.0000  0.0000 </r>
       </set>
       <set comment="band 4">
        <r>  0.0000  0.0963  0.1024  0.0000  0.0000  0.0000  0.0000  0.0000  0.0000 </r>
        <r>  0.0000  0.1025  0.0963  0.0000  0.0000  0.0000  0.0000  0.0000  0.0000 </r>
       </set>
       <set comment="band 5">
        <r>  0.0478  0.0000  0.0000  0.0660  0.0000  0.0000  0.0000  0.0000  0.0000 </r>
        <r>  0.0478  0.0000  0.0000  0.0660  0.0000  0.0000  0.0000  0.0000  0.0000 </r>
       </set>
       <set comment="band 6">
        <r>  0.0438  0.0000  0.0000  0.0331  0.0000  0.0000  0.0000  0.0000  0.0000 </r>
        <r>  0.0438  0.0000  0.0000  0.0331  0.0000  0.0000  0.0000  0.0000  0.0000 </r>
       </set>
       <set comment="band 7">
        <r>  0.0000  0.1112  0.0551  0.0000  0.0000  0.0000  0.0000  0.0000  0.0000 </r>
        <r>  0.0000  0.0820  0.0843  0.0000  0.0000  0.0000  0.0000  0.0000  0.0000 </r>
       </set>
       <set comment="band 8">
        <r>  0.0000  0.0551  0.1112  0.0000  0.0000  0.0000  0.0000  0.0000  0.0000 </r>
        <r>  0.0000  0.0843  0.0820  0.0000  0.0000  0.0000  0.0000  0.0000  0.0000 </r>
       </set>
      </set>
      <set comment="kpoint 18">
       <set comment="band 1">
        <r>  0.2067  0.0000  0.0000  0.0152  0.0000  0.0000  0.0000  0.0000  0.0000 </r>
        <r>  0.2067  0.0000  0.0000  0.0152  0.0000  0.0000  0.0000  0.0000  0.0000 </r>
       </set>
       <set comment="band 2">
        <r>  0.1637  0.0000  0.0000  0.0918  0.0000  0.0000  0.0000  0.0000  0.0000 </r>
        <r>  0.1637  0.0000  0.0000  0.0918  0.0000  0.0000  0.0000  0.0000  0.0000 </r>
       </set>
       <set comment="band 3">
        <r>  0.0000  0.1024  0.0964  0.0000  0.0000  0.0000  0.0000  0.0000  0.0000 </r>
        <r>  0.0000  0.0963  0.1025  0.0000  0.0000  0.0000  0.0000  0.0000  0.0000 </r>
       </set>
       <set comment="band 4">
        <r>  0.0000  0.0964  0.1024  0.0000  0.0000  0.0000  0.0000  0.0000  0.0000 </r>
        <r>  0.0000  0.1025  0.0963  0.0000  0.0000  0.0000  0.0000  0.0000  0.0000 </r>
       </set>
       <set comment="band 5">
        <r>  0.0466  0.0000  0.0000  0.0690  0.0000  0.0000  0.0000  0.0000  0.0000 </r>
        <r>  0.0466  0.0000  0.0000  0.0690  0.0000  0.0000  0.0000  0.0000  0.0000 </r>
       </set>
       <set comment="band 6">
        <r>  0.0445  0.0000  0.0000  0.0342  0.0000  0.0000  0.0000  0.0000  0.0000 </r>
        <r>  0.0445  0.0000  0.0000  0.0342  0.0000  0.0000  0.0000  0.0000  0.0000 </r>
       </set>
       <set comment="band 7">
        <r>  0.0000  0.0542  0.1124  0.0000  0.0000  0.0000  0.0000  0.0000  0.0000 </r>
        <r>  0.0000  0.1000  0.0667  0.0000  0.0000  0.0000  0.0000  0.0000  0.0000 </r>
       </set>
       <set comment="band 8">
        <r>  0.0000  0.1124  0.0542  0.0000  0.0000  0.0000  0.0000  0.0000  0.0000 </r>
        <r>  0.0000  0.0667  0.1000  0.0000  0.0000  0.0000  0.0000  0.0000  0.0000 </r>
       </set>
      </set>
      <set comment="kpoint 19">
       <set comment="band 1">
        <r>  0.2073  0.0000  0.0000  0.0138  0.0000  0.0000  0.0000  0.0000  0.0000 </r>
        <r>  0.2073  0.0000  0.0000  0.0138  0.0000  0.0000  0.0000  0.0000  0.0000 </r>
       </set>
       <set comment="band 2">
        <r>  0.1605  0.0000  0.0000  0.0952  0.0000  0.0000  0.0000  0.0000  0.0000 </r>
        <r>  0.1605  0.0000  0.0000  0.0952  0.0000  0.0000  0.0000  0.0000  0.0000 </r>
       </set>
       <set comment="band 3">
        <r>  0.0000  0.1025  0.0965  0.0000  0.0000  0.0000  0.0000  0.0000  0.0000 </r>
        <r>  0.0000  0.0964  0.1026  0.0000  0.0000  0.0000  0.0000  0.0000  0.0000 </r>
       </set>
       <set comment="band 4">
        <r>  0.0000  0.0965  0.1025  0.0000  0.0000  0.0000  0.0000  0.0000  0.0000 </r>
        <r>  0.0000  0.1026  0.0964  0.0000  0.0000  0.0000  0.0000  0.0000  0.0000 </r>
       </set>
       <set comment="band 5">
        <r>  0.0453  0.0000  0.0000  0.0722  0.0000  0.0000  0.0000  0.0000  0.0000 </r>
        <r>  0.0453  0.0000  0.0000  0.0722  0.0000  0.0000  0.0000  0.0000  0.0000 </r>
       </set>
       <set comment="band 6">
        <r>  0.0456  0.0000  0.0000  0.0355  0.0000  0.0000  0.0000  0.0000  0.0000 </r>
        <r>  0.0456  0.0000  0.0000  0.0355  0.0000  0.0000  0.0000  0.0000  0.0000 </r>
       </set>
       <set comment="band 7">
        <r>  0.0000  0.0423  0.1242  0.0000  0.0000  0.0000  0.0000  0.0000  0.0000 </r>
        <r>  0.0000  0.1047  0.0619  0.0000  0.0000  0.0000  0.0000  0.0000  0.0000 </r>
       </set>
       <set comment="band 8">
        <r>  0.0000  0.1242  0.0423  0.0000  0.0000  0.0000  0.0000  0.0000  0.0000 </r>
        <r>  0.0000  0.0619  0.1047  0.0000  0.0000  0.0000  0.0000  0.0000  0.0000 </r>
       </set>
      </set>
      <set comment="kpoint 20">
       <set comment="band 1">
        <r>  0.2078  0.0000  0.0000  0.0125  0.0000  0.0000  0.0000  0.0000  0.0000 </r>
        <r>  0.2078  0.0000  0.0000  0.0125  0.0000  0.0000  0.0000  0.0000  0.0000 </r>
       </set>
       <set comment="band 2">
        <r>  0.1570  0.0000  0.0000  0.0988  0.0000  0.0000  0.0000  0.0000  0.0000 </r>
        <r>  0.1570  0.0000  0.0000  0.0988  0.0000  0.0000  0.0000  0.0000  0.0000 </r>
       </set>
       <set comment="band 3">
        <r>  0.0000  0.1025  0.0967  0.0000  0.0000  0.0000  0.0000  0.0000  0.0000 </r>
        <r>  0.0000  0.0966  0.1026  0.0000  0.0000  0.0000  0.0000  0.0000  0.0000 </r>
       </set>
       <set comment="band 4">
        <r>  0.0000  0.0967  0.1025  0.0000  0.0000  0.0000  0.0000  0.0000  0.0000 </r>
        <r>  0.0000  0.1026  0.0966  0.0000  0.0000  0.0000  0.0000  0.0000  0.0000 </r>
       </set>
       <set comment="band 5">
        <r>  0.0438  0.0000  0.0000  0.0753  0.0000  0.0000  0.0000  0.0000  0.0000 </r>
        <r>  0.0438  0.0000  0.0000  0.0753  0.0000  0.0000  0.0000  0.0000  0.0000 </r>
       </set>
       <set comment="band 6">
        <r>  0.0474  0.0000  0.0000  0.0371  0.0000  0.0000  0.0000  0.0000  0.0000 </r>
        <r>  0.0474  0.0000  0.0000  0.0371  0.0000  0.0000  0.0000  0.0000  0.0000 </r>
       </set>
       <set comment="band 7">
        <r>  0.0000  0.0576  0.1090  0.0000  0.0000  0.0000  0.0000  0.0000  0.0000 </r>
        <r>  0.0000  0.1192  0.0474  0.0000  0.0000  0.0000  0.0000  0.0000  0.0000 </r>
       </set>
       <set comment="band 8">
        <r>  0.0000  0.1091  0.0576  0.0000  0.0000  0.0000  0.0000  0.0000  0.0000 </r>
        <r>  0.0000  0.0474  0.1193  0.0000  0.0000  0.0000  0.0000  0.0000  0.0000 </r>
       </set>
      </set>
      <set comment="kpoint 21">
       <set comment="band 1">
        <r>  0.2083  0.0000  0.0000  0.0113  0.0000  0.0000  0.0000  0.0000  0.0000 </r>
        <r>  0.2083  0.0000  0.0000  0.0113  0.0000  0.0000  0.0000  0.0000  0.0000 </r>
       </set>
       <set comment="band 2">
        <r>  0.1531  0.0000  0.0000  0.1024  0.0000  0.0000  0.0000  0.0000  0.0000 </r>
        <r>  0.1531  0.0000  0.0000  0.1024  0.0000  0.0000  0.0000  0.0000  0.0000 </r>
       </set>
       <set comment="band 3">
        <r>  0.0000  0.1026  0.0969  0.0000  0.0000  0.0000  0.0000  0.0000  0.0000 </r>
        <r>  0.0000  0.0967  0.1027  0.0000  0.0000  0.0000  0.0000  0.0000  0.0000 </r>
       </set>
       <set comment="band 4">
        <r>  0.0000  0.0969  0.1026  0.0000  0.0000  0.0000  0.0000  0.0000  0.0000 </r>
        <r>  0.0000  0.1027  0.0967  0.0000  0.0000  0.0000  0.0000  0.0000  0.0000 </r>
       </set>
       <set comment="band 5">
        <r>  0.0422  0.0000  0.0000  0.0788  0.0000  0.0000  0.0000  0.0000  0.0000 </r>
        <r>  0.0422  0.0000  0.0000  0.0788  0.0000  0.0000  0.0000  0.0000  0.0000 </r>
       </set>
       <set comment="band 6">
        <r>  0.0501  0.0000  0.0000  0.0391  0.0000  0.0000  0.0000  0.0000  0.0000 </r>
        <r>  0.0501  0.0000  0.0000  0.0391  0.0000  0.0000  0.0000  0.0000  0.0000 </r>
       </set>
       <set comment="band 7">
        <r>  0.0000  0.0947  0.0721  0.0000  0.0000  0.0000  0.0000  0.0000  0.0000 </r>
        <r>  0.0000  0.0805  0.0863  0.0000  0.0000  0.0000  0.0000  0.0000  0.0000 </r>
       </set>
       <set comment="band 8">
        <r>  0.0000  0.0721  0.0947  0.0000  0.0000  0.0000  0.0000  0.0000  0.0000 </r>
        <r>  0.0000  0.0863  0.0805  0.0000  0.0000  0.0000  0.0000  0.0000  0.0000 </r>
       </set>
      </set>
      <set comment="kpoint 22">
       <set comment="band 1">
        <r>  0.2088  0.0000  0.0000  0.0102  0.0000  0.0000  0.0000  0.0000  0.0000 </r>
        <r>  0.2088  0.0000  0.0000  0.0102  0.0000  0.0000  0.0000  0.0000  0.0000 </r>
       </set>
       <set comment="band 2">
        <r>  0.1490  0.0000  0.0000  0.1063  0.0000  0.0000  0.0000  0.0000  0.0000 </r>
        <r>  0.1490  0.0000  0.0000  0.1063  0.0000  0.0000  0.0000  0.0000  0.0000 </r>
       </set>
       <set comment="band 3">
        <r>  0.0000  0.1026  0.0971  0.0000  0.0000  0.0000  0.0000  0.0000  0.0000 </r>
        <r>  0.0000  0.0969  0.1028  0.0000  0.0000  0.0000  0.0000  0.0000  0.0000 </r>
       </set>
       <set comment="band 4">
        <r>  0.0000  0.0971  0.1026  0.0000  0.0000  0.0000  0.0000  0.0000  0.0000 </r>
        <r>  0.0000  0.1028  0.0969  0.0000  0.0000  0.0000  0.0000  0.0000  0.0000 </r>
       </set>
       <set comment="band 5">
        <r>  0.0404  0.0000  0.0000  0.0825  0.0000  0.0000  0.0000  0.0000  0.0000 </r>
        <r>  0.0404  0.0000  0.0000  0.0825  0.0000  0.0000  0.0000  0.0000  0.0000 </r>
       </set>
       <set comment="band 6">
        <r>  0.0539  0.0000  0.0000  0.0416  0.0000  0.0000  0.0000  0.0000  0.0000 </r>
        <r>  0.0539  0.0000  0.0000  0.0416  0.0000  0.0000  0.0000  0.0000  0.0000 </r>
       </set>
       <set comment="band 7">
        <r>  0.0000  0.0089  0.1579  0.0000  0.0000  0.0000  0.0000  0.0000  0.0000 </r>
        <r>  0.0000  0.1573  0.0095  0.0000  0.0000  0.0000  0.0000  0.0000  0.0000 </r>
       </set>
       <set comment="band 8">
        <r>  0.0000  0.1579  0.0089  0.0000  0.0000  0.0000  0.0000  0.0000  0.0000 </r>
        <r>  0.0000  0.0095  0.1573  0.0000  0.0000  0.0000  0.0000  0.0000  0.0000 </r>
       </set>
      </set>
      <set comment="kpoint 23">
       <set comment="band 1">
        <r>  0.2093  0.0000  0.0000  0.0091  0.0000  0.0000  0.0000  0.0000  0.0000 </r>
        <r>  0.2093  0.0000  0.0000  0.0091  0.0000  0.0000  0.0000  0.0000  0.0000 </r>
       </set>
       <set comment="band 2">
        <r>  0.1445  0.0000  0.0000  0.1103  0.0000  0.0000  0.0000  0.0000  0.0000 </r>
        <r>  0.1445  0.0000  0.0000  0.1103  0.0000  0.0000  0.0000  0.0000  0.0000 </r>
       </set>
       <set comment="band 3">
        <r>  0.0000  0.1027  0.0973  0.0000  0.0000  0.0000  0.0000  0.0000  0.0000 </r>
        <r>  0.0000  0.0971  0.1029  0.0000  0.0000  0.0000  0.0000  0.0000  0.0000 </r>
       </set>
       <set comment="band 4">
        <r>  0.0000  0.0973  0.1027  0.0000  0.0000  0.0000  0.0000  0.0000  0.0000 </r>
        <r>  0.0000  0.1029  0.0971  0.0000  0.0000  0.0000  0.0000  0.0000  0.0000 </r>
       </set>
       <set comment="band 5">
        <r>  0.0385  0.0000  0.0000  0.0863  0.0000  0.0000  0.0000  0.0000  0.0000 </r>
        <r>  0.0385  0.0000  0.0000  0.0863  0.0000  0.0000  0.0000  0.0000  0.0000 </r>
       </set>
       <set comment="band 6">
        <r>  0.0594  0.0000  0.0000  0.0446  0.0000  0.0000  0.0000  0.0000  0.0000 </r>
        <r>  0.0594  0.0000  0.0000  0.0446  0.0000  0.0000  0.0000  0.0000  0.0000 </r>
       </set>
       <set comment="band 7">
        <r>  0.0000  0.0245  0.1424  0.0000  0.0000  0.0000  0.0000  0.0000  0.0000 </r>
        <r>  0.0000  0.1428  0.0241  0.0000  0.0000  0.0000  0.0000  0.0000  0.0000 </r>
       </set>
       <set comment="band 8">
        <r>  0.0000  0.1424  0.0245  0.0000  0.0000  0.0000  0.0000  0.0000  0.0000 </r>
        <r>  0.0000  0.0241  0.1428  0.0000  0.0000  0.0000  0.0000  0.0000  0.0000 </r>
       </set>
      </set>
      <set comment="kpoint 24">
       <set comment="band 1">
        <r>  0.2098  0.0000  0.0000  0.0081  0.0000  0.0000  0.0000  0.0000  0.0000 </r>
        <r>  0.2098  0.0000  0.0000  0.0081  0.0000  0.0000  0.0000  0.0000  0.0000 </r>
       </set>
       <set comment="band 2">
        <r>  0.1395  0.0000  0.0000  0.1146  0.0000  0.0000  0.0000  0.0000  0.0000 </r>
        <r>  0.1395  0.0000  0.0000  0.1146  0.0000  0.0000  0.0000  0.0000  0.0000 </r>
       </set>
       <set comment="band 3">
        <r>  0.0000  0.1028  0.0976  0.0000  0.0000  0.0000  0.0000  0.0000  0.0000 </r>
        <r>  0.0000  0.0973  0.1030  0.0000  0.0000  0.0000  0.0000  0.0000  0.0000 </r>
       </set>
       <set comment="band 4">
        <r>  0.0000  0.0976  0.1028  0.0000  0.0000  0.0000  0.0000  0.0000  0.0000 </r>
        <r>  0.0000  0.1030  0.0973  0.0000  0.0000  0.0000  0.0000  0.0000  0.0000 </r>
       </set>
       <set comment="band 5">
        <r>  0.0364  0.0000  0.0000  0.0902  0.0000  0.0000  0.0000  0.0000  0.0000 </r>
        <r>  0.0364  0.0000  0.0000  0.0902  0.0000  0.0000  0.0000  0.0000  0.0000 </r>
       </set>
       <set comment="band 6">
        <r>  0.0672  0.0000  0.0000  0.0483  0.0000  0.0000  0.0000  0.0000  0.0000 </r>
        <r>  0.0672  0.0000  0.0000  0.0483  0.0000  0.0000  0.0000  0.0000  0.0000 </r>
       </set>
       <set comment="band 7">
        <r>  0.0000  0.0625  0.1043  0.0000  0.0000  0.0000  0.0000  0.0000  0.0000 </r>
        <r>  0.0000  0.1084  0.0584  0.0000  0.0000  0.0000  0.0000  0.0000  0.0000 </r>
       </set>
       <set comment="band 8">
        <r>  0.0000  0.1043  0.0625  0.0000  0.0000  0.0000  0.0000  0.0000  0.0000 </r>
        <r>  0.0000  0.0584  0.1084  0.0000  0.0000  0.0000  0.0000  0.0000  0.0000 </r>
       </set>
      </set>
      <set comment="kpoint 25">
       <set comment="band 1">
        <r>  0.2103  0.0000  0.0000  0.0071  0.0000  0.0000  0.0000  0.0000  0.0000 </r>
        <r>  0.2103  0.0000  0.0000  0.0071  0.0000  0.0000  0.0000  0.0000  0.0000 </r>
       </set>
       <set comment="band 2">
        <r>  0.1342  0.0000  0.0000  0.1191  0.0000  0.0000  0.0000  0.0000  0.0000 </r>
        <r>  0.1342  0.0000  0.0000  0.1191  0.0000  0.0000  0.0000  0.0000  0.0000 </r>
       </set>
       <set comment="band 3">
        <r>  0.0000  0.1029  0.0979  0.0000  0.0000  0.0000  0.0000  0.0000  0.0000 </r>
        <r>  0.0000  0.0976  0.1032  0.0000  0.0000  0.0000  0.0000  0.0000  0.0000 </r>
       </set>
       <set comment="band 4">
        <r>  0.0000  0.0979  0.1029  0.0000  0.0000  0.0000  0.0000  0.0000  0.0000 </r>
        <r>  0.0000  0.1032  0.0976  0.0000  0.0000  0.0000  0.0000  0.0000  0.0000 </r>
       </set>
       <set comment="band 5">
        <r>  0.0342  0.0000  0.0000  0.0944  0.0000  0.0000  0.0000  0.0000  0.0000 </r>
        <r>  0.0342  0.0000  0.0000  0.0944  0.0000  0.0000  0.0000  0.0000  0.0000 </r>
       </set>
       <set comment="band 6">
        <r>  0.0783  0.0000  0.0000  0.0528  0.0000  0.0000  0.0000  0.0000  0.0000 </r>
        <r>  0.0783  0.0000  0.0000  0.0528  0.0000  0.0000  0.0000  0.0000  0.0000 </r>
       </set>
       <set comment="band 7">
        <r>  0.0000  0.1101  0.0565  0.0000  0.0000  0.0000  0.0000  0.0000  0.0000 </r>
        <r>  0.0000  0.0563  0.1103  0.0000  0.0000  0.0000  0.0000  0.0000  0.0000 </r>
       </set>
       <set comment="band 8">
        <r>  0.0000  0.0565  0.1101  0.0000  0.0000  0.0000  0.0000  0.0000  0.0000 </r>
        <r>  0.0000  0.1103  0.0563  0.0000  0.0000  0.0000  0.0000  0.0000  0.0000 </r>
       </set>
      </set>
      <set comment="kpoint 26">
       <set comment="band 1">
        <r>  0.2107  0.0000  0.0000  0.0062  0.0000  0.0000  0.0000  0.0000  0.0000 </r>
        <r>  0.2107  0.0000  0.0000  0.0062  0.0000  0.0000  0.0000  0.0000  0.0000 </r>
       </set>
       <set comment="band 2">
        <r>  0.1283  0.0000  0.0000  0.1238  0.0000  0.0000  0.0000  0.0000  0.0000 </r>
        <r>  0.1283  0.0000  0.0000  0.1238  0.0000  0.0000  0.0000  0.0000  0.0000 </r>
       </set>
       <set comment="band 3">
        <r>  0.0000  0.1030  0.0983  0.0000  0.0000  0.0000  0.0000  0.0000  0.0000 </r>
        <r>  0.0000  0.0979  0.1034  0.0000  0.0000  0.0000  0.0000  0.0000  0.0000 </r>
       </set>
       <set comment="band 4">
        <r>  0.0000  0.0983  0.1030  0.0000  0.0000  0.0000  0.0000  0.0000  0.0000 </r>
        <r>  0.0000  0.1034  0.0979  0.0000  0.0000  0.0000  0.0000  0.0000  0.0000 </r>
       </set>
       <set comment="band 5">
        <r>  0.0319  0.0000  0.0000  0.0987  0.0000  0.0000  0.0000  0.0000  0.0000 </r>
        <r>  0.0319  0.0000  0.0000  0.0987  0.0000  0.0000  0.0000  0.0000  0.0000 </r>
       </set>
       <set comment="band 6">
        <r>  0.0940  0.0000  0.0000  0.0583  0.0000  0.0000  0.0000  0.0000  0.0000 </r>
        <r>  0.0940  0.0000  0.0000  0.0583  0.0000  0.0000  0.0000  0.0000  0.0000 </r>
       </set>
       <set comment="band 7">
        <r>  0.0000  0.0691  0.0972  0.0000  0.0000  0.0000  0.0000  0.0000  0.0000 </r>
        <r>  0.0000  0.0942  0.0721  0.0000  0.0000  0.0000  0.0000  0.0000  0.0000 </r>
       </set>
       <set comment="band 8">
        <r>  0.0000  0.0972  0.0691  0.0000  0.0000  0.0000  0.0000  0.0000  0.0000 </r>
        <r>  0.0000  0.0721  0.0942  0.0000  0.0000  0.0000  0.0000  0.0000  0.0000 </r>
       </set>
      </set>
      <set comment="kpoint 27">
       <set comment="band 1">
        <r>  0.2111  0.0000  0.0000  0.0054  0.0000  0.0000  0.0000  0.0000  0.0000 </r>
        <r>  0.2111  0.0000  0.0000  0.0054  0.0000  0.0000  0.0000  0.0000  0.0000 </r>
       </set>
       <set comment="band 2">
        <r>  0.1219  0.0000  0.0000  0.1292  0.0000  0.0000  0.0000  0.0000  0.0000 </r>
        <r>  0.1219  0.0000  0.0000  0.1292  0.0000  0.0000  0.0000  0.0000  0.0000 </r>
       </set>
       <set comment="band 3">
        <r>  0.0000  0.1032  0.0988  0.0000  0.0000  0.0000  0.0000  0.0000  0.0000 </r>
        <r>  0.0000  0.0983  0.1037  0.0000  0.0000  0.0000  0.0000  0.0000  0.0000 </r>
       </set>
       <set comment="band 4">
        <r>  0.0000  0.0988  0.1032  0.0000  0.0000  0.0000  0.0000  0.0000  0.0000 </r>
        <r>  0.0000  0.1037  0.0983  0.0000  0.0000  0.0000  0.0000  0.0000  0.0000 </r>
       </set>
       <set comment="band 5">
        <r>  0.0294  0.0000  0.0000  0.1032  0.0000  0.0000  0.0000  0.0000  0.0000 </r>
        <r>  0.0294  0.0000  0.0000  0.1032  0.0000  0.0000  0.0000  0.0000  0.0000 </r>
       </set>
       <set comment="band 6">
        <r>  0.1161  0.0000  0.0000  0.0650  0.0000  0.0000  0.0000  0.0000  0.0000 </r>
        <r>  0.1161  0.0000  0.0000  0.0650  0.0000  0.0000  0.0000  0.0000  0.0000 </r>
       </set>
       <set comment="band 7">
        <r>  0.0000  0.0619  0.1040  0.0000  0.0000  0.0000  0.0000  0.0000  0.0000 </r>
        <r>  0.0000  0.1159  0.0500  0.0000  0.0000  0.0000  0.0000  0.0000  0.0000 </r>
       </set>
       <set comment="band 8">
        <r>  0.0000  0.1040  0.0619  0.0000  0.0000  0.0000  0.0000  0.0000  0.0000 </r>
        <r>  0.0000  0.0500  0.1159  0.0000  0.0000  0.0000  0.0000  0.0000  0.0000 </r>
       </set>
      </set>
      <set comment="kpoint 28">
       <set comment="band 1">
        <r>  0.2114  0.0000  0.0000  0.0046  0.0000  0.0000  0.0000  0.0000  0.0000 </r>
        <r>  0.2114  0.0000  0.0000  0.0046  0.0000  0.0000  0.0000  0.0000  0.0000 </r>
       </set>
       <set comment="band 2">
        <r>  0.1148  0.0000  0.0000  0.1347  0.0000  0.0000  0.0000  0.0000  0.0000 </r>
        <r>  0.1148  0.0000  0.0000  0.1347  0.0000  0.0000  0.0000  0.0000  0.0000 </r>
       </set>
       <set comment="band 3">
        <r>  0.0000  0.1034  0.0992  0.0000  0.0000  0.0000  0.0000  0.0000  0.0000 </r>
        <r>  0.0000  0.0987  0.1039  0.0000  0.0000  0.0000  0.0000  0.0000  0.0000 </r>
       </set>
       <set comment="band 4">
        <r>  0.0000  0.0992  0.1034  0.0000  0.0000  0.0000  0.0000  0.0000  0.0000 </r>
        <r>  0.0000  0.1039  0.0987  0.0000  0.0000  0.0000  0.0000  0.0000  0.0000 </r>
       </set>
       <set comment="band 5">
        <r>  0.0267  0.0000  0.0000  0.1077  0.0000  0.0000  0.0000  0.0000  0.0000 </r>
        <r>  0.0267  0.0000  0.0000  0.1077  0.0000  0.0000  0.0000  0.0000  0.0000 </r>
       </set>
       <set comment="band 6">
        <r>  0.0000  0.1650  0.0003  0.0000  0.0000  0.0000  0.0000  0.0000  0.0000 </r>
        <r>  0.0000  0.0094  0.1559  0.0000  0.0000  0.0000  0.0000  0.0000  0.0000 </r>
       </set>
       <set comment="band 7">
        <r>  0.0000  0.0003  0.1650  0.0000  0.0000  0.0000  0.0000  0.0000  0.0000 </r>
        <r>  0.0000  0.1559  0.0094  0.0000  0.0000  0.0000  0.0000  0.0000  0.0000 </r>
       </set>
       <set comment="band 8">
        <r>  0.1447  0.0000  0.0000  0.0711  0.0000  0.0000  0.0000  0.0000  0.0000 </r>
        <r>  0.1447  0.0000  0.0000  0.0711  0.0000  0.0000  0.0000  0.0000  0.0000 </r>
       </set>
      </set>
      <set comment="kpoint 29">
       <set comment="band 1">
        <r>  0.2118  0.0000  0.0000  0.0038  0.0000  0.0000  0.0000  0.0000  0.0000 </r>
        <r>  0.2118  0.0000  0.0000  0.0038  0.0000  0.0000  0.0000  0.0000  0.0000 </r>
       </set>
       <set comment="band 2">
        <r>  0.1071  0.0000  0.0000  0.1405  0.0000  0.0000  0.0000  0.0000  0.0000 </r>
        <r>  0.1071  0.0000  0.0000  0.1405  0.0000  0.0000  0.0000  0.0000  0.0000 </r>
       </set>
       <set comment="band 3">
        <r>  0.0000  0.1036  0.0999  0.0000  0.0000  0.0000  0.0000  0.0000  0.0000 </r>
        <r>  0.0000  0.0992  0.1042  0.0000  0.0000  0.0000  0.0000  0.0000  0.0000 </r>
       </set>
       <set comment="band 4">
        <r>  0.0000  0.0999  0.1036  0.0000  0.0000  0.0000  0.0000  0.0000  0.0000 </r>
        <r>  0.0000  0.1042  0.0992  0.0000  0.0000  0.0000  0.0000  0.0000  0.0000 </r>
       </set>
       <set comment="band 5">
        <r>  0.0240  0.0000  0.0000  0.1125  0.0000  0.0000  0.0000  0.0000  0.0000 </r>
        <r>  0.0240  0.0000  0.0000  0.1125  0.0000  0.0000  0.0000  0.0000  0.0000 </r>
       </set>
       <set comment="band 6">
        <r>  0.0000  0.0132  0.1514  0.0000  0.0000  0.0000  0.0000  0.0000  0.0000 </r>
        <r>  0.0000  0.1566  0.0080  0.0000  0.0000  0.0000  0.0000  0.0000  0.0000 </r>
       </set>
       <set comment="band 7">
        <r>  0.0000  0.1514  0.0132  0.0000  0.0000  0.0000  0.0000  0.0000  0.0000 </r>
        <r>  0.0000  0.0080  0.1566  0.0000  0.0000  0.0000  0.0000  0.0000  0.0000 </r>
       </set>
       <set comment="band 8">
        <r>  0.1778  0.0000  0.0000  0.0750  0.0000  0.0000  0.0000  0.0000  0.0000 </r>
        <r>  0.1778  0.0000  0.0000  0.0750  0.0000  0.0000  0.0000  0.0000  0.0000 </r>
       </set>
      </set>
      <set comment="kpoint 30">
       <set comment="band 1">
        <r>  0.2121  0.0000  0.0000  0.0032  0.0000  0.0000  0.0000  0.0000  0.0000 </r>
        <r>  0.2121  0.0000  0.0000  0.0032  0.0000  0.0000  0.0000  0.0000  0.0000 </r>
       </set>
       <set comment="band 2">
        <r>  0.0986  0.0000  0.0000  0.1468  0.0000  0.0000  0.0000  0.0000  0.0000 </r>
        <r>  0.0986  0.0000  0.0000  0.1468  0.0000  0.0000  0.0000  0.0000  0.0000 </r>
       </set>
       <set comment="band 3">
        <r>  0.0000  0.1038  0.1005  0.0000  0.0000  0.0000  0.0000  0.0000  0.0000 </r>
        <r>  0.0000  0.0997  0.1046  0.0000  0.0000  0.0000  0.0000  0.0000  0.0000 </r>
       </set>
       <set comment="band 4">
        <r>  0.0000  0.1005  0.1038  0.0000  0.0000  0.0000  0.0000  0.0000  0.0000 </r>
        <r>  0.0000  0.1046  0.0997  0.0000  0.0000  0.0000  0.0000  0.0000  0.0000 </r>
       </set>
       <set comment="band 5">
        <r>  0.0212  0.0000  0.0000  0.1173  0.0000  0.0000  0.0000  0.0000  0.0000 </r>
        <r>  0.0212  0.0000  0.0000  0.1173  0.0000  0.0000  0.0000  0.0000  0.0000 </r>
       </set>
       <set comment="band 6">
        <r>  0.0000  0.0148  0.1490  0.0000  0.0000  0.0000  0.0000  0.0000  0.0000 </r>
        <r>  0.0000  0.1151  0.0487  0.0000  0.0000  0.0000  0.0000  0.0000  0.0000 </r>
       </set>
       <set comment="band 7">
        <r>  0.0000  0.1490  0.0148  0.0000  0.0000  0.0000  0.0000  0.0000  0.0000 </r>
        <r>  0.0000  0.0487  0.1151  0.0000  0.0000  0.0000  0.0000  0.0000  0.0000 </r>
       </set>
       <set comment="band 8">
        <r>  0.2106  0.0000  0.0000  0.0751  0.0000  0.0000  0.0000  0.0000  0.0000 </r>
        <r>  0.2106  0.0000  0.0000  0.0751  0.0000  0.0000  0.0000  0.0000  0.0000 </r>
       </set>
      </set>
      <set comment="kpoint 31">
       <set comment="band 1">
        <r>  0.2124  0.0000  0.0000  0.0026  0.0000  0.0000  0.0000  0.0000  0.0000 </r>
        <r>  0.2124  0.0000  0.0000  0.0026  0.0000  0.0000  0.0000  0.0000  0.0000 </r>
       </set>
       <set comment="band 2">
        <r>  0.0893  0.0000  0.0000  0.1536  0.0000  0.0000  0.0000  0.0000  0.0000 </r>
        <r>  0.0893  0.0000  0.0000  0.1536  0.0000  0.0000  0.0000  0.0000  0.0000 </r>
       </set>
       <set comment="band 3">
        <r>  0.0000  0.1041  0.1013  0.0000  0.0000  0.0000  0.0000  0.0000  0.0000 </r>
        <r>  0.0000  0.1004  0.1049  0.0000  0.0000  0.0000  0.0000  0.0000  0.0000 </r>
       </set>
       <set comment="band 4">
        <r>  0.0000  0.1013  0.1041  0.0000  0.0000  0.0000  0.0000  0.0000  0.0000 </r>
        <r>  0.0000  0.1049  0.1004  0.0000  0.0000  0.0000  0.0000  0.0000  0.0000 </r>
       </set>
       <set comment="band 5">
        <r>  0.0183  0.0000  0.0000  0.1220  0.0000  0.0000  0.0000  0.0000  0.0000 </r>
        <r>  0.0183  0.0000  0.0000  0.1220  0.0000  0.0000  0.0000  0.0000  0.0000 </r>
       </set>
       <set comment="band 6">
        <r>  0.0000  0.1305  0.0322  0.0000  0.0000  0.0000  0.0000  0.0000  0.0000 </r>
        <r>  0.0000  0.0507  0.1120  0.0000  0.0000  0.0000  0.0000  0.0000  0.0000 </r>
       </set>
       <set comment="band 7">
        <r>  0.0000  0.0322  0.1305  0.0000  0.0000  0.0000  0.0000  0.0000  0.0000 </r>
        <r>  0.0000  0.1120  0.0507  0.0000  0.0000  0.0000  0.0000  0.0000  0.0000 </r>
       </set>
       <set comment="band 8">
        <r>  0.2389  0.0000  0.0000  0.0710  0.0000  0.0000  0.0000  0.0000  0.0000 </r>
        <r>  0.2389  0.0000  0.0000  0.0710  0.0000  0.0000  0.0000  0.0000  0.0000 </r>
       </set>
      </set>
      <set comment="kpoint 32">
       <set comment="band 1">
        <r>  0.2126  0.0000  0.0000  0.0020  0.0000  0.0000  0.0000  0.0000  0.0000 </r>
        <r>  0.2126  0.0000  0.0000  0.0020  0.0000  0.0000  0.0000  0.0000  0.0000 </r>
       </set>
       <set comment="band 2">
        <r>  0.0791  0.0000  0.0000  0.1610  0.0000  0.0000  0.0000  0.0000  0.0000 </r>
        <r>  0.0791  0.0000  0.0000  0.1610  0.0000  0.0000  0.0000  0.0000  0.0000 </r>
       </set>
       <set comment="band 3">
        <r>  0.0000  0.1044  0.1021  0.0000  0.0000  0.0000  0.0000  0.0000  0.0000 </r>
        <r>  0.0000  0.1010  0.1056  0.0000  0.0000  0.0000  0.0000  0.0000  0.0000 </r>
       </set>
       <set comment="band 4">
        <r>  0.0000  0.1021  0.1044  0.0000  0.0000  0.0000  0.0000  0.0000  0.0000 </r>
        <r>  0.0000  0.1056  0.1010  0.0000  0.0000  0.0000  0.0000  0.0000  0.0000 </r>
       </set>
       <set comment="band 5">
        <r>  0.0154  0.0000  0.0000  0.1269  0.0000  0.0000  0.0000  0.0000  0.0000 </r>
        <r>  0.0154  0.0000  0.0000  0.1269  0.0000  0.0000  0.0000  0.0000  0.0000 </r>
       </set>
       <set comment="band 6">
        <r>  0.0000  0.0903  0.0713  0.0000  0.0000  0.0000  0.0000  0.0000  0.0000 </r>
        <r>  0.0000  0.0740  0.0875  0.0000  0.0000  0.0000  0.0000  0.0000  0.0000 </r>
       </set>
       <set comment="band 7">
        <r>  0.0000  0.0713  0.0903  0.0000  0.0000  0.0000  0.0000  0.0000  0.0000 </r>
        <r>  0.0000  0.0875  0.0740  0.0000  0.0000  0.0000  0.0000  0.0000  0.0000 </r>
       </set>
       <set comment="band 8">
        <r>  0.2617  0.0000  0.0000  0.0636  0.0000  0.0000  0.0000  0.0000  0.0000 </r>
        <r>  0.2617  0.0000  0.0000  0.0636  0.0000  0.0000  0.0000  0.0000  0.0000 </r>
       </set>
      </set>
      <set comment="kpoint 33">
       <set comment="band 1">
        <r>  0.2128  0.0000  0.0000  0.0016  0.0000  0.0000  0.0000  0.0000  0.0000 </r>
        <r>  0.2128  0.0000  0.0000  0.0016  0.0000  0.0000  0.0000  0.0000  0.0000 </r>
       </set>
       <set comment="band 2">
        <r>  0.0681  0.0000  0.0000  0.1689  0.0000  0.0000  0.0000  0.0000  0.0000 </r>
        <r>  0.0681  0.0000  0.0000  0.1689  0.0000  0.0000  0.0000  0.0000  0.0000 </r>
       </set>
       <set comment="band 3">
        <r>  0.0000  0.1049  0.1030  0.0000  0.0000  0.0000  0.0000  0.0000  0.0000 </r>
        <r>  0.0000  0.1018  0.1061  0.0000  0.0000  0.0000  0.0000  0.0000  0.0000 </r>
       </set>
       <set comment="band 4">
        <r>  0.0000  0.1030  0.1049  0.0000  0.0000  0.0000  0.0000  0.0000  0.0000 </r>
        <r>  0.0000  0.1061  0.1018  0.0000  0.0000  0.0000  0.0000  0.0000  0.0000 </r>
       </set>
       <set comment="band 5">
        <r>  0.0125  0.0000  0.0000  0.1316  0.0000  0.0000  0.0000  0.0000  0.0000 </r>
        <r>  0.0125  0.0000  0.0000  0.1316  0.0000  0.0000  0.0000  0.0000  0.0000 </r>
       </set>
       <set comment="band 6">
        <r>  0.0000  0.0895  0.0708  0.0000  0.0000  0.0000  0.0000  0.0000  0.0000 </r>
        <r>  0.0000  0.0493  0.1109  0.0000  0.0000  0.0000  0.0000  0.0000  0.0000 </r>
       </set>
       <set comment="band 7">
        <r>  0.0000  0.0708  0.0895  0.0000  0.0000  0.0000  0.0000  0.0000  0.0000 </r>
        <r>  0.0000  0.1109  0.0493  0.0000  0.0000  0.0000  0.0000  0.0000  0.0000 </r>
       </set>
       <set comment="band 8">
        <r>  0.2803  0.0000  0.0000  0.0545  0.0000  0.0000  0.0000  0.0000  0.0000 </r>
        <r>  0.2803  0.0000  0.0000  0.0545  0.0000  0.0000  0.0000  0.0000  0.0000 </r>
       </set>
      </set>
      <set comment="kpoint 34">
       <set comment="band 1">
        <r>  0.2130  0.0000  0.0000  0.0011  0.0000  0.0000  0.0000  0.0000  0.0000 </r>
        <r>  0.2130  0.0000  0.0000  0.0011  0.0000  0.0000  0.0000  0.0000  0.0000 </r>
       </set>
       <set comment="band 2">
        <r>  0.0562  0.0000  0.0000  0.1774  0.0000  0.0000  0.0000  0.0000  0.0000 </r>
        <r>  0.0562  0.0000  0.0000  0.1774  0.0000  0.0000  0.0000  0.0000  0.0000 </r>
       </set>
       <set comment="band 3">
        <r>  0.0000  0.1051  0.1043  0.0000  0.0000  0.0000  0.0000  0.0000  0.0000 </r>
        <r>  0.0000  0.1026  0.1068  0.0000  0.0000  0.0000  0.0000  0.0000  0.0000 </r>
       </set>
       <set comment="band 4">
        <r>  0.0000  0.1043  0.1051  0.0000  0.0000  0.0000  0.0000  0.0000  0.0000 </r>
        <r>  0.0000  0.1068  0.1026  0.0000  0.0000  0.0000  0.0000  0.0000  0.0000 </r>
       </set>
       <set comment="band 5">
        <r>  0.0097  0.0000  0.0000  0.1362  0.0000  0.0000  0.0000  0.0000  0.0000 </r>
        <r>  0.0097  0.0000  0.0000  0.1362  0.0000  0.0000  0.0000  0.0000  0.0000 </r>
       </set>
       <set comment="band 6">
        <r>  0.0000  0.0817  0.0771  0.0000  0.0000  0.0000  0.0000  0.0000  0.0000 </r>
        <r>  0.0000  0.0729  0.0859  0.0000  0.0000  0.0000  0.0000  0.0000  0.0000 </r>
       </set>
       <set comment="band 7">
        <r>  0.0000  0.0771  0.0817  0.0000  0.0000  0.0000  0.0000  0.0000  0.0000 </r>
        <r>  0.0000  0.0859  0.0729  0.0000  0.0000  0.0000  0.0000  0.0000  0.0000 </r>
       </set>
       <set comment="band 8">
        <r>  0.2968  0.0000  0.0000  0.0445  0.0000  0.0000  0.0000  0.0000  0.0000 </r>
        <r>  0.2968  0.0000  0.0000  0.0445  0.0000  0.0000  0.0000  0.0000  0.0000 </r>
       </set>
      </set>
      <set comment="kpoint 35">
       <set comment="band 1">
        <r>  0.2132  0.0000  0.0000  0.0008  0.0000  0.0000  0.0000  0.0000  0.0000 </r>
        <r>  0.2132  0.0000  0.0000  0.0008  0.0000  0.0000  0.0000  0.0000  0.0000 </r>
       </set>
       <set comment="band 2">
        <r>  0.0437  0.0000  0.0000  0.1862  0.0000  0.0000  0.0000  0.0000  0.0000 </r>
        <r>  0.0437  0.0000  0.0000  0.1862  0.0000  0.0000  0.0000  0.0000  0.0000 </r>
       </set>
       <set comment="band 3">
        <r>  0.0000  0.1055  0.1055  0.0000  0.0000  0.0000  0.0000  0.0000  0.0000 </r>
        <r>  0.0000  0.1034  0.1076  0.0000  0.0000  0.0000  0.0000  0.0000  0.0000 </r>
       </set>
       <set comment="band 4">
        <r>  0.0000  0.1055  0.1055  0.0000  0.0000  0.0000  0.0000  0.0000  0.0000 </r>
        <r>  0.0000  0.1076  0.1034  0.0000  0.0000  0.0000  0.0000  0.0000  0.0000 </r>
       </set>
       <set comment="band 5">
        <r>  0.0070  0.0000  0.0000  0.1404  0.0000  0.0000  0.0000  0.0000  0.0000 </r>
        <r>  0.0070  0.0000  0.0000  0.1404  0.0000  0.0000  0.0000  0.0000  0.0000 </r>
       </set>
       <set comment="band 6">
        <r>  0.0000  0.0202  0.1370  0.0000  0.0000  0.0000  0.0000  0.0000  0.0000 </r>
        <r>  0.0000  0.1108  0.0464  0.0000  0.0000  0.0000  0.0000  0.0000  0.0000 </r>
       </set>
       <set comment="band 7">
        <r>  0.0000  0.1370  0.0202  0.0000  0.0000  0.0000  0.0000  0.0000  0.0000 </r>
        <r>  0.0000  0.0464  0.1108  0.0000  0.0000  0.0000  0.0000  0.0000  0.0000 </r>
       </set>
       <set comment="band 8">
        <r>  0.3119  0.0000  0.0000  0.0342  0.0000  0.0000  0.0000  0.0000  0.0000 </r>
        <r>  0.3119  0.0000  0.0000  0.0342  0.0000  0.0000  0.0000  0.0000  0.0000 </r>
       </set>
      </set>
      <set comment="kpoint 36">
       <set comment="band 1">
        <r>  0.2133  0.0000  0.0000  0.0005  0.0000  0.0000  0.0000  0.0000  0.0000 </r>
        <r>  0.2133  0.0000  0.0000  0.0005  0.0000  0.0000  0.0000  0.0000  0.0000 </r>
       </set>
       <set comment="band 2">
        <r>  0.0311  0.0000  0.0000  0.1950  0.0000  0.0000  0.0000  0.0000  0.0000 </r>
        <r>  0.0311  0.0000  0.0000  0.1950  0.0000  0.0000  0.0000  0.0000  0.0000 </r>
       </set>
       <set comment="band 3">
        <r>  0.0000  0.1061  0.1065  0.0000  0.0000  0.0000  0.0000  0.0000  0.0000 </r>
        <r>  0.0000  0.1045  0.1082  0.0000  0.0000  0.0000  0.0000  0.0000  0.0000 </r>
       </set>
       <set comment="band 4">
        <r>  0.0000  0.1065  0.1061  0.0000  0.0000  0.0000  0.0000  0.0000  0.0000 </r>
        <r>  0.0000  0.1082  0.1045  0.0000  0.0000  0.0000  0.0000  0.0000  0.0000 </r>
       </set>
       <set comment="band 5">
        <r>  0.0047  0.0000  0.0000  0.1442  0.0000  0.0000  0.0000  0.0000  0.0000 </r>
        <r>  0.0047  0.0000  0.0000  0.1442  0.0000  0.0000  0.0000  0.0000  0.0000 </r>
       </set>
       <set comment="band 6">
        <r>  0.0000  0.0888  0.0668  0.0000  0.0000  0.0000  0.0000  0.0000  0.0000 </r>
        <r>  0.0000  0.0474  0.1082  0.0000  0.0000  0.0000  0.0000  0.0000  0.0000 </r>
       </set>
       <set comment="band 7">
        <r>  0.0000  0.0668  0.0888  0.0000  0.0000  0.0000  0.0000  0.0000  0.0000 </r>
        <r>  0.0000  0.1082  0.0474  0.0000  0.0000  0.0000  0.0000  0.0000  0.0000 </r>
       </set>
       <set comment="band 8">
        <r>  0.3260  0.0000  0.0000  0.0240  0.0000  0.0000  0.0000  0.0000  0.0000 </r>
        <r>  0.3260  0.0000  0.0000  0.0240  0.0000  0.0000  0.0000  0.0000  0.0000 </r>
       </set>
      </set>
      <set comment="kpoint 37">
       <set comment="band 1">
        <r>  0.2134  0.0000  0.0000  0.0003  0.0000  0.0000  0.0000  0.0000  0.0000 </r>
        <r>  0.2134  0.0000  0.0000  0.0003  0.0000  0.0000  0.0000  0.0000  0.0000 </r>
       </set>
       <set comment="band 2">
        <r>  0.0193  0.0000  0.0000  0.2033  0.0000  0.0000  0.0000  0.0000  0.0000 </r>
        <r>  0.0193  0.0000  0.0000  0.2033  0.0000  0.0000  0.0000  0.0000  0.0000 </r>
       </set>
       <set comment="band 3">
        <r>  0.0000  0.1039  0.1104  0.0000  0.0000  0.0000  0.0000  0.0000  0.0000 </r>
        <r>  0.0000  0.1019  0.1123  0.0000  0.0000  0.0000  0.0000  0.0000  0.0000 </r>
       </set>
       <set comment="band 4">
        <r>  0.0000  0.1104  0.1039  0.0000  0.0000  0.0000  0.0000  0.0000  0.0000 </r>
        <r>  0.0000  0.1123  0.1019  0.0000  0.0000  0.0000  0.0000  0.0000  0.0000 </r>
       </set>
       <set comment="band 5">
        <r>  0.0027  0.0000  0.0000  0.1474  0.0000  0.0000  0.0000  0.0000  0.0000 </r>
        <r>  0.0027  0.0000  0.0000  0.1474  0.0000  0.0000  0.0000  0.0000  0.0000 </r>
       </set>
       <set comment="band 6">
        <r>  0.0000  0.1284  0.0255  0.0000  0.0000  0.0000  0.0000  0.0000  0.0000 </r>
        <r>  0.0000  0.0524  0.1016  0.0000  0.0000  0.0000  0.0000  0.0000  0.0000 </r>
       </set>
       <set comment="band 7">
        <r>  0.0000  0.0255  0.1284  0.0000  0.0000  0.0000  0.0000  0.0000  0.0000 </r>
        <r>  0.0000  0.1016  0.0524  0.0000  0.0000  0.0000  0.0000  0.0000  0.0000 </r>
       </set>
       <set comment="band 8">
        <r>  0.3388  0.0000  0.0000  0.0147  0.0000  0.0000  0.0000  0.0000  0.0000 </r>
        <r>  0.3388  0.0000  0.0000  0.0147  0.0000  0.0000  0.0000  0.0000  0.0000 </r>
       </set>
      </set>
      <set comment="kpoint 38">
       <set comment="band 1">
        <r>  0.2135  0.0000  0.0000  0.0001  0.0000  0.0000  0.0000  0.0000  0.0000 </r>
        <r>  0.2135  0.0000  0.0000  0.0001  0.0000  0.0000  0.0000  0.0000  0.0000 </r>
       </set>
       <set comment="band 2">
        <r>  0.0092  0.0000  0.0000  0.2102  0.0000  0.0000  0.0000  0.0000  0.0000 </r>
        <r>  0.0092  0.0000  0.0000  0.2102  0.0000  0.0000  0.0000  0.0000  0.0000 </r>
       </set>
       <set comment="band 3">
        <r>  0.0000  0.1051  0.1105  0.0000  0.0000  0.0000  0.0000  0.0000  0.0000 </r>
        <r>  0.0000  0.1053  0.1103  0.0000  0.0000  0.0000  0.0000  0.0000  0.0000 </r>
       </set>
       <set comment="band 4">
        <r>  0.0000  0.1105  0.1051  0.0000  0.0000  0.0000  0.0000  0.0000  0.0000 </r>
        <r>  0.0000  0.1103  0.1053  0.0000  0.0000  0.0000  0.0000  0.0000  0.0000 </r>
       </set>
       <set comment="band 5">
        <r>  0.0012  0.0000  0.0000  0.1497  0.0000  0.0000  0.0000  0.0000  0.0000 </r>
        <r>  0.0012  0.0000  0.0000  0.1497  0.0000  0.0000  0.0000  0.0000  0.0000 </r>
       </set>
       <set comment="band 6">
        <r>  0.0000  0.1203  0.0323  0.0000  0.0000  0.0000  0.0000  0.0000  0.0000 </r>
        <r>  0.0000  0.1326  0.0201  0.0000  0.0000  0.0000  0.0000  0.0000  0.0000 </r>
       </set>
       <set comment="band 7">
        <r>  0.0000  0.0323  0.1203  0.0000  0.0000  0.0000  0.0000  0.0000  0.0000 </r>
        <r>  0.0000  0.0201  0.1326  0.0000  0.0000  0.0000  0.0000  0.0000  0.0000 </r>
       </set>
       <set comment="band 8">
        <r>  0.3493  0.0000  0.0000  0.0070  0.0000  0.0000  0.0000  0.0000  0.0000 </r>
        <r>  0.3493  0.0000  0.0000  0.0070  0.0000  0.0000  0.0000  0.0000  0.0000 </r>
       </set>
      </set>
      <set comment="kpoint 39">
       <set comment="band 1">
        <r>  0.2136  0.0000  0.0000  0.0000  0.0000  0.0000  0.0000  0.0000  0.0000 </r>
        <r>  0.2136  0.0000  0.0000  0.0000  0.0000  0.0000  0.0000  0.0000  0.0000 </r>
       </set>
       <set comment="band 2">
        <r>  0.0000  0.1050  0.1115  0.0000  0.0000  0.0000  0.0000  0.0000  0.0000 </r>
        <r>  0.0000  0.1047  0.1118  0.0000  0.0000  0.0000  0.0000  0.0000  0.0000 </r>
       </set>
       <set comment="band 3">
        <r>  0.0000  0.1115  0.1050  0.0000  0.0000  0.0000  0.0000  0.0000  0.0000 </r>
        <r>  0.0000  0.1118  0.1047  0.0000  0.0000  0.0000  0.0000  0.0000  0.0000 </r>
       </set>
       <set comment="band 4">
        <r>  0.0024  0.0000  0.0000  0.2149  0.0000  0.0000  0.0000  0.0000  0.0000 </r>
        <r>  0.0024  0.0000  0.0000  0.2149  0.0000  0.0000  0.0000  0.0000  0.0000 </r>
       </set>
       <set comment="band 5">
        <r>  0.0003  0.0000  0.0000  0.1512  0.0000  0.0000  0.0000  0.0000  0.0000 </r>
        <r>  0.0003  0.0000  0.0000  0.1512  0.0000  0.0000  0.0000  0.0000  0.0000 </r>
       </set>
       <set comment="band 6">
        <r>  0.0000  0.0871  0.0647  0.0000  0.0000  0.0000  0.0000  0.0000  0.0000 </r>
        <r>  0.0000  0.0861  0.0656  0.0000  0.0000  0.0000  0.0000  0.0000  0.0000 </r>
       </set>
       <set comment="band 7">
        <r>  0.0000  0.0647  0.0871  0.0000  0.0000  0.0000  0.0000  0.0000  0.0000 </r>
        <r>  0.0000  0.0656  0.0861  0.0000  0.0000  0.0000  0.0000  0.0000  0.0000 </r>
       </set>
       <set comment="band 8">
        <r>  0.3564  0.0000  0.0000  0.0018  0.0000  0.0000  0.0000  0.0000  0.0000 </r>
        <r>  0.3564  0.0000  0.0000  0.0018  0.0000  0.0000  0.0000  0.0000  0.0000 </r>
       </set>
      </set>
      <set comment="kpoint 40">
       <set comment="band 1">
        <r>  0.2136  0.0000  0.0000  0.0000  0.0000  0.0000  0.0000  0.0000  0.0000 </r>
        <r>  0.2136  0.0000  0.0000  0.0000  0.0000  0.0000  0.0000  0.0000  0.0000 </r>
       </set>
       <set comment="band 2">
        <r>  0.0000  0.1098  0.1070  0.0000  0.0000  0.0000  0.0000  0.0000  0.0000 </r>
        <r>  0.0000  0.1098  0.1070  0.0000  0.0000  0.0000  0.0000  0.0000  0.0000 </r>
       </set>
       <set comment="band 3">
        <r>  0.0000  0.1070  0.1098  0.0000  0.0000  0.0000  0.0000  0.0000  0.0000 </r>
        <r>  0.0000  0.1070  0.1098  0.0000  0.0000  0.0000  0.0000  0.0000  0.0000 </r>
       </set>
       <set comment="band 4">
        <r>  0.0000  0.0000  0.0000  0.2166  0.0000  0.0000  0.0000  0.0000  0.0000 </r>
        <r>  0.0000  0.0000  0.0000  0.2166  0.0000  0.0000  0.0000  0.0000  0.0000 </r>
       </set>
       <set comment="band 5">
        <r>  0.0000  0.0000  0.0000  0.1517  0.0000  0.0000  0.0000  0.0000  0.0000 </r>
        <r>  0.0000  0.0000  0.0000  0.1517  0.0000  0.0000  0.0000  0.0000  0.0000 </r>
       </set>
       <set comment="band 6">
        <r>  0.0000  0.1404  0.0110  0.0000  0.0000  0.0000  0.0000  0.0000  0.0000 </r>
        <r>  0.0000  0.1404  0.0110  0.0000  0.0000  0.0000  0.0000  0.0000  0.0000 </r>
       </set>
       <set comment="band 7">
        <r>  0.0000  0.0110  0.1404  0.0000  0.0000  0.0000  0.0000  0.0000  0.0000 </r>
        <r>  0.0000  0.0110  0.1404  0.0000  0.0000  0.0000  0.0000  0.0000  0.0000 </r>
       </set>
       <set comment="band 8">
        <r>  0.3589  0.0000  0.0000  0.0000  0.0000  0.0000  0.0000  0.0000  0.0000 </r>
        <r>  0.3589  0.0000  0.0000  0.0000  0.0000  0.0000  0.0000  0.0000  0.0000 </r>
       </set>
      </set>
      <set comment="kpoint 41">
       <set comment="band 1">
        <r>  0.2136  0.0000  0.0000  0.0000  0.0000  0.0000  0.0000  0.0000  0.0000 </r>
        <r>  0.2136  0.0000  0.0000  0.0000  0.0000  0.0000  0.0000  0.0000  0.0000 </r>
       </set>
       <set comment="band 2">
        <r>  0.0000  0.1065  0.1104  0.0000  0.0000  0.0000  0.0000  0.0000  0.0000 </r>
        <r>  0.0000  0.1065  0.1104  0.0000  0.0000  0.0000  0.0000  0.0000  0.0000 </r>
       </set>
       <set comment="band 3">
        <r>  0.0000  0.1104  0.1065  0.0000  0.0000  0.0000  0.0000  0.0000  0.0000 </r>
        <r>  0.0000  0.1104  0.1065  0.0000  0.0000  0.0000  0.0000  0.0000  0.0000 </r>
       </set>
       <set comment="band 4">
        <r>  0.0000  0.0000  0.0000  0.2166  0.0000  0.0000  0.0000  0.0000  0.0000 </r>
        <r>  0.0000  0.0000  0.0000  0.2166  0.0000  0.0000  0.0000  0.0000  0.0000 </r>
       </set>
       <set comment="band 5">
        <r>  0.0000  0.0000  0.0000  0.1517  0.0000  0.0000  0.0000  0.0000  0.0000 </r>
        <r>  0.0000  0.0000  0.0000  0.1517  0.0000  0.0000  0.0000  0.0000  0.0000 </r>
       </set>
       <set comment="band 6">
        <r>  0.0000  0.0548  0.0966  0.0000  0.0000  0.0000  0.0000  0.0000  0.0000 </r>
        <r>  0.0000  0.0548  0.0966  0.0000  0.0000  0.0000  0.0000  0.0000  0.0000 </r>
       </set>
       <set comment="band 7">
        <r>  0.0000  0.0966  0.0548  0.0000  0.0000  0.0000  0.0000  0.0000  0.0000 </r>
        <r>  0.0000  0.0966  0.0548  0.0000  0.0000  0.0000  0.0000  0.0000  0.0000 </r>
       </set>
       <set comment="band 8">
        <r>  0.3589  0.0000  0.0000  0.0000  0.0000  0.0000  0.0000  0.0000  0.0000 </r>
        <r>  0.3589  0.0000  0.0000  0.0000  0.0000  0.0000  0.0000  0.0000  0.0000 </r>
       </set>
      </set>
      <set comment="kpoint 42">
       <set comment="band 1">
        <r>  0.2136  0.0000  0.0000  0.0000  0.0000  0.0000  0.0000  0.0000  0.0000 </r>
        <r>  0.2136  0.0000  0.0000  0.0000  0.0000  0.0000  0.0000  0.0000  0.0000 </r>
       </set>
       <set comment="band 2">
        <r>  0.0024  0.2152  0.0000  0.0000  0.0000  0.0000  0.0000  0.0000  0.0000 </r>
        <r>  0.0024  0.2152  0.0000  0.0000  0.0000  0.0000  0.0000  0.0000  0.0000 </r>
       </set>
       <set comment="band 3">
        <r>  0.0000  0.0000  0.2155  0.0010  0.0000  0.0000  0.0000  0.0000  0.0000 </r>
        <r>  0.0000  0.0000  0.2155  0.0010  0.0000  0.0000  0.0000  0.0000  0.0000 </r>
       </set>
       <set comment="band 4">
        <r>  0.0000  0.0000  0.0010  0.2153  0.0000  0.0000  0.0000  0.0000  0.0000 </r>
        <r>  0.0000  0.0000  0.0010  0.2153  0.0000  0.0000  0.0000  0.0000  0.0000 </r>
       </set>
       <set comment="band 5">
        <r>  0.0003  0.1509  0.0000  0.0000  0.0000  0.0000  0.0000  0.0000  0.0000 </r>
        <r>  0.0003  0.1509  0.0000  0.0000  0.0000  0.0000  0.0000  0.0000  0.0000 </r>
       </set>
       <set comment="band 6">
        <r>  0.0000  0.0000  0.0014  0.1507  0.0000  0.0000  0.0000  0.0000  0.0000 </r>
        <r>  0.0000  0.0000  0.0014  0.1507  0.0000  0.0000  0.0000  0.0000  0.0000 </r>
       </set>
       <set comment="band 7">
        <r>  0.0000  0.0000  0.1503  0.0014  0.0000  0.0000  0.0000  0.0000  0.0000 </r>
        <r>  0.0000  0.0000  0.1503  0.0014  0.0000  0.0000  0.0000  0.0000  0.0000 </r>
       </set>
       <set comment="band 8">
        <r>  0.3564  0.0018  0.0000  0.0000  0.0000  0.0000  0.0000  0.0000  0.0000 </r>
        <r>  0.3564  0.0018  0.0000  0.0000  0.0000  0.0000  0.0000  0.0000  0.0000 </r>
       </set>
      </set>
      <set comment="kpoint 43">
       <set comment="band 1">
        <r>  0.2135  0.0001  0.0000  0.0000  0.0000  0.0000  0.0000  0.0000  0.0000 </r>
        <r>  0.2135  0.0001  0.0000  0.0000  0.0000  0.0000  0.0000  0.0000  0.0000 </r>
       </set>
       <set comment="band 2">
        <r>  0.0092  0.2105  0.0000  0.0000  0.0000  0.0000  0.0000  0.0000  0.0000 </r>
        <r>  0.0092  0.2105  0.0000  0.0000  0.0000  0.0000  0.0000  0.0000  0.0000 </r>
       </set>
       <set comment="band 3">
        <r>  0.0000  0.0000  0.2118  0.0038  0.0000  0.0000  0.0000  0.0000  0.0000 </r>
        <r>  0.0000  0.0000  0.2118  0.0038  0.0000  0.0000  0.0000  0.0000  0.0000 </r>
       </set>
       <set comment="band 4">
        <r>  0.0000  0.0000  0.0039  0.2115  0.0000  0.0000  0.0000  0.0000  0.0000 </r>
        <r>  0.0000  0.0000  0.0039  0.2115  0.0000  0.0000  0.0000  0.0000  0.0000 </r>
       </set>
       <set comment="band 5">
        <r>  0.0012  0.1494  0.0000  0.0000  0.0000  0.0000  0.0000  0.0000  0.0000 </r>
        <r>  0.0012  0.1494  0.0000  0.0000  0.0000  0.0000  0.0000  0.0000  0.0000 </r>
       </set>
       <set comment="band 6">
        <r>  0.0000  0.0000  0.0052  0.1478  0.0000  0.0000  0.0000  0.0000  0.0000 </r>
        <r>  0.0000  0.0000  0.0052  0.1478  0.0000  0.0000  0.0000  0.0000  0.0000 </r>
       </set>
       <set comment="band 7">
        <r>  0.0000  0.0000  0.1474  0.0052  0.0000  0.0000  0.0000  0.0000  0.0000 </r>
        <r>  0.0000  0.0000  0.1474  0.0052  0.0000  0.0000  0.0000  0.0000  0.0000 </r>
       </set>
       <set comment="band 8">
        <r>  0.3494  0.0069  0.0000  0.0000  0.0000  0.0000  0.0000  0.0000  0.0000 </r>
        <r>  0.3494  0.0069  0.0000  0.0000  0.0000  0.0000  0.0000  0.0000  0.0000 </r>
       </set>
      </set>
      <set comment="kpoint 44">
       <set comment="band 1">
        <r>  0.2134  0.0003  0.0000  0.0000  0.0000  0.0000  0.0000  0.0000  0.0000 </r>
        <r>  0.2134  0.0003  0.0000  0.0000  0.0000  0.0000  0.0000  0.0000  0.0000 </r>
       </set>
       <set comment="band 2">
        <r>  0.0191  0.2036  0.0000  0.0000  0.0000  0.0000  0.0000  0.0000  0.0000 </r>
        <r>  0.0191  0.2036  0.0000  0.0000  0.0000  0.0000  0.0000  0.0000  0.0000 </r>
       </set>
       <set comment="band 3">
        <r>  0.0000  0.0000  0.2062  0.0081  0.0000  0.0000  0.0000  0.0000  0.0000 </r>
        <r>  0.0000  0.0000  0.2062  0.0081  0.0000  0.0000  0.0000  0.0000  0.0000 </r>
       </set>
       <set comment="band 4">
        <r>  0.0000  0.0000  0.0081  0.2059  0.0000  0.0000  0.0000  0.0000  0.0000 </r>
        <r>  0.0000  0.0000  0.0081  0.2059  0.0000  0.0000  0.0000  0.0000  0.0000 </r>
       </set>
       <set comment="band 5">
        <r>  0.0027  0.1470  0.0000  0.0000  0.0000  0.0000  0.0000  0.0000  0.0000 </r>
        <r>  0.0027  0.1470  0.0000  0.0000  0.0000  0.0000  0.0000  0.0000  0.0000 </r>
       </set>
       <set comment="band 6">
        <r>  0.0000  0.0000  0.0108  0.1435  0.0000  0.0000  0.0000  0.0000  0.0000 </r>
        <r>  0.0000  0.0000  0.0108  0.1435  0.0000  0.0000  0.0000  0.0000  0.0000 </r>
       </set>
       <set comment="band 7">
        <r>  0.0000  0.0000  0.1431  0.0109  0.0000  0.0000  0.0000  0.0000  0.0000 </r>
        <r>  0.0000  0.0000  0.1431  0.0109  0.0000  0.0000  0.0000  0.0000  0.0000 </r>
       </set>
       <set comment="band 8">
        <r>  0.3390  0.0146  0.0000  0.0000  0.0000  0.0000  0.0000  0.0000  0.0000 </r>
        <r>  0.3390  0.0146  0.0000  0.0000  0.0000  0.0000  0.0000  0.0000  0.0000 </r>
       </set>
      </set>
      <set comment="kpoint 45">
       <set comment="band 1">
        <r>  0.2133  0.0005  0.0000  0.0000  0.0000  0.0000  0.0000  0.0000  0.0000 </r>
        <r>  0.2133  0.0005  0.0000  0.0000  0.0000  0.0000  0.0000  0.0000  0.0000 </r>
       </set>
       <set comment="band 2">
        <r>  0.0310  0.1953  0.0000  0.0000  0.0000  0.0000  0.0000  0.0000  0.0000 </r>
        <r>  0.0310  0.1953  0.0000  0.0000  0.0000  0.0000  0.0000  0.0000  0.0000 </r>
       </set>
       <set comment="band 3">
        <r>  0.0000  0.0000  0.1996  0.0131  0.0000  0.0000  0.0000  0.0000  0.0000 </r>
        <r>  0.0000  0.0000  0.1996  0.0131  0.0000  0.0000  0.0000  0.0000  0.0000 </r>
       </set>
       <set comment="band 4">
        <r>  0.0000  0.0000  0.0132  0.1993  0.0000  0.0000  0.0000  0.0000  0.0000 </r>
        <r>  0.0000  0.0000  0.0132  0.1993  0.0000  0.0000  0.0000  0.0000  0.0000 </r>
       </set>
       <set comment="band 5">
        <r>  0.0047  0.1439  0.0000  0.0000  0.0000  0.0000  0.0000  0.0000  0.0000 </r>
        <r>  0.0047  0.1439  0.0000  0.0000  0.0000  0.0000  0.0000  0.0000  0.0000 </r>
       </set>
       <set comment="band 6">
        <r>  0.0000  0.0000  0.0175  0.1383  0.0000  0.0000  0.0000  0.0000  0.0000 </r>
        <r>  0.0000  0.0000  0.0175  0.1383  0.0000  0.0000  0.0000  0.0000  0.0000 </r>
       </set>
       <set comment="band 7">
        <r>  0.0000  0.0000  0.1379  0.0176  0.0000  0.0000  0.0000  0.0000  0.0000 </r>
        <r>  0.0000  0.0000  0.1379  0.0176  0.0000  0.0000  0.0000  0.0000  0.0000 </r>
       </set>
       <set comment="band 8">
        <r>  0.3263  0.0239  0.0000  0.0000  0.0000  0.0000  0.0000  0.0000  0.0000 </r>
        <r>  0.3263  0.0239  0.0000  0.0000  0.0000  0.0000  0.0000  0.0000  0.0000 </r>
       </set>
      </set>
      <set comment="kpoint 46">
       <set comment="band 1">
        <r>  0.2132  0.0008  0.0000  0.0000  0.0000  0.0000  0.0000  0.0000  0.0000 </r>
        <r>  0.2132  0.0008  0.0000  0.0000  0.0000  0.0000  0.0000  0.0000  0.0000 </r>
       </set>
       <set comment="band 2">
        <r>  0.0435  0.1865  0.0000  0.0000  0.0000  0.0000  0.0000  0.0000  0.0000 </r>
        <r>  0.0435  0.1865  0.0000  0.0000  0.0000  0.0000  0.0000  0.0000  0.0000 </r>
       </set>
       <set comment="band 3">
        <r>  0.0000  0.0000  0.1926  0.0185  0.0000  0.0000  0.0000  0.0000  0.0000 </r>
        <r>  0.0000  0.0000  0.1926  0.0185  0.0000  0.0000  0.0000  0.0000  0.0000 </r>
       </set>
       <set comment="band 4">
        <r>  0.0000  0.0000  0.0186  0.1922  0.0000  0.0000  0.0000  0.0000  0.0000 </r>
        <r>  0.0000  0.0000  0.0186  0.1922  0.0000  0.0000  0.0000  0.0000  0.0000 </r>
       </set>
       <set comment="band 5">
        <r>  0.0070  0.1401  0.0000  0.0000  0.0000  0.0000  0.0000  0.0000  0.0000 </r>
        <r>  0.0070  0.1401  0.0000  0.0000  0.0000  0.0000  0.0000  0.0000  0.0000 </r>
       </set>
       <set comment="band 6">
        <r>  0.0000  0.0000  0.0247  0.1328  0.0000  0.0000  0.0000  0.0000  0.0000 </r>
        <r>  0.0000  0.0000  0.0247  0.1328  0.0000  0.0000  0.0000  0.0000  0.0000 </r>
       </set>
       <set comment="band 7">
        <r>  0.0000  0.0000  0.1324  0.0248  0.0000  0.0000  0.0000  0.0000  0.0000 </r>
        <r>  0.0000  0.0000  0.1324  0.0248  0.0000  0.0000  0.0000  0.0000  0.0000 </r>
       </set>
       <set comment="band 8">
        <r>  0.3123  0.0340  0.0000  0.0000  0.0000  0.0000  0.0000  0.0000  0.0000 </r>
        <r>  0.3123  0.0340  0.0000  0.0000  0.0000  0.0000  0.0000  0.0000  0.0000 </r>
       </set>
      </set>
      <set comment="kpoint 47">
       <set comment="band 1">
        <r>  0.2130  0.0011  0.0000  0.0000  0.0000  0.0000  0.0000  0.0000  0.0000 </r>
        <r>  0.2130  0.0011  0.0000  0.0000  0.0000  0.0000  0.0000  0.0000  0.0000 </r>
       </set>
       <set comment="band 2">
        <r>  0.0559  0.1778  0.0000  0.0000  0.0000  0.0000  0.0000  0.0000  0.0000 </r>
        <r>  0.0559  0.1778  0.0000  0.0000  0.0000  0.0000  0.0000  0.0000  0.0000 </r>
       </set>
       <set comment="band 3">
        <r>  0.0000  0.0000  0.1856  0.0239  0.0000  0.0000  0.0000  0.0000  0.0000 </r>
        <r>  0.0000  0.0000  0.1856  0.0239  0.0000  0.0000  0.0000  0.0000  0.0000 </r>
       </set>
       <set comment="band 4">
        <r>  0.0000  0.0000  0.0240  0.1852  0.0000  0.0000  0.0000  0.0000  0.0000 </r>
        <r>  0.0000  0.0000  0.0240  0.1852  0.0000  0.0000  0.0000  0.0000  0.0000 </r>
       </set>
       <set comment="band 5">
        <r>  0.0096  0.1359  0.0000  0.0000  0.0000  0.0000  0.0000  0.0000  0.0000 </r>
        <r>  0.0096  0.1359  0.0000  0.0000  0.0000  0.0000  0.0000  0.0000  0.0000 </r>
       </set>
       <set comment="band 6">
        <r>  0.0000  0.0000  0.0319  0.1272  0.0000  0.0000  0.0000  0.0000  0.0000 </r>
        <r>  0.0000  0.0000  0.0319  0.1272  0.0000  0.0000  0.0000  0.0000  0.0000 </r>
       </set>
       <set comment="band 7">
        <r>  0.0000  0.0000  0.1268  0.0320  0.0000  0.0000  0.0000  0.0000  0.0000 </r>
        <r>  0.0000  0.0000  0.1268  0.0320  0.0000  0.0000  0.0000  0.0000  0.0000 </r>
       </set>
       <set comment="band 8">
        <r>  0.2972  0.0443  0.0000  0.0000  0.0000  0.0000  0.0000  0.0000  0.0000 </r>
        <r>  0.2972  0.0443  0.0000  0.0000  0.0000  0.0000  0.0000  0.0000  0.0000 </r>
       </set>
      </set>
      <set comment="kpoint 48">
       <set comment="band 1">
        <r>  0.2128  0.0016  0.0000  0.0000  0.0000  0.0000  0.0000  0.0000  0.0000 </r>
        <r>  0.2128  0.0016  0.0000  0.0000  0.0000  0.0000  0.0000  0.0000  0.0000 </r>
       </set>
       <set comment="band 2">
        <r>  0.0678  0.1693  0.0000  0.0000  0.0000  0.0000  0.0000  0.0000  0.0000 </r>
        <r>  0.0678  0.1693  0.0000  0.0000  0.0000  0.0000  0.0000  0.0000  0.0000 </r>
       </set>
       <set comment="band 3">
        <r>  0.0000  0.0000  0.1789  0.0290  0.0000  0.0000  0.0000  0.0000  0.0000 </r>
        <r>  0.0000  0.0000  0.1789  0.0290  0.0000  0.0000  0.0000  0.0000  0.0000 </r>
       </set>
       <set comment="band 4">
        <r>  0.0000  0.0000  0.0291  0.1786  0.0000  0.0000  0.0000  0.0000  0.0000 </r>
        <r>  0.0000  0.0000  0.0291  0.1786  0.0000  0.0000  0.0000  0.0000  0.0000 </r>
       </set>
       <set comment="band 5">
        <r>  0.0124  0.1314  0.0000  0.0000  0.0000  0.0000  0.0000  0.0000  0.0000 </r>
        <r>  0.0124  0.1314  0.0000  0.0000  0.0000  0.0000  0.0000  0.0000  0.0000 </r>
       </set>
       <set comment="band 6">
        <r>  0.0000  0.0000  0.0387  0.1218  0.0000  0.0000  0.0000  0.0000  0.0000 </r>
        <r>  0.0000  0.0000  0.0387  0.1218  0.0000  0.0000  0.0000  0.0000  0.0000 </r>
       </set>
       <set comment="band 7">
        <r>  0.0000  0.0000  0.1214  0.0389  0.0000  0.0000  0.0000  0.0000  0.0000 </r>
        <r>  0.0000  0.0000  0.1214  0.0389  0.0000  0.0000  0.0000  0.0000  0.0000 </r>
       </set>
       <set comment="band 8">
        <r>  0.2810  0.0543  0.0000  0.0000  0.0000  0.0000  0.0000  0.0000  0.0000 </r>
        <r>  0.2809  0.0543  0.0000  0.0000  0.0000  0.0000  0.0000  0.0000  0.0000 </r>
       </set>
      </set>
      <set comment="kpoint 49">
       <set comment="band 1">
        <r>  0.2126  0.0020  0.0000  0.0000  0.0000  0.0000  0.0000  0.0000  0.0000 </r>
        <r>  0.2126  0.0020  0.0000  0.0000  0.0000  0.0000  0.0000  0.0000  0.0000 </r>
       </set>
       <set comment="band 2">
        <r>  0.0788  0.1614  0.0000  0.0000  0.0000  0.0000  0.0000  0.0000  0.0000 </r>
        <r>  0.0788  0.1614  0.0000  0.0000  0.0000  0.0000  0.0000  0.0000  0.0000 </r>
       </set>
       <set comment="band 3">
        <r>  0.0000  0.0000  0.1727  0.0339  0.0000  0.0000  0.0000  0.0000  0.0000 </r>
        <r>  0.0000  0.0000  0.1727  0.0339  0.0000  0.0000  0.0000  0.0000  0.0000 </r>
       </set>
       <set comment="band 4">
        <r>  0.0000  0.0000  0.0340  0.1724  0.0000  0.0000  0.0000  0.0000  0.0000 </r>
        <r>  0.0000  0.0000  0.0340  0.1724  0.0000  0.0000  0.0000  0.0000  0.0000 </r>
       </set>
       <set comment="band 5">
        <r>  0.0153  0.1266  0.0000  0.0000  0.0000  0.0000  0.0000  0.0000  0.0000 </r>
        <r>  0.0153  0.1266  0.0000  0.0000  0.0000  0.0000  0.0000  0.0000  0.0000 </r>
       </set>
       <set comment="band 6">
        <r>  0.0000  0.0000  0.0452  0.1166  0.0000  0.0000  0.0000  0.0000  0.0000 </r>
        <r>  0.0000  0.0000  0.0452  0.1166  0.0000  0.0000  0.0000  0.0000  0.0000 </r>
       </set>
       <set comment="band 7">
        <r>  0.0000  0.0000  0.1162  0.0453  0.0000  0.0000  0.0000  0.0000  0.0000 </r>
        <r>  0.0000  0.0000  0.1162  0.0453  0.0000  0.0000  0.0000  0.0000  0.0000 </r>
       </set>
       <set comment="band 8">
        <r>  0.2621  0.0634  0.0000  0.0000  0.0000  0.0000  0.0000  0.0000  0.0000 </r>
        <r>  0.2622  0.0634  0.0000  0.0000  0.0000  0.0000  0.0000  0.0000  0.0000 </r>
       </set>
      </set>
      <set comment="kpoint 50">
       <set comment="band 1">
        <r>  0.2123  0.0026  0.0000  0.0000  0.0000  0.0000  0.0000  0.0000  0.0000 </r>
        <r>  0.2123  0.0026  0.0000  0.0000  0.0000  0.0000  0.0000  0.0000  0.0000 </r>
       </set>
       <set comment="band 2">
        <r>  0.0890  0.1540  0.0000  0.0000  0.0000  0.0000  0.0000  0.0000  0.0000 </r>
        <r>  0.0890  0.1540  0.0000  0.0000  0.0000  0.0000  0.0000  0.0000  0.0000 </r>
       </set>
       <set comment="band 3">
        <r>  0.0000  0.0000  0.1670  0.0384  0.0000  0.0000  0.0000  0.0000  0.0000 </r>
        <r>  0.0000  0.0000  0.1670  0.0384  0.0000  0.0000  0.0000  0.0000  0.0000 </r>
       </set>
       <set comment="band 4">
        <r>  0.0000  0.0000  0.0385  0.1667  0.0000  0.0000  0.0000  0.0000  0.0000 </r>
        <r>  0.0000  0.0000  0.0385  0.1667  0.0000  0.0000  0.0000  0.0000  0.0000 </r>
       </set>
       <set comment="band 5">
        <r>  0.0182  0.1218  0.0000  0.0000  0.0000  0.0000  0.0000  0.0000  0.0000 </r>
        <r>  0.0182  0.1218  0.0000  0.0000  0.0000  0.0000  0.0000  0.0000  0.0000 </r>
       </set>
       <set comment="band 6">
        <r>  0.0000  0.0000  0.0511  0.1118  0.0000  0.0000  0.0000  0.0000  0.0000 </r>
        <r>  0.0000  0.0000  0.0511  0.1118  0.0000  0.0000  0.0000  0.0000  0.0000 </r>
       </set>
       <set comment="band 7">
        <r>  0.0000  0.0000  0.1114  0.0512  0.0000  0.0000  0.0000  0.0000  0.0000 </r>
        <r>  0.0000  0.0000  0.1114  0.0512  0.0000  0.0000  0.0000  0.0000  0.0000 </r>
       </set>
       <set comment="band 8">
        <r>  0.2394  0.0706  0.0000  0.0000  0.0000  0.0000  0.0000  0.0000  0.0000 </r>
        <r>  0.2394  0.0707  0.0000  0.0000  0.0000  0.0000  0.0000  0.0000  0.0000 </r>
       </set>
      </set>
      <set comment="kpoint 51">
       <set comment="band 1">
        <r>  0.2121  0.0032  0.0000  0.0000  0.0000  0.0000  0.0000  0.0000  0.0000 </r>
        <r>  0.2121  0.0032  0.0000  0.0000  0.0000  0.0000  0.0000  0.0000  0.0000 </r>
       </set>
       <set comment="band 2">
        <r>  0.0983  0.1472  0.0000  0.0000  0.0000  0.0000  0.0000  0.0000  0.0000 </r>
        <r>  0.0983  0.1472  0.0000  0.0000  0.0000  0.0000  0.0000  0.0000  0.0000 </r>
       </set>
       <set comment="band 3">
        <r>  0.0000  0.0000  0.1618  0.0426  0.0000  0.0000  0.0000  0.0000  0.0000 </r>
        <r>  0.0000  0.0000  0.1618  0.0426  0.0000  0.0000  0.0000  0.0000  0.0000 </r>
       </set>
       <set comment="band 4">
        <r>  0.0000  0.0000  0.0427  0.1615  0.0000  0.0000  0.0000  0.0000  0.0000 </r>
        <r>  0.0000  0.0000  0.0427  0.1615  0.0000  0.0000  0.0000  0.0000  0.0000 </r>
       </set>
       <set comment="band 5">
        <r>  0.0211  0.1169  0.0000  0.0000  0.0000  0.0000  0.0000  0.0000  0.0000 </r>
        <r>  0.0211  0.1169  0.0000  0.0000  0.0000  0.0000  0.0000  0.0000  0.0000 </r>
       </set>
       <set comment="band 6">
        <r>  0.0000  0.0000  0.0566  0.1073  0.0000  0.0000  0.0000  0.0000  0.0000 </r>
        <r>  0.0000  0.0000  0.0566  0.1073  0.0000  0.0000  0.0000  0.0000  0.0000 </r>
       </set>
       <set comment="band 7">
        <r>  0.0000  0.0000  0.1069  0.0566  0.0000  0.0000  0.0000  0.0000  0.0000 </r>
        <r>  0.0000  0.0000  0.1069  0.0566  0.0000  0.0000  0.0000  0.0000  0.0000 </r>
       </set>
       <set comment="band 8">
        <r>  0.2110  0.0747  0.0000  0.0000  0.0000  0.0000  0.0000  0.0000  0.0000 </r>
        <r>  0.2110  0.0747  0.0000  0.0000  0.0000  0.0000  0.0000  0.0000  0.0000 </r>
       </set>
      </set>
      <set comment="kpoint 52">
       <set comment="band 1">
        <r>  0.2118  0.0038  0.0000  0.0000  0.0000  0.0000  0.0000  0.0000  0.0000 </r>
        <r>  0.2118  0.0038  0.0000  0.0000  0.0000  0.0000  0.0000  0.0000  0.0000 </r>
       </set>
       <set comment="band 2">
        <r>  0.1068  0.1409  0.0000  0.0000  0.0000  0.0000  0.0000  0.0000  0.0000 </r>
        <r>  0.1068  0.1409  0.0000  0.0000  0.0000  0.0000  0.0000  0.0000  0.0000 </r>
       </set>
       <set comment="band 3">
        <r>  0.0000  0.0000  0.1571  0.0464  0.0000  0.0000  0.0000  0.0000  0.0000 </r>
        <r>  0.0000  0.0000  0.1571  0.0464  0.0000  0.0000  0.0000  0.0000  0.0000 </r>
       </set>
       <set comment="band 4">
        <r>  0.0000  0.0000  0.0465  0.1568  0.0000  0.0000  0.0000  0.0000  0.0000 </r>
        <r>  0.0000  0.0000  0.0465  0.1568  0.0000  0.0000  0.0000  0.0000  0.0000 </r>
       </set>
       <set comment="band 5">
        <r>  0.0239  0.1123  0.0000  0.0000  0.0000  0.0000  0.0000  0.0000  0.0000 </r>
        <r>  0.0239  0.1123  0.0000  0.0000  0.0000  0.0000  0.0000  0.0000  0.0000 </r>
       </set>
       <set comment="band 6">
        <r>  0.0000  0.0000  0.0617  0.1032  0.0000  0.0000  0.0000  0.0000  0.0000 </r>
        <r>  0.0000  0.0000  0.0617  0.1032  0.0000  0.0000  0.0000  0.0000  0.0000 </r>
       </set>
       <set comment="band 7">
        <r>  0.0000  0.0000  0.1028  0.0617  0.0000  0.0000  0.0000  0.0000  0.0000 </r>
        <r>  0.0000  0.0000  0.1028  0.0617  0.0000  0.0000  0.0000  0.0000  0.0000 </r>
       </set>
       <set comment="band 8">
        <r>  0.1777  0.0744  0.0000  0.0000  0.0000  0.0000  0.0000  0.0000  0.0000 </r>
        <r>  0.1777  0.0744  0.0000  0.0000  0.0000  0.0000  0.0000  0.0000  0.0000 </r>
       </set>
      </set>
      <set comment="kpoint 53">
       <set comment="band 1">
        <r>  0.2114  0.0046  0.0000  0.0000  0.0000  0.0000  0.0000  0.0000  0.0000 </r>
        <r>  0.2114  0.0046  0.0000  0.0000  0.0000  0.0000  0.0000  0.0000  0.0000 </r>
       </set>
       <set comment="band 2">
        <r>  0.1145  0.1350  0.0000  0.0000  0.0000  0.0000  0.0000  0.0000  0.0000 </r>
        <r>  0.1145  0.1350  0.0000  0.0000  0.0000  0.0000  0.0000  0.0000  0.0000 </r>
       </set>
       <set comment="band 3">
        <r>  0.0000  0.0000  0.1528  0.0500  0.0000  0.0000  0.0000  0.0000  0.0000 </r>
        <r>  0.0000  0.0000  0.1528  0.0500  0.0000  0.0000  0.0000  0.0000  0.0000 </r>
       </set>
       <set comment="band 4">
        <r>  0.0000  0.0000  0.0500  0.1525  0.0000  0.0000  0.0000  0.0000  0.0000 </r>
        <r>  0.0000  0.0000  0.0500  0.1525  0.0000  0.0000  0.0000  0.0000  0.0000 </r>
       </set>
       <set comment="band 5">
        <r>  0.0267  0.1075  0.0000  0.0000  0.0000  0.0000  0.0000  0.0000  0.0000 </r>
        <r>  0.0267  0.1075  0.0000  0.0000  0.0000  0.0000  0.0000  0.0000  0.0000 </r>
       </set>
       <set comment="band 6">
        <r>  0.0000  0.0000  0.0662  0.0992  0.0000  0.0000  0.0000  0.0000  0.0000 </r>
        <r>  0.0000  0.0000  0.0662  0.0992  0.0000  0.0000  0.0000  0.0000  0.0000 </r>
       </set>
       <set comment="band 7">
        <r>  0.0000  0.0000  0.0989  0.0663  0.0000  0.0000  0.0000  0.0000  0.0000 </r>
        <r>  0.0000  0.0000  0.0989  0.0663  0.0000  0.0000  0.0000  0.0000  0.0000 </r>
       </set>
       <set comment="band 8">
        <r>  0.1442  0.0703  0.0000  0.0000  0.0000  0.0000  0.0000  0.0000  0.0000 </r>
        <r>  0.1442  0.0703  0.0000  0.0000  0.0000  0.0000  0.0000  0.0000  0.0000 </r>
       </set>
      </set>
      <set comment="kpoint 54">
       <set comment="band 1">
        <r>  0.2110  0.0054  0.0000  0.0000  0.0000  0.0000  0.0000  0.0000  0.0000 </r>
        <r>  0.2110  0.0054  0.0000  0.0000  0.0000  0.0000  0.0000  0.0000  0.0000 </r>
       </set>
       <set comment="band 2">
        <r>  0.1215  0.1295  0.0000  0.0000  0.0000  0.0000  0.0000  0.0000  0.0000 </r>
        <r>  0.1215  0.1295  0.0000  0.0000  0.0000  0.0000  0.0000  0.0000  0.0000 </r>
       </set>
       <set comment="band 3">
        <r>  0.0000  0.0000  0.1489  0.0532  0.0000  0.0000  0.0000  0.0000  0.0000 </r>
        <r>  0.0000  0.0000  0.1489  0.0532  0.0000  0.0000  0.0000  0.0000  0.0000 </r>
       </set>
       <set comment="band 4">
        <r>  0.0000  0.0000  0.0533  0.1486  0.0000  0.0000  0.0000  0.0000  0.0000 </r>
        <r>  0.0000  0.0000  0.0533  0.1486  0.0000  0.0000  0.0000  0.0000  0.0000 </r>
       </set>
       <set comment="band 5">
        <r>  0.0293  0.1030  0.0000  0.0000  0.0000  0.0000  0.0000  0.0000  0.0000 </r>
        <r>  0.0293  0.1030  0.0000  0.0000  0.0000  0.0000  0.0000  0.0000  0.0000 </r>
       </set>
       <set comment="band 6">
        <r>  0.1154  0.0640  0.0000  0.0000  0.0000  0.0000  0.0000  0.0000  0.0000 </r>
        <r>  0.1154  0.0640  0.0000  0.0000  0.0000  0.0000  0.0000  0.0000  0.0000 </r>
       </set>
       <set comment="band 7">
        <r>  0.0000  0.0000  0.0705  0.0956  0.0000  0.0000  0.0000  0.0000  0.0000 </r>
        <r>  0.0000  0.0000  0.0705  0.0956  0.0000  0.0000  0.0000  0.0000  0.0000 </r>
       </set>
       <set comment="band 8">
        <r>  0.0000  0.0000  0.0953  0.0704  0.0000  0.0000  0.0000  0.0000  0.0000 </r>
        <r>  0.0000  0.0000  0.0953  0.0704  0.0000  0.0000  0.0000  0.0000  0.0000 </r>
       </set>
      </set>
      <set comment="kpoint 55">
       <set comment="band 1">
        <r>  0.2107  0.0062  0.0000  0.0000  0.0000  0.0000  0.0000  0.0000  0.0000 </r>
        <r>  0.2107  0.0062  0.0000  0.0000  0.0000  0.0000  0.0000  0.0000  0.0000 </r>
       </set>
       <set comment="band 2">
        <r>  0.1279  0.1241  0.0000  0.0000  0.0000  0.0000  0.0000  0.0000  0.0000 </r>
        <r>  0.1279  0.1241  0.0000  0.0000  0.0000  0.0000  0.0000  0.0000  0.0000 </r>
       </set>
       <set comment="band 3">
        <r>  0.0000  0.0000  0.1452  0.0562  0.0000  0.0000  0.0000  0.0000  0.0000 </r>
        <r>  0.0000  0.0000  0.1452  0.0562  0.0000  0.0000  0.0000  0.0000  0.0000 </r>
       </set>
       <set comment="band 4">
        <r>  0.0000  0.0000  0.0562  0.1450  0.0000  0.0000  0.0000  0.0000  0.0000 </r>
        <r>  0.0000  0.0000  0.0562  0.1450  0.0000  0.0000  0.0000  0.0000  0.0000 </r>
       </set>
       <set comment="band 5">
        <r>  0.0318  0.0985  0.0000  0.0000  0.0000  0.0000  0.0000  0.0000  0.0000 </r>
        <r>  0.0318  0.0985  0.0000  0.0000  0.0000  0.0000  0.0000  0.0000  0.0000 </r>
       </set>
       <set comment="band 6">
        <r>  0.0936  0.0574  0.0000  0.0000  0.0000  0.0000  0.0000  0.0000  0.0000 </r>
        <r>  0.0936  0.0574  0.0000  0.0000  0.0000  0.0000  0.0000  0.0000  0.0000 </r>
       </set>
       <set comment="band 7">
        <r>  0.0000  0.0000  0.0744  0.0922  0.0000  0.0000  0.0000  0.0000  0.0000 </r>
        <r>  0.0000  0.0000  0.0743  0.0921  0.0000  0.0000  0.0000  0.0000  0.0000 </r>
       </set>
       <set comment="band 8">
        <r>  0.0000  0.0000  0.0919  0.0743  0.0000  0.0000  0.0000  0.0000  0.0000 </r>
        <r>  0.0000  0.0000  0.0919  0.0743  0.0000  0.0000  0.0000  0.0000  0.0000 </r>
       </set>
      </set>
      <set comment="kpoint 56">
       <set comment="band 1">
        <r>  0.2102  0.0071  0.0000  0.0000  0.0000  0.0000  0.0000  0.0000  0.0000 </r>
        <r>  0.2102  0.0071  0.0000  0.0000  0.0000  0.0000  0.0000  0.0000  0.0000 </r>
       </set>
       <set comment="band 2">
        <r>  0.1338  0.1194  0.0000  0.0000  0.0000  0.0000  0.0000  0.0000  0.0000 </r>
        <r>  0.1338  0.1194  0.0000  0.0000  0.0000  0.0000  0.0000  0.0000  0.0000 </r>
       </set>
       <set comment="band 3">
        <r>  0.0000  0.0000  0.1419  0.0590  0.0000  0.0000  0.0000  0.0000  0.0000 </r>
        <r>  0.0000  0.0000  0.1419  0.0590  0.0000  0.0000  0.0000  0.0000  0.0000 </r>
       </set>
       <set comment="band 4">
        <r>  0.0000  0.0000  0.0590  0.1417  0.0000  0.0000  0.0000  0.0000  0.0000 </r>
        <r>  0.0000  0.0000  0.0590  0.1417  0.0000  0.0000  0.0000  0.0000  0.0000 </r>
       </set>
       <set comment="band 5">
        <r>  0.0341  0.0942  0.0000  0.0000  0.0000  0.0000  0.0000  0.0000  0.0000 </r>
        <r>  0.0341  0.0942  0.0000  0.0000  0.0000  0.0000  0.0000  0.0000  0.0000 </r>
       </set>
       <set comment="band 6">
        <r>  0.0779  0.0519  0.0000  0.0000  0.0000  0.0000  0.0000  0.0000  0.0000 </r>
        <r>  0.0779  0.0519  0.0000  0.0000  0.0000  0.0000  0.0000  0.0000  0.0000 </r>
       </set>
       <set comment="band 7">
        <r>  0.0000  0.0000  0.0779  0.0889  0.0000  0.0000  0.0000  0.0000  0.0000 </r>
        <r>  0.0000  0.0000  0.0779  0.0889  0.0000  0.0000  0.0000  0.0000  0.0000 </r>
       </set>
       <set comment="band 8">
        <r>  0.0000  0.0000  0.0887  0.0778  0.0000  0.0000  0.0000  0.0000  0.0000 </r>
        <r>  0.0000  0.0000  0.0887  0.0778  0.0000  0.0000  0.0000  0.0000  0.0000 </r>
       </set>
      </set>
      <set comment="kpoint 57">
       <set comment="band 1">
        <r>  0.2098  0.0081  0.0000  0.0000  0.0000  0.0000  0.0000  0.0000  0.0000 </r>
        <r>  0.2098  0.0081  0.0000  0.0000  0.0000  0.0000  0.0000  0.0000  0.0000 </r>
       </set>
       <set comment="band 2">
        <r>  0.1392  0.1149  0.0000  0.0000  0.0000  0.0000  0.0000  0.0000  0.0000 </r>
        <r>  0.1392  0.1149  0.0000  0.0000  0.0000  0.0000  0.0000  0.0000  0.0000 </r>
       </set>
       <set comment="band 3">
        <r>  0.0000  0.0000  0.1389  0.0617  0.0000  0.0000  0.0000  0.0000  0.0000 </r>
        <r>  0.0000  0.0000  0.1389  0.0617  0.0000  0.0000  0.0000  0.0000  0.0000 </r>
       </set>
       <set comment="band 4">
        <r>  0.0000  0.0000  0.0617  0.1387  0.0000  0.0000  0.0000  0.0000  0.0000 </r>
        <r>  0.0000  0.0000  0.0617  0.1387  0.0000  0.0000  0.0000  0.0000  0.0000 </r>
       </set>
       <set comment="band 5">
        <r>  0.0363  0.0901  0.0000  0.0000  0.0000  0.0000  0.0000  0.0000  0.0000 </r>
        <r>  0.0363  0.0901  0.0000  0.0000  0.0000  0.0000  0.0000  0.0000  0.0000 </r>
       </set>
       <set comment="band 6">
        <r>  0.0669  0.0474  0.0000  0.0000  0.0000  0.0000  0.0000  0.0000  0.0000 </r>
        <r>  0.0669  0.0474  0.0000  0.0000  0.0000  0.0000  0.0000  0.0000  0.0000 </r>
       </set>
       <set comment="band 7">
        <r>  0.0000  0.0000  0.0811  0.0858  0.0000  0.0000  0.0000  0.0000  0.0000 </r>
        <r>  0.0000  0.0000  0.0811  0.0858  0.0000  0.0000  0.0000  0.0000  0.0000 </r>
       </set>
       <set comment="band 8">
        <r>  0.0000  0.0000  0.0857  0.0810  0.0000  0.0000  0.0000  0.0000  0.0000 </r>
        <r>  0.0000  0.0000  0.0856  0.0810  0.0000  0.0000  0.0000  0.0000  0.0000 </r>
       </set>
      </set>
      <set comment="kpoint 58">
       <set comment="band 1">
        <r>  0.2093  0.0091  0.0000  0.0000  0.0000  0.0000  0.0000  0.0000  0.0000 </r>
        <r>  0.2093  0.0091  0.0000  0.0000  0.0000  0.0000  0.0000  0.0000  0.0000 </r>
       </set>
       <set comment="band 2">
        <r>  0.1441  0.1106  0.0000  0.0000  0.0000  0.0000  0.0000  0.0000  0.0000 </r>
        <r>  0.1441  0.1106  0.0000  0.0000  0.0000  0.0000  0.0000  0.0000  0.0000 </r>
       </set>
       <set comment="band 3">
        <r>  0.0000  0.0000  0.1360  0.0641  0.0000  0.0000  0.0000  0.0000  0.0000 </r>
        <r>  0.0000  0.0000  0.1360  0.0641  0.0000  0.0000  0.0000  0.0000  0.0000 </r>
       </set>
       <set comment="band 4">
        <r>  0.0000  0.0000  0.0641  0.1359  0.0000  0.0000  0.0000  0.0000  0.0000 </r>
        <r>  0.0000  0.0000  0.0641  0.1359  0.0000  0.0000  0.0000  0.0000  0.0000 </r>
       </set>
       <set comment="band 5">
        <r>  0.0384  0.0861  0.0000  0.0000  0.0000  0.0000  0.0000  0.0000  0.0000 </r>
        <r>  0.0384  0.0861  0.0000  0.0000  0.0000  0.0000  0.0000  0.0000  0.0000 </r>
       </set>
       <set comment="band 6">
        <r>  0.0593  0.0437  0.0000  0.0000  0.0000  0.0000  0.0000  0.0000  0.0000 </r>
        <r>  0.0593  0.0437  0.0000  0.0000  0.0000  0.0000  0.0000  0.0000  0.0000 </r>
       </set>
       <set comment="band 7">
        <r>  0.0000  0.0000  0.0840  0.0829  0.0000  0.0000  0.0000  0.0000  0.0000 </r>
        <r>  0.0000  0.0000  0.0840  0.0830  0.0000  0.0000  0.0000  0.0000  0.0000 </r>
       </set>
       <set comment="band 8">
        <r>  0.0000  0.0000  0.0828  0.0840  0.0000  0.0000  0.0000  0.0000  0.0000 </r>
        <r>  0.0000  0.0000  0.0828  0.0839  0.0000  0.0000  0.0000  0.0000  0.0000 </r>
       </set>
      </set>
      <set comment="kpoint 59">
       <set comment="band 1">
        <r>  0.2088  0.0102  0.0000  0.0000  0.0000  0.0000  0.0000  0.0000  0.0000 </r>
        <r>  0.2088  0.0102  0.0000  0.0000  0.0000  0.0000  0.0000  0.0000  0.0000 </r>
       </set>
       <set comment="band 2">
        <r>  0.1486  0.1066  0.0000  0.0000  0.0000  0.0000  0.0000  0.0000  0.0000 </r>
        <r>  0.1486  0.1066  0.0000  0.0000  0.0000  0.0000  0.0000  0.0000  0.0000 </r>
       </set>
       <set comment="band 3">
        <r>  0.0000  0.0000  0.1334  0.0665  0.0000  0.0000  0.0000  0.0000  0.0000 </r>
        <r>  0.0000  0.0000  0.1334  0.0665  0.0000  0.0000  0.0000  0.0000  0.0000 </r>
       </set>
       <set comment="band 4">
        <r>  0.0000  0.0000  0.0664  0.1333  0.0000  0.0000  0.0000  0.0000  0.0000 </r>
        <r>  0.0000  0.0000  0.0664  0.1333  0.0000  0.0000  0.0000  0.0000  0.0000 </r>
       </set>
       <set comment="band 5">
        <r>  0.0403  0.0823  0.0000  0.0000  0.0000  0.0000  0.0000  0.0000  0.0000 </r>
        <r>  0.0403  0.0823  0.0000  0.0000  0.0000  0.0000  0.0000  0.0000  0.0000 </r>
       </set>
       <set comment="band 6">
        <r>  0.0539  0.0408  0.0000  0.0000  0.0000  0.0000  0.0000  0.0000  0.0000 </r>
        <r>  0.0539  0.0408  0.0000  0.0000  0.0000  0.0000  0.0000  0.0000  0.0000 </r>
       </set>
       <set comment="band 7">
        <r>  0.0000  0.0000  0.0867  0.0802  0.0000  0.0000  0.0000  0.0000  0.0000 </r>
        <r>  0.0000  0.0000  0.0867  0.0802  0.0000  0.0000  0.0000  0.0000  0.0000 </r>
       </set>
       <set comment="band 8">
        <r>  0.0000  0.0000  0.0801  0.0866  0.0000  0.0000  0.0000  0.0000  0.0000 </r>
        <r>  0.0000  0.0000  0.0801  0.0866  0.0000  0.0000  0.0000  0.0000  0.0000 </r>
       </set>
      </set>
      <set comment="kpoint 60">
       <set comment="band 1">
        <r>  0.2083  0.0113  0.0000  0.0000  0.0000  0.0000  0.0000  0.0000  0.0000 </r>
        <r>  0.2083  0.0113  0.0000  0.0000  0.0000  0.0000  0.0000  0.0000  0.0000 </r>
       </set>
       <set comment="band 2">
        <r>  0.1528  0.1027  0.0000  0.0000  0.0000  0.0000  0.0000  0.0000  0.0000 </r>
        <r>  0.1528  0.1027  0.0000  0.0000  0.0000  0.0000  0.0000  0.0000  0.0000 </r>
       </set>
       <set comment="band 3">
        <r>  0.0000  0.0000  0.1309  0.0687  0.0000  0.0000  0.0000  0.0000  0.0000 </r>
        <r>  0.0000  0.0000  0.1309  0.0687  0.0000  0.0000  0.0000  0.0000  0.0000 </r>
       </set>
       <set comment="band 4">
        <r>  0.0000  0.0000  0.0686  0.1308  0.0000  0.0000  0.0000  0.0000  0.0000 </r>
        <r>  0.0000  0.0000  0.0686  0.1308  0.0000  0.0000  0.0000  0.0000  0.0000 </r>
       </set>
       <set comment="band 5">
        <r>  0.0421  0.0787  0.0000  0.0000  0.0000  0.0000  0.0000  0.0000  0.0000 </r>
        <r>  0.0421  0.0787  0.0000  0.0000  0.0000  0.0000  0.0000  0.0000  0.0000 </r>
       </set>
       <set comment="band 6">
        <r>  0.0501  0.0384  0.0000  0.0000  0.0000  0.0000  0.0000  0.0000  0.0000 </r>
        <r>  0.0501  0.0384  0.0000  0.0000  0.0000  0.0000  0.0000  0.0000  0.0000 </r>
       </set>
       <set comment="band 7">
        <r>  0.0000  0.0000  0.0893  0.0777  0.0000  0.0000  0.0000  0.0000  0.0000 </r>
        <r>  0.0000  0.0000  0.0894  0.0776  0.0000  0.0000  0.0000  0.0000  0.0000 </r>
       </set>
       <set comment="band 8">
        <r>  0.0000  0.0000  0.0775  0.0892  0.0000  0.0000  0.0000  0.0000  0.0000 </r>
        <r>  0.0000  0.0000  0.0775  0.0893  0.0000  0.0000  0.0000  0.0000  0.0000 </r>
       </set>
      </set>
      <set comment="kpoint 61">
       <set comment="band 1">
        <r>  0.2077  0.0125  0.0000  0.0000  0.0000  0.0000  0.0000  0.0000  0.0000 </r>
        <r>  0.2077  0.0125  0.0000  0.0000  0.0000  0.0000  0.0000  0.0000  0.0000 </r>
       </set>
       <set comment="band 2">
        <r>  0.1566  0.0990  0.0000  0.0000  0.0000  0.0000  0.0000  0.0000  0.0000 </r>
        <r>  0.1566  0.0990  0.0000  0.0000  0.0000  0.0000  0.0000  0.0000  0.0000 </r>
       </set>
       <set comment="band 3">
        <r>  0.0000  0.0000  0.1287  0.0707  0.0000  0.0000  0.0000  0.0000  0.0000 </r>
        <r>  0.0000  0.0000  0.1287  0.0707  0.0000  0.0000  0.0000  0.0000  0.0000 </r>
       </set>
       <set comment="band 4">
        <r>  0.0000  0.0000  0.0707  0.1286  0.0000  0.0000  0.0000  0.0000  0.0000 </r>
        <r>  0.0000  0.0000  0.0707  0.1286  0.0000  0.0000  0.0000  0.0000  0.0000 </r>
       </set>
       <set comment="band 5">
        <r>  0.0437  0.0752  0.0000  0.0000  0.0000  0.0000  0.0000  0.0000  0.0000 </r>
        <r>  0.0437  0.0752  0.0000  0.0000  0.0000  0.0000  0.0000  0.0000  0.0000 </r>
       </set>
       <set comment="band 6">
        <r>  0.0475  0.0364  0.0000  0.0000  0.0000  0.0000  0.0000  0.0000  0.0000 </r>
        <r>  0.0475  0.0364  0.0000  0.0000  0.0000  0.0000  0.0000  0.0000  0.0000 </r>
       </set>
       <set comment="band 7">
        <r>  0.0000  0.0000  0.0916  0.0752  0.0000  0.0000  0.0000  0.0000  0.0000 </r>
        <r>  0.0000  0.0000  0.0916  0.0751  0.0000  0.0000  0.0000  0.0000  0.0000 </r>
       </set>
       <set comment="band 8">
        <r>  0.0000  0.0000  0.0751  0.0915  0.0000  0.0000  0.0000  0.0000  0.0000 </r>
        <r>  0.0000  0.0000  0.0751  0.0915  0.0000  0.0000  0.0000  0.0000  0.0000 </r>
       </set>
      </set>
      <set comment="kpoint 62">
       <set comment="band 1">
        <r>  0.2072  0.0138  0.0000  0.0000  0.0000  0.0000  0.0000  0.0000  0.0000 </r>
        <r>  0.2072  0.0138  0.0000  0.0000  0.0000  0.0000  0.0000  0.0000  0.0000 </r>
       </set>
       <set comment="band 2">
        <r>  0.1601  0.0954  0.0000  0.0000  0.0000  0.0000  0.0000  0.0000  0.0000 </r>
        <r>  0.1601  0.0954  0.0000  0.0000  0.0000  0.0000  0.0000  0.0000  0.0000 </r>
       </set>
       <set comment="band 3">
        <r>  0.0000  0.0000  0.1265  0.0727  0.0000  0.0000  0.0000  0.0000  0.0000 </r>
        <r>  0.0000  0.0000  0.1265  0.0727  0.0000  0.0000  0.0000  0.0000  0.0000 </r>
       </set>
       <set comment="band 4">
        <r>  0.0000  0.0000  0.0726  0.1264  0.0000  0.0000  0.0000  0.0000  0.0000 </r>
        <r>  0.0000  0.0000  0.0726  0.1264  0.0000  0.0000  0.0000  0.0000  0.0000 </r>
       </set>
       <set comment="band 5">
        <r>  0.0452  0.0720  0.0000  0.0000  0.0000  0.0000  0.0000  0.0000  0.0000 </r>
        <r>  0.0452  0.0720  0.0000  0.0000  0.0000  0.0000  0.0000  0.0000  0.0000 </r>
       </set>
       <set comment="band 6">
        <r>  0.0457  0.0349  0.0000  0.0000  0.0000  0.0000  0.0000  0.0000  0.0000 </r>
        <r>  0.0457  0.0349  0.0000  0.0000  0.0000  0.0000  0.0000  0.0000  0.0000 </r>
       </set>
       <set comment="band 7">
        <r>  0.0000  0.0000  0.0937  0.0730  0.0000  0.0000  0.0000  0.0000  0.0000 </r>
        <r>  0.0000  0.0000  0.0937  0.0730  0.0000  0.0000  0.0000  0.0000  0.0000 </r>
       </set>
       <set comment="band 8">
        <r>  0.0000  0.0000  0.0729  0.0936  0.0000  0.0000  0.0000  0.0000  0.0000 </r>
        <r>  0.0000  0.0000  0.0729  0.0936  0.0000  0.0000  0.0000  0.0000  0.0000 </r>
       </set>
      </set>
      <set comment="kpoint 63">
       <set comment="band 1">
        <r>  0.2066  0.0152  0.0000  0.0000  0.0000  0.0000  0.0000  0.0000  0.0000 </r>
        <r>  0.2066  0.0152  0.0000  0.0000  0.0000  0.0000  0.0000  0.0000  0.0000 </r>
       </set>
       <set comment="band 2">
        <r>  0.1634  0.0920  0.0000  0.0000  0.0000  0.0000  0.0000  0.0000  0.0000 </r>
        <r>  0.1634  0.0920  0.0000  0.0000  0.0000  0.0000  0.0000  0.0000  0.0000 </r>
       </set>
       <set comment="band 3">
        <r>  0.0000  0.0000  0.1245  0.0745  0.0000  0.0000  0.0000  0.0000  0.0000 </r>
        <r>  0.0000  0.0000  0.1245  0.0745  0.0000  0.0000  0.0000  0.0000  0.0000 </r>
       </set>
       <set comment="band 4">
        <r>  0.0000  0.0000  0.0745  0.1244  0.0000  0.0000  0.0000  0.0000  0.0000 </r>
        <r>  0.0000  0.0000  0.0745  0.1244  0.0000  0.0000  0.0000  0.0000  0.0000 </r>
       </set>
       <set comment="band 5">
        <r>  0.0466  0.0688  0.0000  0.0000  0.0000  0.0000  0.0000  0.0000  0.0000 </r>
        <r>  0.0466  0.0688  0.0000  0.0000  0.0000  0.0000  0.0000  0.0000  0.0000 </r>
       </set>
       <set comment="band 6">
        <r>  0.0446  0.0336  0.0000  0.0000  0.0000  0.0000  0.0000  0.0000  0.0000 </r>
        <r>  0.0446  0.0336  0.0000  0.0000  0.0000  0.0000  0.0000  0.0000  0.0000 </r>
       </set>
       <set comment="band 7">
        <r>  0.0000  0.0000  0.0956  0.0709  0.0000  0.0000  0.0000  0.0000  0.0000 </r>
        <r>  0.0000  0.0000  0.0956  0.0709  0.0000  0.0000  0.0000  0.0000  0.0000 </r>
       </set>
       <set comment="band 8">
        <r>  0.0000  0.0000  0.0708  0.0957  0.0000  0.0000  0.0000  0.0000  0.0000 </r>
        <r>  0.0000  0.0000  0.0708  0.0957  0.0000  0.0000  0.0000  0.0000  0.0000 </r>
       </set>
      </set>
      <set comment="kpoint 64">
       <set comment="band 1">
        <r>  0.2060  0.0165  0.0000  0.0000  0.0000  0.0000  0.0000  0.0000  0.0000 </r>
        <r>  0.2060  0.0165  0.0000  0.0000  0.0000  0.0000  0.0000  0.0000  0.0000 </r>
       </set>
       <set comment="band 2">
        <r>  0.1663  0.0887  0.0000  0.0000  0.0000  0.0000  0.0000  0.0000  0.0000 </r>
        <r>  0.1663  0.0887  0.0000  0.0000  0.0000  0.0000  0.0000  0.0000  0.0000 </r>
       </set>
       <set comment="band 3">
        <r>  0.0000  0.0000  0.1226  0.0763  0.0000  0.0000  0.0000  0.0000  0.0000 </r>
        <r>  0.0000  0.0000  0.1226  0.0763  0.0000  0.0000  0.0000  0.0000  0.0000 </r>
       </set>
       <set comment="band 4">
        <r>  0.0000  0.0000  0.0763  0.1225  0.0000  0.0000  0.0000  0.0000  0.0000 </r>
        <r>  0.0000  0.0000  0.0763  0.1225  0.0000  0.0000  0.0000  0.0000  0.0000 </r>
       </set>
       <set comment="band 5">
        <r>  0.0478  0.0658  0.0000  0.0000  0.0000  0.0000  0.0000  0.0000  0.0000 </r>
        <r>  0.0478  0.0658  0.0000  0.0000  0.0000  0.0000  0.0000  0.0000  0.0000 </r>
       </set>
       <set comment="band 6">
        <r>  0.0439  0.0325  0.0000  0.0000  0.0000  0.0000  0.0000  0.0000  0.0000 </r>
        <r>  0.0439  0.0325  0.0000  0.0000  0.0000  0.0000  0.0000  0.0000  0.0000 </r>
       </set>
       <set comment="band 7">
        <r>  0.0000  0.0000  0.0975  0.0689  0.0000  0.0000  0.0000  0.0000  0.0000 </r>
        <r>  0.0000  0.0000  0.0975  0.0689  0.0000  0.0000  0.0000  0.0000  0.0000 </r>
       </set>
       <set comment="band 8">
        <r>  0.0000  0.0000  0.0688  0.0974  0.0000  0.0000  0.0000  0.0000  0.0000 </r>
        <r>  0.0000  0.0000  0.0688  0.0974  0.0000  0.0000  0.0000  0.0000  0.0000 </r>
       </set>
      </set>
      <set comment="kpoint 65">
       <set comment="band 1">
        <r>  0.2054  0.0180  0.0000  0.0000  0.0000  0.0000  0.0000  0.0000  0.0000 </r>
        <r>  0.2054  0.0180  0.0000  0.0000  0.0000  0.0000  0.0000  0.0000  0.0000 </r>
       </set>
       <set comment="band 2">
        <r>  0.1691  0.0855  0.0000  0.0000  0.0000  0.0000  0.0000  0.0000  0.0000 </r>
        <r>  0.1691  0.0855  0.0000  0.0000  0.0000  0.0000  0.0000  0.0000  0.0000 </r>
       </set>
       <set comment="band 3">
        <r>  0.0000  0.0000  0.1208  0.0780  0.0000  0.0000  0.0000  0.0000  0.0000 </r>
        <r>  0.0000  0.0000  0.1208  0.0780  0.0000  0.0000  0.0000  0.0000  0.0000 </r>
       </set>
       <set comment="band 4">
        <r>  0.0000  0.0000  0.0780  0.1207  0.0000  0.0000  0.0000  0.0000  0.0000 </r>
        <r>  0.0000  0.0000  0.0780  0.1207  0.0000  0.0000  0.0000  0.0000  0.0000 </r>
       </set>
       <set comment="band 5">
        <r>  0.0489  0.0630  0.0000  0.0000  0.0000  0.0000  0.0000  0.0000  0.0000 </r>
        <r>  0.0489  0.0630  0.0000  0.0000  0.0000  0.0000  0.0000  0.0000  0.0000 </r>
       </set>
       <set comment="band 6">
        <r>  0.0436  0.0317  0.0000  0.0000  0.0000  0.0000  0.0000  0.0000  0.0000 </r>
        <r>  0.0436  0.0317  0.0000  0.0000  0.0000  0.0000  0.0000  0.0000  0.0000 </r>
       </set>
       <set comment="band 7">
        <r>  0.0000  0.0000  0.0991  0.0670  0.0000  0.0000  0.0000  0.0000  0.0000 </r>
        <r>  0.0000  0.0000  0.0991  0.0670  0.0000  0.0000  0.0000  0.0000  0.0000 </r>
       </set>
       <set comment="band 8">
        <r>  0.0000  0.0000  0.0670  0.0989  0.0000  0.0000  0.0000  0.0000  0.0000 </r>
        <r>  0.0000  0.0000  0.0669  0.0989  0.0000  0.0000  0.0000  0.0000  0.0000 </r>
       </set>
      </set>
      <set comment="kpoint 66">
       <set comment="band 1">
        <r>  0.2047  0.0195  0.0000  0.0000  0.0000  0.0000  0.0000  0.0000  0.0000 </r>
        <r>  0.2047  0.0195  0.0000  0.0000  0.0000  0.0000  0.0000  0.0000  0.0000 </r>
       </set>
       <set comment="band 2">
        <r>  0.1716  0.0824  0.0000  0.0000  0.0000  0.0000  0.0000  0.0000  0.0000 </r>
        <r>  0.1716  0.0824  0.0000  0.0000  0.0000  0.0000  0.0000  0.0000  0.0000 </r>
       </set>
       <set comment="band 3">
        <r>  0.0000  0.0000  0.1190  0.0797  0.0000  0.0000  0.0000  0.0000  0.0000 </r>
        <r>  0.0000  0.0000  0.1190  0.0797  0.0000  0.0000  0.0000  0.0000  0.0000 </r>
       </set>
       <set comment="band 4">
        <r>  0.0000  0.0000  0.0796  0.1190  0.0000  0.0000  0.0000  0.0000  0.0000 </r>
        <r>  0.0000  0.0000  0.0796  0.1190  0.0000  0.0000  0.0000  0.0000  0.0000 </r>
       </set>
       <set comment="band 5">
        <r>  0.0499  0.0603  0.0000  0.0000  0.0000  0.0000  0.0000  0.0000  0.0000 </r>
        <r>  0.0499  0.0603  0.0000  0.0000  0.0000  0.0000  0.0000  0.0000  0.0000 </r>
       </set>
       <set comment="band 6">
        <r>  0.0436  0.0310  0.0000  0.0000  0.0000  0.0000  0.0000  0.0000  0.0000 </r>
        <r>  0.0436  0.0310  0.0000  0.0000  0.0000  0.0000  0.0000  0.0000  0.0000 </r>
       </set>
       <set comment="band 7">
        <r>  0.0000  0.0000  0.1004  0.0652  0.0000  0.0000  0.0000  0.0000  0.0000 </r>
        <r>  0.0000  0.0000  0.1005  0.0652  0.0000  0.0000  0.0000  0.0000  0.0000 </r>
       </set>
       <set comment="band 8">
        <r>  0.0000  0.0000  0.0652  0.1003  0.0000  0.0000  0.0000  0.0000  0.0000 </r>
        <r>  0.0000  0.0000  0.0652  0.1003  0.0000  0.0000  0.0000  0.0000  0.0000 </r>
       </set>
      </set>
      <set comment="kpoint 67">
       <set comment="band 1">
        <r>  0.2041  0.0210  0.0000  0.0000  0.0000  0.0000  0.0000  0.0000  0.0000 </r>
        <r>  0.2041  0.0210  0.0000  0.0000  0.0000  0.0000  0.0000  0.0000  0.0000 </r>
       </set>
       <set comment="band 2">
        <r>  0.1740  0.0794  0.0000  0.0000  0.0000  0.0000  0.0000  0.0000  0.0000 </r>
        <r>  0.1740  0.0794  0.0000  0.0000  0.0000  0.0000  0.0000  0.0000  0.0000 </r>
       </set>
       <set comment="band 3">
        <r>  0.0000  0.0000  0.1173  0.0813  0.0000  0.0000  0.0000  0.0000  0.0000 </r>
        <r>  0.0000  0.0000  0.1173  0.0813  0.0000  0.0000  0.0000  0.0000  0.0000 </r>
       </set>
       <set comment="band 4">
        <r>  0.0000  0.0000  0.0813  0.1173  0.0000  0.0000  0.0000  0.0000  0.0000 </r>
        <r>  0.0000  0.0000  0.0813  0.1173  0.0000  0.0000  0.0000  0.0000  0.0000 </r>
       </set>
       <set comment="band 5">
        <r>  0.0507  0.0577  0.0000  0.0000  0.0000  0.0000  0.0000  0.0000  0.0000 </r>
        <r>  0.0507  0.0577  0.0000  0.0000  0.0000  0.0000  0.0000  0.0000  0.0000 </r>
       </set>
       <set comment="band 6">
        <r>  0.0438  0.0305  0.0000  0.0000  0.0000  0.0000  0.0000  0.0000  0.0000 </r>
        <r>  0.0438  0.0305  0.0000  0.0000  0.0000  0.0000  0.0000  0.0000  0.0000 </r>
       </set>
       <set comment="band 7">
        <r>  0.0000  0.0000  0.1017  0.0636  0.0000  0.0000  0.0000  0.0000  0.0000 </r>
        <r>  0.0000  0.0000  0.1017  0.0636  0.0000  0.0000  0.0000  0.0000  0.0000 </r>
       </set>
       <set comment="band 8">
        <r>  0.0000  0.0000  0.0637  0.1016  0.0000  0.0000  0.0000  0.0000  0.0000 </r>
        <r>  0.0000  0.0000  0.0636  0.1016  0.0000  0.0000  0.0000  0.0000  0.0000 </r>
       </set>
      </set>
      <set comment="kpoint 68">
       <set comment="band 1">
        <r>  0.2034  0.0226  0.0000  0.0000  0.0000  0.0000  0.0000  0.0000  0.0000 </r>
        <r>  0.2034  0.0226  0.0000  0.0000  0.0000  0.0000  0.0000  0.0000  0.0000 </r>
       </set>
       <set comment="band 2">
        <r>  0.1761  0.0765  0.0000  0.0000  0.0000  0.0000  0.0000  0.0000  0.0000 </r>
        <r>  0.1761  0.0765  0.0000  0.0000  0.0000  0.0000  0.0000  0.0000  0.0000 </r>
       </set>
       <set comment="band 3">
        <r>  0.0000  0.0000  0.1157  0.0829  0.0000  0.0000  0.0000  0.0000  0.0000 </r>
        <r>  0.0000  0.0000  0.1157  0.0829  0.0000  0.0000  0.0000  0.0000  0.0000 </r>
       </set>
       <set comment="band 4">
        <r>  0.0000  0.0000  0.0828  0.1157  0.0000  0.0000  0.0000  0.0000  0.0000 </r>
        <r>  0.0000  0.0000  0.0828  0.1157  0.0000  0.0000  0.0000  0.0000  0.0000 </r>
       </set>
       <set comment="band 5">
        <r>  0.0515  0.0552  0.0000  0.0000  0.0000  0.0000  0.0000  0.0000  0.0000 </r>
        <r>  0.0515  0.0552  0.0000  0.0000  0.0000  0.0000  0.0000  0.0000  0.0000 </r>
       </set>
       <set comment="band 6">
        <r>  0.0441  0.0301  0.0000  0.0000  0.0000  0.0000  0.0000  0.0000  0.0000 </r>
        <r>  0.0441  0.0301  0.0000  0.0000  0.0000  0.0000  0.0000  0.0000  0.0000 </r>
       </set>
       <set comment="band 7">
        <r>  0.0000  0.0000  0.1028  0.0622  0.0000  0.0000  0.0000  0.0000  0.0000 </r>
        <r>  0.0000  0.0000  0.1028  0.0621  0.0000  0.0000  0.0000  0.0000  0.0000 </r>
       </set>
       <set comment="band 8">
        <r>  0.0000  0.0000  0.0622  0.1027  0.0000  0.0000  0.0000  0.0000  0.0000 </r>
        <r>  0.0000  0.0000  0.0622  0.1027  0.0000  0.0000  0.0000  0.0000  0.0000 </r>
       </set>
      </set>
      <set comment="kpoint 69">
       <set comment="band 1">
        <r>  0.2026  0.0242  0.0000  0.0000  0.0000  0.0000  0.0000  0.0000  0.0000 </r>
        <r>  0.2026  0.0242  0.0000  0.0000  0.0000  0.0000  0.0000  0.0000  0.0000 </r>
       </set>
       <set comment="band 2">
        <r>  0.1781  0.0736  0.0000  0.0000  0.0000  0.0000  0.0000  0.0000  0.0000 </r>
        <r>  0.1781  0.0736  0.0000  0.0000  0.0000  0.0000  0.0000  0.0000  0.0000 </r>
       </set>
       <set comment="band 3">
        <r>  0.0000  0.0000  0.1142  0.0844  0.0000  0.0000  0.0000  0.0000  0.0000 </r>
        <r>  0.0000  0.0000  0.1142  0.0844  0.0000  0.0000  0.0000  0.0000  0.0000 </r>
       </set>
       <set comment="band 4">
        <r>  0.0000  0.0000  0.0843  0.1142  0.0000  0.0000  0.0000  0.0000  0.0000 </r>
        <r>  0.0000  0.0000  0.0843  0.1142  0.0000  0.0000  0.0000  0.0000  0.0000 </r>
       </set>
       <set comment="band 5">
        <r>  0.0521  0.0529  0.0000  0.0000  0.0000  0.0000  0.0000  0.0000  0.0000 </r>
        <r>  0.0521  0.0529  0.0000  0.0000  0.0000  0.0000  0.0000  0.0000  0.0000 </r>
       </set>
       <set comment="band 6">
        <r>  0.0446  0.0299  0.0000  0.0000  0.0000  0.0000  0.0000  0.0000  0.0000 </r>
        <r>  0.0446  0.0299  0.0000  0.0000  0.0000  0.0000  0.0000  0.0000  0.0000 </r>
       </set>
       <set comment="band 7">
        <r>  0.0000  0.0000  0.1039  0.0610  0.0000  0.0000  0.0000  0.0000  0.0000 </r>
        <r>  0.0000  0.0000  0.1038  0.0610  0.0000  0.0000  0.0000  0.0000  0.0000 </r>
       </set>
       <set comment="band 8">
        <r>  0.0000  0.0000  0.0611  0.1037  0.0000  0.0000  0.0000  0.0000  0.0000 </r>
        <r>  0.0000  0.0000  0.0611  0.1037  0.0000  0.0000  0.0000  0.0000  0.0000 </r>
       </set>
      </set>
      <set comment="kpoint 70">
       <set comment="band 1">
        <r>  0.2019  0.0259  0.0000  0.0000  0.0000  0.0000  0.0000  0.0000  0.0000 </r>
        <r>  0.2019  0.0259  0.0000  0.0000  0.0000  0.0000  0.0000  0.0000  0.0000 </r>
       </set>
       <set comment="band 2">
        <r>  0.1800  0.0708  0.0000  0.0000  0.0000  0.0000  0.0000  0.0000  0.0000 </r>
        <r>  0.1800  0.0708  0.0000  0.0000  0.0000  0.0000  0.0000  0.0000  0.0000 </r>
       </set>
       <set comment="band 3">
        <r>  0.0000  0.0000  0.1126  0.0859  0.0000  0.0000  0.0000  0.0000  0.0000 </r>
        <r>  0.0000  0.0000  0.1126  0.0859  0.0000  0.0000  0.0000  0.0000  0.0000 </r>
       </set>
       <set comment="band 4">
        <r>  0.0000  0.0000  0.0858  0.1127  0.0000  0.0000  0.0000  0.0000  0.0000 </r>
        <r>  0.0000  0.0000  0.0858  0.1127  0.0000  0.0000  0.0000  0.0000  0.0000 </r>
       </set>
       <set comment="band 5">
        <r>  0.0526  0.0506  0.0000  0.0000  0.0000  0.0000  0.0000  0.0000  0.0000 </r>
        <r>  0.0526  0.0506  0.0000  0.0000  0.0000  0.0000  0.0000  0.0000  0.0000 </r>
       </set>
       <set comment="band 6">
        <r>  0.0452  0.0298  0.0000  0.0000  0.0000  0.0000  0.0000  0.0000  0.0000 </r>
        <r>  0.0452  0.0298  0.0000  0.0000  0.0000  0.0000  0.0000  0.0000  0.0000 </r>
       </set>
       <set comment="band 7">
        <r>  0.0000  0.0000  0.1049  0.0599  0.0000  0.0000  0.0000  0.0000  0.0000 </r>
        <r>  0.0000  0.0000  0.1050  0.0599  0.0000  0.0000  0.0000  0.0000  0.0000 </r>
       </set>
       <set comment="band 8">
        <r>  0.0000  0.0000  0.0601  0.1049  0.0000  0.0000  0.0000  0.0000  0.0000 </r>
        <r>  0.0000  0.0000  0.0601  0.1048  0.0000  0.0000  0.0000  0.0000  0.0000 </r>
       </set>
      </set>
      <set comment="kpoint 71">
       <set comment="band 1">
        <r>  0.2012  0.0277  0.0000  0.0000  0.0000  0.0000  0.0000  0.0000  0.0000 </r>
        <r>  0.2012  0.0277  0.0000  0.0000  0.0000  0.0000  0.0000  0.0000  0.0000 </r>
       </set>
       <set comment="band 2">
        <r>  0.1817  0.0680  0.0000  0.0000  0.0000  0.0000  0.0000  0.0000  0.0000 </r>
        <r>  0.1817  0.0680  0.0000  0.0000  0.0000  0.0000  0.0000  0.0000  0.0000 </r>
       </set>
       <set comment="band 3">
        <r>  0.0000  0.0000  0.1111  0.0873  0.0000  0.0000  0.0000  0.0000  0.0000 </r>
        <r>  0.0000  0.0000  0.1111  0.0873  0.0000  0.0000  0.0000  0.0000  0.0000 </r>
       </set>
       <set comment="band 4">
        <r>  0.0000  0.0000  0.0872  0.1111  0.0000  0.0000  0.0000  0.0000  0.0000 </r>
        <r>  0.0000  0.0000  0.0872  0.1111  0.0000  0.0000  0.0000  0.0000  0.0000 </r>
       </set>
       <set comment="band 5">
        <r>  0.0529  0.0486  0.0000  0.0000  0.0000  0.0000  0.0000  0.0000  0.0000 </r>
        <r>  0.0529  0.0486  0.0000  0.0000  0.0000  0.0000  0.0000  0.0000  0.0000 </r>
       </set>
       <set comment="band 6">
        <r>  0.0458  0.0299  0.0000  0.0000  0.0000  0.0000  0.0000  0.0000  0.0000 </r>
        <r>  0.0458  0.0299  0.0000  0.0000  0.0000  0.0000  0.0000  0.0000  0.0000 </r>
       </set>
       <set comment="band 7">
        <r>  0.0000  0.0000  0.1060  0.0594  0.0000  0.0000  0.0000  0.0000  0.0000 </r>
        <r>  0.0000  0.0000  0.1060  0.0594  0.0000  0.0000  0.0000  0.0000  0.0000 </r>
       </set>
       <set comment="band 8">
        <r>  0.0000  0.0000  0.0595  0.1060  0.0000  0.0000  0.0000  0.0000  0.0000 </r>
        <r>  0.0000  0.0000  0.0596  0.1060  0.0000  0.0000  0.0000  0.0000  0.0000 </r>
       </set>
      </set>
      <set comment="kpoint 72">
       <set comment="band 1">
        <r>  0.2004  0.0296  0.0000  0.0000  0.0000  0.0000  0.0000  0.0000  0.0000 </r>
        <r>  0.2004  0.0296  0.0000  0.0000  0.0000  0.0000  0.0000  0.0000  0.0000 </r>
       </set>
       <set comment="band 2">
        <r>  0.1833  0.0653  0.0000  0.0000  0.0000  0.0000  0.0000  0.0000  0.0000 </r>
        <r>  0.1833  0.0653  0.0000  0.0000  0.0000  0.0000  0.0000  0.0000  0.0000 </r>
       </set>
       <set comment="band 3">
        <r>  0.0000  0.0000  0.1097  0.0887  0.0000  0.0000  0.0000  0.0000  0.0000 </r>
        <r>  0.0000  0.0000  0.1097  0.0887  0.0000  0.0000  0.0000  0.0000  0.0000 </r>
       </set>
       <set comment="band 4">
        <r>  0.0000  0.0000  0.0886  0.1097  0.0000  0.0000  0.0000  0.0000  0.0000 </r>
        <r>  0.0000  0.0000  0.0886  0.1097  0.0000  0.0000  0.0000  0.0000  0.0000 </r>
       </set>
       <set comment="band 5">
        <r>  0.0532  0.0467  0.0000  0.0000  0.0000  0.0000  0.0000  0.0000  0.0000 </r>
        <r>  0.0532  0.0467  0.0000  0.0000  0.0000  0.0000  0.0000  0.0000  0.0000 </r>
       </set>
       <set comment="band 6">
        <r>  0.0465  0.0299  0.0000  0.0000  0.0000  0.0000  0.0000  0.0000  0.0000 </r>
        <r>  0.0465  0.0299  0.0000  0.0000  0.0000  0.0000  0.0000  0.0000  0.0000 </r>
       </set>
       <set comment="band 7">
        <r>  0.0000  0.0000  0.1070  0.0590  0.0000  0.0000  0.0000  0.0000  0.0000 </r>
        <r>  0.0000  0.0000  0.1070  0.0590  0.0000  0.0000  0.0000  0.0000  0.0000 </r>
       </set>
       <set comment="band 8">
        <r>  0.0000  0.0000  0.0592  0.1070  0.0000  0.0000  0.0000  0.0000  0.0000 </r>
        <r>  0.0000  0.0000  0.0592  0.1070  0.0000  0.0000  0.0000  0.0000  0.0000 </r>
       </set>
      </set>
      <set comment="kpoint 73">
       <set comment="band 1">
        <r>  0.1996  0.0314  0.0000  0.0000  0.0000  0.0000  0.0000  0.0000  0.0000 </r>
        <r>  0.1996  0.0314  0.0000  0.0000  0.0000  0.0000  0.0000  0.0000  0.0000 </r>
       </set>
       <set comment="band 2">
        <r>  0.1848  0.0627  0.0000  0.0000  0.0000  0.0000  0.0000  0.0000  0.0000 </r>
        <r>  0.1848  0.0627  0.0000  0.0000  0.0000  0.0000  0.0000  0.0000  0.0000 </r>
       </set>
       <set comment="band 3">
        <r>  0.0000  0.0000  0.1083  0.0901  0.0000  0.0000  0.0000  0.0000  0.0000 </r>
        <r>  0.0000  0.0000  0.1083  0.0901  0.0000  0.0000  0.0000  0.0000  0.0000 </r>
       </set>
       <set comment="band 4">
        <r>  0.0000  0.0000  0.0900  0.1083  0.0000  0.0000  0.0000  0.0000  0.0000 </r>
        <r>  0.0000  0.0000  0.0900  0.1083  0.0000  0.0000  0.0000  0.0000  0.0000 </r>
       </set>
       <set comment="band 5">
        <r>  0.0533  0.0448  0.0000  0.0000  0.0000  0.0000  0.0000  0.0000  0.0000 </r>
        <r>  0.0533  0.0448  0.0000  0.0000  0.0000  0.0000  0.0000  0.0000  0.0000 </r>
       </set>
       <set comment="band 6">
        <r>  0.0472  0.0302  0.0000  0.0000  0.0000  0.0000  0.0000  0.0000  0.0000 </r>
        <r>  0.0472  0.0302  0.0000  0.0000  0.0000  0.0000  0.0000  0.0000  0.0000 </r>
       </set>
       <set comment="band 7">
        <r>  0.0000  0.0000  0.1080  0.0590  0.0000  0.0000  0.0000  0.0000  0.0000 </r>
        <r>  0.0000  0.0000  0.1080  0.0590  0.0000  0.0000  0.0000  0.0000  0.0000 </r>
       </set>
       <set comment="band 8">
        <r>  0.0000  0.0000  0.0594  0.1080  0.0000  0.0000  0.0000  0.0000  0.0000 </r>
        <r>  0.0000  0.0000  0.0594  0.1081  0.0000  0.0000  0.0000  0.0000  0.0000 </r>
       </set>
      </set>
      <set comment="kpoint 74">
       <set comment="band 1">
        <r>  0.1988  0.0333  0.0000  0.0000  0.0000  0.0000  0.0000  0.0000  0.0000 </r>
        <r>  0.1988  0.0333  0.0000  0.0000  0.0000  0.0000  0.0000  0.0000  0.0000 </r>
       </set>
       <set comment="band 2">
        <r>  0.1862  0.0601  0.0000  0.0000  0.0000  0.0000  0.0000  0.0000  0.0000 </r>
        <r>  0.1862  0.0601  0.0000  0.0000  0.0000  0.0000  0.0000  0.0000  0.0000 </r>
       </set>
       <set comment="band 3">
        <r>  0.0000  0.0000  0.1069  0.0914  0.0000  0.0000  0.0000  0.0000  0.0000 </r>
        <r>  0.0000  0.0000  0.1069  0.0914  0.0000  0.0000  0.0000  0.0000  0.0000 </r>
       </set>
       <set comment="band 4">
        <r>  0.0000  0.0000  0.0913  0.1070  0.0000  0.0000  0.0000  0.0000  0.0000 </r>
        <r>  0.0000  0.0000  0.0913  0.1070  0.0000  0.0000  0.0000  0.0000  0.0000 </r>
       </set>
       <set comment="band 5">
        <r>  0.0534  0.0430  0.0000  0.0000  0.0000  0.0000  0.0000  0.0000  0.0000 </r>
        <r>  0.0534  0.0430  0.0000  0.0000  0.0000  0.0000  0.0000  0.0000  0.0000 </r>
       </set>
       <set comment="band 6">
        <r>  0.0480  0.0305  0.0000  0.0000  0.0000  0.0000  0.0000  0.0000  0.0000 </r>
        <r>  0.0480  0.0305  0.0000  0.0000  0.0000  0.0000  0.0000  0.0000  0.0000 </r>
       </set>
       <set comment="band 7">
        <r>  0.0000  0.0000  0.1094  0.0598  0.0000  0.0000  0.0000  0.0000  0.0000 </r>
        <r>  0.0000  0.0000  0.1095  0.0598  0.0000  0.0000  0.0000  0.0000  0.0000 </r>
       </set>
       <set comment="band 8">
        <r>  0.0000  0.0000  0.0602  0.1096  0.0000  0.0000  0.0000  0.0000  0.0000 </r>
        <r>  0.0000  0.0000  0.0603  0.1095  0.0000  0.0000  0.0000  0.0000  0.0000 </r>
       </set>
      </set>
      <set comment="kpoint 75">
       <set comment="band 1">
        <r>  0.1980  0.0353  0.0000  0.0000  0.0000  0.0000  0.0000  0.0000  0.0000 </r>
        <r>  0.1980  0.0353  0.0000  0.0000  0.0000  0.0000  0.0000  0.0000  0.0000 </r>
       </set>
       <set comment="band 2">
        <r>  0.1876  0.0576  0.0000  0.0000  0.0000  0.0000  0.0000  0.0000  0.0000 </r>
        <r>  0.1876  0.0576  0.0000  0.0000  0.0000  0.0000  0.0000  0.0000  0.0000 </r>
       </set>
       <set comment="band 3">
        <r>  0.0000  0.0000  0.1056  0.0927  0.0000  0.0000  0.0000  0.0000  0.0000 </r>
        <r>  0.0000  0.0000  0.1056  0.0927  0.0000  0.0000  0.0000  0.0000  0.0000 </r>
       </set>
       <set comment="band 4">
        <r>  0.0000  0.0000  0.0926  0.1057  0.0000  0.0000  0.0000  0.0000  0.0000 </r>
        <r>  0.0000  0.0000  0.0926  0.1057  0.0000  0.0000  0.0000  0.0000  0.0000 </r>
       </set>
       <set comment="band 5">
        <r>  0.0534  0.0414  0.0000  0.0000  0.0000  0.0000  0.0000  0.0000  0.0000 </r>
        <r>  0.0534  0.0414  0.0000  0.0000  0.0000  0.0000  0.0000  0.0000  0.0000 </r>
       </set>
       <set comment="band 6">
        <r>  0.0487  0.0310  0.0000  0.0000  0.0000  0.0000  0.0000  0.0000  0.0000 </r>
        <r>  0.0487  0.0310  0.0000  0.0000  0.0000  0.0000  0.0000  0.0000  0.0000 </r>
       </set>
       <set comment="band 7">
        <r>  0.0000  0.0000  0.1112  0.0614  0.0000  0.0000  0.0000  0.0000  0.0000 </r>
        <r>  0.0000  0.0000  0.1111  0.0614  0.0000  0.0000  0.0000  0.0000  0.0000 </r>
       </set>
       <set comment="band 8">
        <r>  0.0000  0.0000  0.0621  0.1113  0.0000  0.0000  0.0000  0.0000  0.0000 </r>
        <r>  0.0000  0.0000  0.0620  0.1113  0.0000  0.0000  0.0000  0.0000  0.0000 </r>
       </set>
      </set>
      <set comment="kpoint 76">
       <set comment="band 1">
        <r>  0.1971  0.0373  0.0000  0.0000  0.0000  0.0000  0.0000  0.0000  0.0000 </r>
        <r>  0.1971  0.0373  0.0000  0.0000  0.0000  0.0000  0.0000  0.0000  0.0000 </r>
       </set>
       <set comment="band 2">
        <r>  0.1889  0.0552  0.0000  0.0000  0.0000  0.0000  0.0000  0.0000  0.0000 </r>
        <r>  0.1889  0.0552  0.0000  0.0000  0.0000  0.0000  0.0000  0.0000  0.0000 </r>
       </set>
       <set comment="band 3">
        <r>  0.0000  0.0000  0.1043  0.0940  0.0000  0.0000  0.0000  0.0000  0.0000 </r>
        <r>  0.0000  0.0000  0.1043  0.0940  0.0000  0.0000  0.0000  0.0000  0.0000 </r>
       </set>
       <set comment="band 4">
        <r>  0.0000  0.0000  0.0940  0.1044  0.0000  0.0000  0.0000  0.0000  0.0000 </r>
        <r>  0.0000  0.0000  0.0940  0.1044  0.0000  0.0000  0.0000  0.0000  0.0000 </r>
       </set>
       <set comment="band 5">
        <r>  0.0533  0.0399  0.0000  0.0000  0.0000  0.0000  0.0000  0.0000  0.0000 </r>
        <r>  0.0533  0.0399  0.0000  0.0000  0.0000  0.0000  0.0000  0.0000  0.0000 </r>
       </set>
       <set comment="band 6">
        <r>  0.0494  0.0316  0.0000  0.0000  0.0000  0.0000  0.0000  0.0000  0.0000 </r>
        <r>  0.0494  0.0316  0.0000  0.0000  0.0000  0.0000  0.0000  0.0000  0.0000 </r>
       </set>
       <set comment="band 7">
        <r>  0.0000  0.0000  0.1134  0.0643  0.0000  0.0000  0.0000  0.0000  0.0000 </r>
        <r>  0.0000  0.0000  0.1133  0.0644  0.0000  0.0000  0.0000  0.0000  0.0000 </r>
       </set>
       <set comment="band 8">
        <r>  0.0000  0.0000  0.0653  0.1137  0.0000  0.0000  0.0000  0.0000  0.0000 </r>
        <r>  0.0000  0.0000  0.0653  0.1137  0.0000  0.0000  0.0000  0.0000  0.0000 </r>
       </set>
      </set>
      <set comment="kpoint 77">
       <set comment="band 1">
        <r>  0.1962  0.0393  0.0000  0.0000  0.0000  0.0000  0.0000  0.0000  0.0000 </r>
        <r>  0.1962  0.0393  0.0000  0.0000  0.0000  0.0000  0.0000  0.0000  0.0000 </r>
       </set>
       <set comment="band 2">
        <r>  0.1900  0.0528  0.0000  0.0000  0.0000  0.0000  0.0000  0.0000  0.0000 </r>
        <r>  0.1900  0.0528  0.0000  0.0000  0.0000  0.0000  0.0000  0.0000  0.0000 </r>
       </set>
       <set comment="band 3">
        <r>  0.0000  0.0000  0.1030  0.0954  0.0000  0.0000  0.0000  0.0000  0.0000 </r>
        <r>  0.0000  0.0000  0.1030  0.0954  0.0000  0.0000  0.0000  0.0000  0.0000 </r>
       </set>
       <set comment="band 4">
        <r>  0.0000  0.0000  0.0953  0.1030  0.0000  0.0000  0.0000  0.0000  0.0000 </r>
        <r>  0.0000  0.0000  0.0953  0.1030  0.0000  0.0000  0.0000  0.0000  0.0000 </r>
       </set>
       <set comment="band 5">
        <r>  0.0530  0.0385  0.0000  0.0000  0.0000  0.0000  0.0000  0.0000  0.0000 </r>
        <r>  0.0530  0.0385  0.0000  0.0000  0.0000  0.0000  0.0000  0.0000  0.0000 </r>
       </set>
       <set comment="band 6">
        <r>  0.0501  0.0322  0.0000  0.0000  0.0000  0.0000  0.0000  0.0000  0.0000 </r>
        <r>  0.0501  0.0322  0.0000  0.0000  0.0000  0.0000  0.0000  0.0000  0.0000 </r>
       </set>
       <set comment="band 7">
        <r>  0.0000  0.0000  0.1164  0.0696  0.0000  0.0000  0.0000  0.0000  0.0000 </r>
        <r>  0.0000  0.0000  0.1166  0.0695  0.0000  0.0000  0.0000  0.0000  0.0000 </r>
       </set>
       <set comment="band 8">
        <r>  0.0000  0.0000  0.0716  0.1172  0.0000  0.0000  0.0000  0.0000  0.0000 </r>
        <r>  0.0000  0.0000  0.0715  0.1177  0.0000  0.0000  0.0000  0.0000  0.0000 </r>
       </set>
      </set>
      <set comment="kpoint 78">
       <set comment="band 1">
        <r>  0.1952  0.0414  0.0000  0.0000  0.0000  0.0000  0.0000  0.0000  0.0000 </r>
        <r>  0.1952  0.0414  0.0000  0.0000  0.0000  0.0000  0.0000  0.0000  0.0000 </r>
       </set>
       <set comment="band 2">
        <r>  0.1912  0.0504  0.0000  0.0000  0.0000  0.0000  0.0000  0.0000  0.0000 </r>
        <r>  0.1912  0.0504  0.0000  0.0000  0.0000  0.0000  0.0000  0.0000  0.0000 </r>
       </set>
       <set comment="band 3">
        <r>  0.0000  0.0000  0.1017  0.0966  0.0000  0.0000  0.0000  0.0000  0.0000 </r>
        <r>  0.0000  0.0000  0.1017  0.0966  0.0000  0.0000  0.0000  0.0000  0.0000 </r>
       </set>
       <set comment="band 4">
        <r>  0.0000  0.0000  0.0965  0.1018  0.0000  0.0000  0.0000  0.0000  0.0000 </r>
        <r>  0.0000  0.0000  0.0965  0.1018  0.0000  0.0000  0.0000  0.0000  0.0000 </r>
       </set>
       <set comment="band 5">
        <r>  0.0527  0.0372  0.0000  0.0000  0.0000  0.0000  0.0000  0.0000  0.0000 </r>
        <r>  0.0527  0.0372  0.0000  0.0000  0.0000  0.0000  0.0000  0.0000  0.0000 </r>
       </set>
       <set comment="band 6">
        <r>  0.0508  0.0330  0.0000  0.0000  0.0000  0.0000  0.0000  0.0000  0.0000 </r>
        <r>  0.0508  0.0330  0.0000  0.0000  0.0000  0.0000  0.0000  0.0000  0.0000 </r>
       </set>
       <set comment="band 7">
        <r>  0.0000  0.0000  0.1215  0.0790  0.0000  0.0000  0.0000  0.0000  0.0000 </r>
        <r>  0.0000  0.0000  0.1212  0.0794  0.0000  0.0000  0.0000  0.0000  0.0000 </r>
       </set>
       <set comment="band 8">
        <r>  0.0000  0.0000  0.0822  0.1220  0.0000  0.0000  0.0000  0.0000  0.0000 </r>
        <r>  0.0000  0.0000  0.0824  0.1226  0.0000  0.0000  0.0000  0.0000  0.0000 </r>
       </set>
      </set>
      <set comment="kpoint 79">
       <set comment="band 1">
        <r>  0.1943  0.0436  0.0000  0.0000  0.0000  0.0000  0.0000  0.0000  0.0000 </r>
        <r>  0.1943  0.0436  0.0000  0.0000  0.0000  0.0000  0.0000  0.0000  0.0000 </r>
       </set>
       <set comment="band 2">
        <r>  0.1922  0.0481  0.0000  0.0000  0.0000  0.0000  0.0000  0.0000  0.0000 </r>
        <r>  0.1922  0.0481  0.0000  0.0000  0.0000  0.0000  0.0000  0.0000  0.0000 </r>
       </set>
       <set comment="band 3">
        <r>  0.0000  0.0000  0.1004  0.0979  0.0000  0.0000  0.0000  0.0000  0.0000 </r>
        <r>  0.0000  0.0000  0.1004  0.0979  0.0000  0.0000  0.0000  0.0000  0.0000 </r>
       </set>
       <set comment="band 4">
        <r>  0.0000  0.0000  0.0978  0.1005  0.0000  0.0000  0.0000  0.0000  0.0000 </r>
        <r>  0.0000  0.0000  0.0978  0.1005  0.0000  0.0000  0.0000  0.0000  0.0000 </r>
       </set>
       <set comment="band 5">
        <r>  0.0524  0.0360  0.0000  0.0000  0.0000  0.0000  0.0000  0.0000  0.0000 </r>
        <r>  0.0524  0.0360  0.0000  0.0000  0.0000  0.0000  0.0000  0.0000  0.0000 </r>
       </set>
       <set comment="band 6">
        <r>  0.0514  0.0339  0.0000  0.0000  0.0000  0.0000  0.0000  0.0000  0.0000 </r>
        <r>  0.0514  0.0339  0.0000  0.0000  0.0000  0.0000  0.0000  0.0000  0.0000 </r>
       </set>
       <set comment="band 7">
        <r>  0.0000  0.0000  0.1260  0.0972  0.0000  0.0000  0.0000  0.0000  0.0000 </r>
        <r>  0.0000  0.0000  0.1254  0.0951  0.0000  0.0000  0.0000  0.0000  0.0000 </r>
       </set>
       <set comment="band 8">
        <r>  0.0000  0.0000  0.1029  0.1244  0.0000  0.0000  0.0000  0.0000  0.0000 </r>
        <r>  0.0000  0.0000  0.0996  0.1285  0.0000  0.0000  0.0000  0.0000  0.0000 </r>
       </set>
      </set>
      <set comment="kpoint 80">
       <set comment="band 1">
        <r>  0.0182  0.0873  0.0000  0.0000  0.0000  0.0000  0.0000  0.0000  0.0000 </r>
        <r>  0.3684  0.0043  0.0000  0.0000  0.0000  0.0000  0.0000  0.0000  0.0000 </r>
       </set>
       <set comment="band 2">
        <r>  0.3684  0.0043  0.0000  0.0000  0.0000  0.0000  0.0000  0.0000  0.0000 </r>
        <r>  0.0182  0.0873  0.0000  0.0000  0.0000  0.0000  0.0000  0.0000  0.0000 </r>
       </set>
       <set comment="band 3">
        <r>  0.0000  0.0000  0.0993  0.0991  0.0000  0.0000  0.0000  0.0000  0.0000 </r>
        <r>  0.0000  0.0000  0.0990  0.0993  0.0000  0.0000  0.0000  0.0000  0.0000 </r>
       </set>
       <set comment="band 4">
        <r>  0.0000  0.0000  0.0990  0.0993  0.0000  0.0000  0.0000  0.0000  0.0000 </r>
        <r>  0.0000  0.0000  0.0993  0.0991  0.0000  0.0000  0.0000  0.0000  0.0000 </r>
       </set>
       <set comment="band 5">
        <r>  0.0057  0.0659  0.0000  0.0000  0.0000  0.0000  0.0000  0.0000  0.0000 </r>
        <r>  0.0981  0.0038  0.0000  0.0000  0.0000  0.0000  0.0000  0.0000  0.0000 </r>
       </set>
       <set comment="band 6">
        <r>  0.0981  0.0038  0.0000  0.0000  0.0000  0.0000  0.0000  0.0000  0.0000 </r>
        <r>  0.0057  0.0659  0.0000  0.0000  0.0000  0.0000  0.0000  0.0000  0.0000 </r>
       </set>
       <set comment="band 7">
        <r>  0.0000  0.0000  0.2007  0.0413  0.0000  0.0000  0.0000  0.0000  0.0000 </r>
        <r>  0.0000  0.0000  0.0427  0.1962  0.0000  0.0000  0.0000  0.0000  0.0000 </r>
       </set>
       <set comment="band 8">
        <r>  0.0000  0.0000  0.0381  0.1866  0.0000  0.0000  0.0000  0.0000  0.0000 </r>
        <r>  0.0000  0.0001  0.2051  0.0455  0.0000  0.0000  0.0000  0.0000  0.0000 </r>
       </set>
      </set>
     </set>
    </set>
   </array>
  </projected>
 </calculation>
 <structure name="finalpos" >
  <crystal>
   <varray name="basis" >
    <v>       0.00000000       2.71500000       2.71500000 </v>
    <v>       2.70957000       0.00000000       2.71500000 </v>
    <v>       2.70957000       2.71500000       0.00000000 </v>
   </varray>
   <i name="volume">     39.94570025 </i>
   <varray name="rec_basis" >
    <v>      -0.18453112       0.18416206       0.18416206 </v>
    <v>       0.18453112      -0.18416206       0.18416206 </v>
    <v>       0.18453112       0.18416206      -0.18416206 </v>
   </varray>
  </crystal>
  <varray name="positions" >
   <v>       0.00000000       0.00000000       0.00000000 </v>
   <v>       0.25000000       0.25000000       0.25000000 </v>
  </varray>
 </structure>
</modeling>
