generated by phonopy                    
   1.00000000000000     
     0.0217200000000000    5.4408599999999998    5.4408599999999998
     5.4408599999999998    0.0217200000000000    5.4408599999999998
     5.4408599999999998    5.4408599999999998    0.0217200000000000
   Si
    16
Direct
  0.9988332949542311  0.0001329128856398  0.0001329126479632
  0.5001329129632524  0.0001329128856398  0.0001329126479632
  0.0001329129632524  0.5001329128856398  0.0001329126479632
  0.5001329129632524  0.5001329128856398  0.0001329126479632
  0.0001329129632524  0.0001329128856398  0.5001329126479632
  0.5001329129632524  0.0001329128856398  0.5001329126479632
  0.0001329129632524  0.5001329128856398  0.5001329126479632
  0.5001329129632524  0.5001329128856398  0.5001329126479632
  0.1248670870367476  0.1248670871143602  0.1248670873520368
  0.6248670870367476  0.1248670871143602  0.1248670873520368
  0.1248670870367476  0.6248670871143602  0.1248670873520368
  0.6248670870367476  0.6248670871143602  0.1248670873520368
  0.1248670870367476  0.1248670871143602  0.6248670873520368
  0.6248670870367476  0.1248670871143602  0.6248670873520368
  0.1248670870367476  0.6248670871143602  0.6248670873520368
  0.6248670870367476  0.6248670871143602  0.6248670873520368
 
  0.00000000E+00  0.00000000E+00  0.00000000E+00
  0.00000000E+00  0.00000000E+00  0.00000000E+00
  0.00000000E+00  0.00000000E+00  0.00000000E+00
  0.00000000E+00  0.00000000E+00  0.00000000E+00
  0.00000000E+00  0.00000000E+00  0.00000000E+00
  0.00000000E+00  0.00000000E+00  0.00000000E+00
  0.00000000E+00  0.00000000E+00  0.00000000E+00
  0.00000000E+00  0.00000000E+00  0.00000000E+00
  0.00000000E+00  0.00000000E+00  0.00000000E+00
  0.00000000E+00  0.00000000E+00  0.00000000E+00
  0.00000000E+00  0.00000000E+00  0.00000000E+00
  0.00000000E+00  0.00000000E+00  0.00000000E+00
  0.00000000E+00  0.00000000E+00  0.00000000E+00
  0.00000000E+00  0.00000000E+00  0.00000000E+00
  0.00000000E+00  0.00000000E+00  0.00000000E+00
  0.00000000E+00  0.00000000E+00  0.00000000E+00
