generated by phonopy                    
   1.00000000000000     
    -0.0543000000000000    5.4028499999999999    5.4028499999999999
     5.4028499999999999   -0.0543000000000000    5.4028499999999999
     5.4028499999999999    5.4028499999999999   -0.0543000000000000
   Si
    16
Direct
  0.9983462523455557  0.9996549854838861  0.9996549855809107
  0.4996549855624366  0.9996549854838861  0.9996549855809178
  0.9996549855624366  0.4996549854838861  0.9996549855809107
  0.4996549855624366  0.4996549854838861  0.9996549855809107
  0.9996549855624366  0.9996549854838861  0.4996549855809107
  0.4996549855624366  0.9996549854838861  0.4996549855809107
  0.9996549855624366  0.4996549854838861  0.4996549855809107
  0.4996549855624366  0.4996549854838861  0.4996549855809107
  0.1253450144375634  0.1253450145161139  0.1253450144190822
  0.6253450144375634  0.1253450145161139  0.1253450144190822
  0.1253450144375634  0.6253450145161139  0.1253450144190822
  0.6253450144375634  0.6253450145161139  0.1253450144190822
  0.1253450144375634  0.1253450145161139  0.6253450144190822
  0.6253450144375634  0.1253450145161139  0.6253450144190822
  0.1253450144375634  0.6253450145161139  0.6253450144190822
  0.6253450144375634  0.6253450145161139  0.6253450144190822
 
  0.00000000E+00  0.00000000E+00  0.00000000E+00
  0.00000000E+00  0.00000000E+00  0.00000000E+00
  0.00000000E+00  0.00000000E+00  0.00000000E+00
  0.00000000E+00  0.00000000E+00  0.00000000E+00
  0.00000000E+00  0.00000000E+00  0.00000000E+00
  0.00000000E+00  0.00000000E+00  0.00000000E+00
  0.00000000E+00  0.00000000E+00  0.00000000E+00
  0.00000000E+00  0.00000000E+00  0.00000000E+00
  0.00000000E+00  0.00000000E+00  0.00000000E+00
  0.00000000E+00  0.00000000E+00  0.00000000E+00
  0.00000000E+00  0.00000000E+00  0.00000000E+00
  0.00000000E+00  0.00000000E+00  0.00000000E+00
  0.00000000E+00  0.00000000E+00  0.00000000E+00
  0.00000000E+00  0.00000000E+00  0.00000000E+00
  0.00000000E+00  0.00000000E+00  0.00000000E+00
  0.00000000E+00  0.00000000E+00  0.00000000E+00
