       N       E                     dE             d eps       ncg     rms          rms(c)
DAV:   1     0.904617351795E+01    0.90462E+01   -0.25350E+03  1280   0.504E+02
DAV:   2    -0.512159184706E+01   -0.14168E+02   -0.13265E+02  2192   0.675E+01
DAV:   3    -0.529288389313E+01   -0.17129E+00   -0.17129E+00  1584   0.939E+00
DAV:   4    -0.529353011541E+01   -0.64622E-03   -0.64622E-03  2120   0.607E-01
DAV:   5    -0.529353142077E+01   -0.13054E-05   -0.13053E-05  1568   0.171E-02
DAV:   6    -0.529353144855E+01   -0.27784E-07   -0.27626E-07  1552   0.191E-03
   1 F= -.52935314E+01 E0= -.52935314E+01  d E =-.797696E-11
