Si                                      
   1.00000000000000     
     0.0271500000000000    2.7285749999999998    2.7285749999999998
     2.7285749999999998    0.0271500000000000    2.7285749999999998
     2.7285749999999998    2.7285749999999998    0.0271500000000000
   Si
     2
Direct
  0.0006524823715779  0.0006524947616668  0.0006524562634311
  0.2493475176284221  0.2493475052383332  0.2493475437365689
 
  0.00000000E+00  0.00000000E+00  0.00000000E+00
  0.00000000E+00  0.00000000E+00  0.00000000E+00
