       N       E                     dE             d eps       ncg     rms          rms(c)
DAV:   1     0.920304235071E+01    0.92030E+01   -0.25583E+03  1280   0.508E+02
DAV:   2    -0.509745013843E+01   -0.14300E+02   -0.13388E+02  2072   0.681E+01
DAV:   3    -0.528244773853E+01   -0.18500E+00   -0.18500E+00  1680   0.998E+00
DAV:   4    -0.528312617123E+01   -0.67843E-03   -0.67843E-03  2056   0.609E-01
DAV:   5    -0.528312703709E+01   -0.86586E-06   -0.86586E-06  1624   0.157E-02
DAV:   6    -0.528312705041E+01   -0.13323E-07   -0.13322E-07  1536   0.146E-03
   1 F= -.52831271E+01 E0= -.52831271E+01  d E =-.128237E-13
