       N       E                     dE             d eps       ncg     rms          rms(c)
DAV:   1     0.947248463105E+01    0.94725E+01   -0.25259E+03  3208   0.508E+02
DAV:   2    -0.512224270076E+01   -0.14595E+02   -0.13741E+02  5424   0.672E+01
DAV:   3    -0.531001893515E+01   -0.18778E+00   -0.18774E+00  4200   0.969E+00
DAV:   4    -0.531071731749E+01   -0.69838E-03   -0.69838E-03  5024   0.580E-01
DAV:   5    -0.531071904515E+01   -0.17277E-05   -0.17277E-05  4176   0.182E-02
DAV:   6    -0.531071906910E+01   -0.23943E-07   -0.23888E-07  3976   0.175E-03
   1 F= -.53107191E+01 E0= -.53107191E+01  d E =-.222389E-11
