 vasp.6.3.0 20Jan22 (build Mar 29 2022 17:59:55) complex                        
  
 executed on           IFC91_ompi date 2026.08.28  14:25:33
 running on    1 total cores
 distrk:  each k-point on    1 cores,    1 groups
 distr:  one band on NCORE=   1 cores,    1 groups


--------------------------------------------------------------------------------------------------------


 INCAR:
   ISTART = 0
   ICHARG = 11
   ENCUT = 320
   PREC = Accurate
   ISMEAR = 0
   SIGMA = 0.05
   ISYM = 0
   LORBIT = 11
   GGA = PE

 POTCAR:    PAW_PBE Si 05Jan2001                  
 POTCAR:    PAW_PBE Si 05Jan2001                  
   VRHFIN =Si: s2p2                                                                                 
   LEXCH  = PE                                                                                      
   EATOM  =   103.0669 eV,    7.5752 Ry                                                             
                                                                                                    
   TITEL  = PAW_PBE Si 05Jan2001                                                                    
   LULTRA =        F    use ultrasoft PP ?                                                          
   IUNSCR =        1    unscreen: 0-lin 1-nonlin 2-no                                               
   RPACOR =    1.500    partial core radius                                                         
   POMASS =   28.085; ZVAL   =    4.000    mass and valenz                                          
   RCORE  =    1.900    outmost cutoff radius                                                       
   RWIGS  =    2.480; RWIGS  =    1.312    wigner-seitz radius (au A)                               
   ENMAX  =  245.345; ENMIN  =  184.009 eV                                                          
   ICORE  =        2    local potential                                                             
   LCOR   =        T    correct aug charges                                                         
   LPAW   =        T    paw PP                                                                      
   EAUG   =  322.069                                                                                
   DEXC   =    0.000                                                                                
   RMAX   =    1.950    core radius for proj-oper                                                   
   RAUG   =    1.300    factor for augmentation sphere                                              
   RDEP   =    1.993    radius for radial grids                                                     
   RDEPT  =    1.837    core radius for aug-charge                                                  
                                                                                                    
   Atomic configuration                                                                             
    6 entries                                                                                       
     n  l   j            E        occ.                                                              
     1  0  0.50     -1785.8828   2.0000                                                             
     2  0  0.50      -139.4969   2.0000                                                             
     2  1  1.50       -95.5546   6.0000                                                             
     3  0  0.50       -10.8127   2.0000                                                             
     3  1  0.50        -4.0811   2.0000                                                             
     3  2  1.50        -4.0817   0.0000                                                             
   Description                                                                                      
     l       E           TYP  RCUT    TYP  RCUT                                                     
     0    -10.8127223     23  1.900                                                                 
     0     -7.6451159     23  1.900                                                                 
     1     -4.0811372     23  1.900                                                                 
     1      2.4879257     23  1.900                                                                 
     2     -4.0817478      7  1.900                                                                 
  local pseudopotential read in
  partial core-charges read in
  partial kinetic energy density read in
  atomic valenz-charges read in
  non local Contribution for L=           0  read in
    real space projection operators read in
  non local Contribution for L=           0  read in
    real space projection operators read in
  non local Contribution for L=           1  read in
    real space projection operators read in
  non local Contribution for L=           1  read in
    real space projection operators read in
    PAW grid and wavefunctions read in
 
   number of l-projection  operators is LMAX  =           4
   number of lm-projection operators is LMMAX =           8
 
  PAW_PBE Si 05Jan2001                  :
 energy of atom  1       EATOM= -103.0669
 kinetic energy error for atom=    0.0016 (will be added to EATOM!!)
 
 
 POSCAR: Si
  positions in direct lattice
  velocities in cartesian coordinates
 exchange correlation table for  LEXCH =        8
   RHO(1)=    0.500       N(1)  =     2000
   RHO(2)=  100.500       N(2)  =     4000
 


--------------------------------------------------------------------------------------------------------


 ion  position               nearest neighbor table
   1  0.000  0.000  0.000-   2 2.35   2 2.35   2 2.35   2 2.35
   2  0.250  0.250  0.250-   1 2.35   1 2.35   1 2.35   1 2.35
 

IMPORTANT INFORMATION: All symmetrisations will be switched off!
NOSYMM: (Re-)initialisation of all symmetry stuff for point group C_1.


----------------------------------------------------------------------------------------

                                     Primitive cell                                     

  volume of cell :      40.0258

  direct lattice vectors                    reciprocal lattice vectors
     0.000000000  2.715000000  2.715000000    -0.184162063  0.184162063  0.184162063
     2.715000000  0.000000000  2.715000000     0.184162063 -0.184162063  0.184162063
     2.715000000  2.715000000  0.000000000     0.184162063  0.184162063 -0.184162063

  length of vectors
     3.839589822  3.839589822  3.839589822     0.318978049  0.318978049  0.318978049

  position of ions in fractional coordinates (direct lattice)
     0.000000000  0.000000000  0.000000000
     0.250000000  0.250000000  0.250000000

  ion indices of the primitive-cell ions
   primitive index   ion index
                 1           1
                 2           2

----------------------------------------------------------------------------------------

 
 
 KPOINTS: Delta-valley split path                 

Interpolating k-points between supplied coordinates.

 Line segments in fractional coordinates (reciprocal lattice):
    0.000000  0.500000  0.500000  ...  0.000000  0.000000  0.000000
    0.000000  0.000000  0.000000  ...  0.500000  0.000000  0.500000

 Generated   100 points on each line segment, for a total of    200 k-points:

 Following reciprocal coordinates:
            Coordinates               Weight
  0.000000  0.500000  0.500000      0.005000
  0.000000  0.494949  0.494949      0.005000
  0.000000  0.489899  0.489899      0.005000
  0.000000  0.484848  0.484848      0.005000
  0.000000  0.479798  0.479798      0.005000
  0.000000  0.474747  0.474747      0.005000
  0.000000  0.469697  0.469697      0.005000
  0.000000  0.464646  0.464646      0.005000
  0.000000  0.459596  0.459596      0.005000
  0.000000  0.454545  0.454545      0.005000
  0.000000  0.449495  0.449495      0.005000
  0.000000  0.444444  0.444444      0.005000
  0.000000  0.439394  0.439394      0.005000
  0.000000  0.434343  0.434343      0.005000
  0.000000  0.429293  0.429293      0.005000
  0.000000  0.424242  0.424242      0.005000
  0.000000  0.419192  0.419192      0.005000
  0.000000  0.414141  0.414141      0.005000
  0.000000  0.409091  0.409091      0.005000
  0.000000  0.404040  0.404040      0.005000
  0.000000  0.398990  0.398990      0.005000
  0.000000  0.393939  0.393939      0.005000
  0.000000  0.388889  0.388889      0.005000
  0.000000  0.383838  0.383838      0.005000
  0.000000  0.378788  0.378788      0.005000
  0.000000  0.373737  0.373737      0.005000
  0.000000  0.368687  0.368687      0.005000
  0.000000  0.363636  0.363636      0.005000
  0.000000  0.358586  0.358586      0.005000
  0.000000  0.353535  0.353535      0.005000
  0.000000  0.348485  0.348485      0.005000
  0.000000  0.343434  0.343434      0.005000
  0.000000  0.338384  0.338384      0.005000
  0.000000  0.333333  0.333333      0.005000
  0.000000  0.328283  0.328283      0.005000
  0.000000  0.323232  0.323232      0.005000
  0.000000  0.318182  0.318182      0.005000
  0.000000  0.313131  0.313131      0.005000
  0.000000  0.308081  0.308081      0.005000
  0.000000  0.303030  0.303030      0.005000
  0.000000  0.297980  0.297980      0.005000
  0.000000  0.292929  0.292929      0.005000
  0.000000  0.287879  0.287879      0.005000
  0.000000  0.282828  0.282828      0.005000
  0.000000  0.277778  0.277778      0.005000
  0.000000  0.272727  0.272727      0.005000
  0.000000  0.267677  0.267677      0.005000
  0.000000  0.262626  0.262626      0.005000
  0.000000  0.257576  0.257576      0.005000
  0.000000  0.252525  0.252525      0.005000
  0.000000  0.247475  0.247475      0.005000
  0.000000  0.242424  0.242424      0.005000
  0.000000  0.237374  0.237374      0.005000
  0.000000  0.232323  0.232323      0.005000
  0.000000  0.227273  0.227273      0.005000
  0.000000  0.222222  0.222222      0.005000
  0.000000  0.217172  0.217172      0.005000
  0.000000  0.212121  0.212121      0.005000
  0.000000  0.207071  0.207071      0.005000
  0.000000  0.202020  0.202020      0.005000
  0.000000  0.196970  0.196970      0.005000
  0.000000  0.191919  0.191919      0.005000
  0.000000  0.186869  0.186869      0.005000
  0.000000  0.181818  0.181818      0.005000
  0.000000  0.176768  0.176768      0.005000
  0.000000  0.171717  0.171717      0.005000
  0.000000  0.166667  0.166667      0.005000
  0.000000  0.161616  0.161616      0.005000
  0.000000  0.156566  0.156566      0.005000
  0.000000  0.151515  0.151515      0.005000
  0.000000  0.146465  0.146465      0.005000
  0.000000  0.141414  0.141414      0.005000
  0.000000  0.136364  0.136364      0.005000
  0.000000  0.131313  0.131313      0.005000
  0.000000  0.126263  0.126263      0.005000
  0.000000  0.121212  0.121212      0.005000
  0.000000  0.116162  0.116162      0.005000
  0.000000  0.111111  0.111111      0.005000
  0.000000  0.106061  0.106061      0.005000
  0.000000  0.101010  0.101010      0.005000
  0.000000  0.095960  0.095960      0.005000
  0.000000  0.090909  0.090909      0.005000
  0.000000  0.085859  0.085859      0.005000
  0.000000  0.080808  0.080808      0.005000
  0.000000  0.075758  0.075758      0.005000
  0.000000  0.070707  0.070707      0.005000
  0.000000  0.065657  0.065657      0.005000
  0.000000  0.060606  0.060606      0.005000
  0.000000  0.055556  0.055556      0.005000
  0.000000  0.050505  0.050505      0.005000
  0.000000  0.045455  0.045455      0.005000
  0.000000  0.040404  0.040404      0.005000
  0.000000  0.035354  0.035354      0.005000
  0.000000  0.030303  0.030303      0.005000
  0.000000  0.025253  0.025253      0.005000
  0.000000  0.020202  0.020202      0.005000
  0.000000  0.015152  0.015152      0.005000
  0.000000  0.010101  0.010101      0.005000
  0.000000  0.005051  0.005051      0.005000
  0.000000 -0.000000 -0.000000      0.005000
  0.000000  0.000000  0.000000      0.005000
  0.005051  0.000000  0.005051      0.005000
  0.010101  0.000000  0.010101      0.005000
  0.015152  0.000000  0.015152      0.005000
  0.020202  0.000000  0.020202      0.005000
  0.025253  0.000000  0.025253      0.005000
  0.030303  0.000000  0.030303      0.005000
  0.035354  0.000000  0.035354      0.005000
  0.040404  0.000000  0.040404      0.005000
  0.045455  0.000000  0.045455      0.005000
  0.050505  0.000000  0.050505      0.005000
  0.055556  0.000000  0.055556      0.005000
  0.060606  0.000000  0.060606      0.005000
  0.065657  0.000000  0.065657      0.005000
  0.070707  0.000000  0.070707      0.005000
  0.075758  0.000000  0.075758      0.005000
  0.080808  0.000000  0.080808      0.005000
  0.085859  0.000000  0.085859      0.005000
  0.090909  0.000000  0.090909      0.005000
  0.095960  0.000000  0.095960      0.005000
  0.101010  0.000000  0.101010      0.005000
  0.106061  0.000000  0.106061      0.005000
  0.111111  0.000000  0.111111      0.005000
  0.116162  0.000000  0.116162      0.005000
  0.121212  0.000000  0.121212      0.005000
  0.126263  0.000000  0.126263      0.005000
  0.131313  0.000000  0.131313      0.005000
  0.136364  0.000000  0.136364      0.005000
  0.141414  0.000000  0.141414      0.005000
  0.146465  0.000000  0.146465      0.005000
  0.151515  0.000000  0.151515      0.005000
  0.156566  0.000000  0.156566      0.005000
  0.161616  0.000000  0.161616      0.005000
  0.166667  0.000000  0.166667      0.005000
  0.171717  0.000000  0.171717      0.005000
  0.176768  0.000000  0.176768      0.005000
  0.181818  0.000000  0.181818      0.005000
  0.186869  0.000000  0.186869      0.005000
  0.191919  0.000000  0.191919      0.005000
  0.196970  0.000000  0.196970      0.005000
  0.202020  0.000000  0.202020      0.005000
  0.207071  0.000000  0.207071      0.005000
  0.212121  0.000000  0.212121      0.005000
  0.217172  0.000000  0.217172      0.005000
  0.222222  0.000000  0.222222      0.005000
  0.227273  0.000000  0.227273      0.005000
  0.232323  0.000000  0.232323      0.005000
  0.237374  0.000000  0.237374      0.005000
  0.242424  0.000000  0.242424      0.005000
  0.247475  0.000000  0.247475      0.005000
  0.252525  0.000000  0.252525      0.005000
  0.257576  0.000000  0.257576      0.005000
  0.262626  0.000000  0.262626      0.005000
  0.267677  0.000000  0.267677      0.005000
  0.272727  0.000000  0.272727      0.005000
  0.277778  0.000000  0.277778      0.005000
  0.282828  0.000000  0.282828      0.005000
  0.287879  0.000000  0.287879      0.005000
  0.292929  0.000000  0.292929      0.005000
  0.297980  0.000000  0.297980      0.005000
  0.303030  0.000000  0.303030      0.005000
  0.308081  0.000000  0.308081      0.005000
  0.313131  0.000000  0.313131      0.005000
  0.318182  0.000000  0.318182      0.005000
  0.323232  0.000000  0.323232      0.005000
  0.328283  0.000000  0.328283      0.005000
  0.333333  0.000000  0.333333      0.005000
  0.338384  0.000000  0.338384      0.005000
  0.343434  0.000000  0.343434      0.005000
  0.348485  0.000000  0.348485      0.005000
  0.353535  0.000000  0.353535      0.005000
  0.358586  0.000000  0.358586      0.005000
  0.363636  0.000000  0.363636      0.005000
  0.368687  0.000000  0.368687      0.005000
  0.373737  0.000000  0.373737      0.005000
  0.378788  0.000000  0.378788      0.005000
  0.383838  0.000000  0.383838      0.005000
  0.388889  0.000000  0.388889      0.005000
  0.393939  0.000000  0.393939      0.005000
  0.398990  0.000000  0.398990      0.005000
  0.404040  0.000000  0.404040      0.005000
  0.409091  0.000000  0.409091      0.005000
  0.414141  0.000000  0.414141      0.005000
  0.419192  0.000000  0.419192      0.005000
  0.424242  0.000000  0.424242      0.005000
  0.429293  0.000000  0.429293      0.005000
  0.434343  0.000000  0.434343      0.005000
  0.439394  0.000000  0.439394      0.005000
  0.444444  0.000000  0.444444      0.005000
  0.449495  0.000000  0.449495      0.005000
  0.454545  0.000000  0.454545      0.005000
  0.459596  0.000000  0.459596      0.005000
  0.464646  0.000000  0.464646      0.005000
  0.469697  0.000000  0.469697      0.005000
  0.474747  0.000000  0.474747      0.005000
  0.479798  0.000000  0.479798      0.005000
  0.484848  0.000000  0.484848      0.005000
  0.489899  0.000000  0.489899      0.005000
  0.494949  0.000000  0.494949      0.005000
  0.500000  0.000000  0.500000      0.005000

 Following cartesian coordinates:
            Coordinates               Weight
  0.184162  0.000000  0.000000      0.005000
  0.182302 -0.000000  0.000000      0.005000
  0.180442  0.000000 -0.000000      0.005000
  0.178581  0.000000 -0.000000      0.005000
  0.176721 -0.000000  0.000000      0.005000
  0.174861 -0.000000  0.000000      0.005000
  0.173001  0.000000 -0.000000      0.005000
  0.171141  0.000000 -0.000000      0.005000
  0.169280 -0.000000  0.000000      0.005000
  0.167420 -0.000000  0.000000      0.005000
  0.165560  0.000000 -0.000000      0.005000
  0.163700  0.000000 -0.000000      0.005000
  0.161839 -0.000000  0.000000      0.005000
  0.159979  0.000000 -0.000000      0.005000
  0.158119  0.000000 -0.000000      0.005000
  0.156259 -0.000000  0.000000      0.005000
  0.154398 -0.000000  0.000000      0.005000
  0.152538  0.000000 -0.000000      0.005000
  0.150678  0.000000 -0.000000      0.005000
  0.148818 -0.000000  0.000000      0.005000
  0.146958  0.000000 -0.000000      0.005000
  0.145097  0.000000 -0.000000      0.005000
  0.143237 -0.000000  0.000000      0.005000
  0.141377 -0.000000  0.000000      0.005000
  0.139517  0.000000 -0.000000      0.005000
  0.137656  0.000000 -0.000000      0.005000
  0.135796 -0.000000  0.000000      0.005000
  0.133936  0.000000 -0.000000      0.005000
  0.132076  0.000000 -0.000000      0.005000
  0.130216 -0.000000  0.000000      0.005000
  0.128355 -0.000000  0.000000      0.005000
  0.126495  0.000000 -0.000000      0.005000
  0.124635  0.000000 -0.000000      0.005000
  0.122775 -0.000000  0.000000      0.005000
  0.120914 -0.000000  0.000000      0.005000
  0.119054  0.000000 -0.000000      0.005000
  0.117194 -0.000000  0.000000      0.005000
  0.115334  0.000000 -0.000000      0.005000
  0.113474 -0.000000  0.000000      0.005000
  0.111613 -0.000000  0.000000      0.005000
  0.109753 -0.000000  0.000000      0.005000
  0.107893 -0.000000  0.000000      0.005000
  0.106033 -0.000000  0.000000      0.005000
  0.104172 -0.000000  0.000000      0.005000
  0.102312 -0.000000  0.000000      0.005000
  0.100452 -0.000000  0.000000      0.005000
  0.098592 -0.000000  0.000000      0.005000
  0.096732 -0.000000  0.000000      0.005000
  0.094871 -0.000000  0.000000      0.005000
  0.093011 -0.000000  0.000000      0.005000
  0.091151 -0.000000  0.000000      0.005000
  0.089291  0.000000 -0.000000      0.005000
  0.087430 -0.000000  0.000000      0.005000
  0.085570  0.000000 -0.000000      0.005000
  0.083710 -0.000000  0.000000      0.005000
  0.081850  0.000000 -0.000000      0.005000
  0.079990  0.000000 -0.000000      0.005000
  0.078129 -0.000000  0.000000      0.005000
  0.076269  0.000000 -0.000000      0.005000
  0.074409 -0.000000  0.000000      0.005000
  0.072549  0.000000 -0.000000      0.005000
  0.070688 -0.000000  0.000000      0.005000
  0.068828  0.000000 -0.000000      0.005000
  0.066968 -0.000000  0.000000      0.005000
  0.065108  0.000000 -0.000000      0.005000
  0.063248 -0.000000  0.000000      0.005000
  0.061387  0.000000 -0.000000      0.005000
  0.059527 -0.000000  0.000000      0.005000
  0.057667  0.000000 -0.000000      0.005000
  0.055807  0.000000 -0.000000      0.005000
  0.053946  0.000000 -0.000000      0.005000
  0.052086  0.000000 -0.000000      0.005000
  0.050226  0.000000 -0.000000      0.005000
  0.048366  0.000000 -0.000000      0.005000
  0.046506 -0.000000  0.000000      0.005000
  0.044645 -0.000000  0.000000      0.005000
  0.042785 -0.000000  0.000000      0.005000
  0.040925 -0.000000  0.000000      0.005000
  0.039065  0.000000 -0.000000      0.005000
  0.037204  0.000000 -0.000000      0.005000
  0.035344  0.000000 -0.000000      0.005000
  0.033484  0.000000 -0.000000      0.005000
  0.031624 -0.000000  0.000000      0.005000
  0.029764 -0.000000  0.000000      0.005000
  0.027903  0.000000 -0.000000      0.005000
  0.026043 -0.000000  0.000000      0.005000
  0.024183 -0.000000  0.000000      0.005000
  0.022323 -0.000000  0.000000      0.005000
  0.020462  0.000000 -0.000000      0.005000
  0.018602 -0.000000  0.000000      0.005000
  0.016742 -0.000000  0.000000      0.005000
  0.014882  0.000000 -0.000000      0.005000
  0.013022  0.000000 -0.000000      0.005000
  0.011161  0.000000 -0.000000      0.005000
  0.009301 -0.000000  0.000000      0.005000
  0.007441  0.000000 -0.000000      0.005000
  0.005581  0.000000 -0.000000      0.005000
  0.003720  0.000000 -0.000000      0.005000
  0.001860 -0.000000  0.000000      0.005000
 -0.000000  0.000000 -0.000000      0.005000
  0.000000  0.000000  0.000000      0.005000
 -0.000000  0.001860  0.000000      0.005000
 -0.000000  0.003720  0.000000      0.005000
  0.000000  0.005581 -0.000000      0.005000
 -0.000000  0.007441  0.000000      0.005000
  0.000000  0.009301 -0.000000      0.005000
  0.000000  0.011161 -0.000000      0.005000
  0.000000  0.013022 -0.000000      0.005000
 -0.000000  0.014882  0.000000      0.005000
  0.000000  0.016742 -0.000000      0.005000
  0.000000  0.018602 -0.000000      0.005000
 -0.000000  0.020462  0.000000      0.005000
  0.000000  0.022323 -0.000000      0.005000
  0.000000  0.024183 -0.000000      0.005000
  0.000000  0.026043 -0.000000      0.005000
 -0.000000  0.027903  0.000000      0.005000
 -0.000000  0.029764  0.000000      0.005000
  0.000000  0.031624 -0.000000      0.005000
  0.000000  0.033484 -0.000000      0.005000
  0.000000  0.035344 -0.000000      0.005000
  0.000000  0.037204 -0.000000      0.005000
 -0.000000  0.039065  0.000000      0.005000
 -0.000000  0.040925  0.000000      0.005000
 -0.000000  0.042785  0.000000      0.005000
  0.000000  0.044645 -0.000000      0.005000
  0.000000  0.046506 -0.000000      0.005000
  0.000000  0.048366 -0.000000      0.005000
  0.000000  0.050226 -0.000000      0.005000
  0.000000  0.052086 -0.000000      0.005000
 -0.000000  0.053946  0.000000      0.005000
 -0.000000  0.055807  0.000000      0.005000
 -0.000000  0.057667  0.000000      0.005000
 -0.000000  0.059527  0.000000      0.005000
 -0.000000  0.061387  0.000000      0.005000
  0.000000  0.063248 -0.000000      0.005000
 -0.000000  0.065108  0.000000      0.005000
  0.000000  0.066968 -0.000000      0.005000
 -0.000000  0.068828  0.000000      0.005000
  0.000000  0.070688 -0.000000      0.005000
 -0.000000  0.072549  0.000000      0.005000
  0.000000  0.074409 -0.000000      0.005000
 -0.000000  0.076269  0.000000      0.005000
 -0.000000  0.078129  0.000000      0.005000
  0.000000  0.079990 -0.000000      0.005000
 -0.000000  0.081850  0.000000      0.005000
  0.000000  0.083710 -0.000000      0.005000
 -0.000000  0.085570  0.000000      0.005000
  0.000000  0.087430 -0.000000      0.005000
  0.000000  0.089291 -0.000000      0.005000
 -0.000000  0.091151  0.000000      0.005000
  0.000000  0.093011 -0.000000      0.005000
  0.000000  0.094871 -0.000000      0.005000
  0.000000  0.096732 -0.000000      0.005000
 -0.000000  0.098592  0.000000      0.005000
  0.000000  0.100452 -0.000000      0.005000
 -0.000000  0.102312  0.000000      0.005000
  0.000000  0.104172 -0.000000      0.005000
  0.000000  0.106033 -0.000000      0.005000
 -0.000000  0.107893  0.000000      0.005000
  0.000000  0.109753 -0.000000      0.005000
 -0.000000  0.111613  0.000000      0.005000
  0.000000  0.113474 -0.000000      0.005000
 -0.000000  0.115334  0.000000      0.005000
  0.000000  0.117194 -0.000000      0.005000
 -0.000000  0.119054  0.000000      0.005000
 -0.000000  0.120914  0.000000      0.005000
 -0.000000  0.122775  0.000000      0.005000
 -0.000000  0.124635  0.000000      0.005000
  0.000000  0.126495 -0.000000      0.005000
  0.000000  0.128355 -0.000000      0.005000
 -0.000000  0.130216  0.000000      0.005000
 -0.000000  0.132076  0.000000      0.005000
  0.000000  0.133936 -0.000000      0.005000
  0.000000  0.135796 -0.000000      0.005000
 -0.000000  0.137656  0.000000      0.005000
 -0.000000  0.139517  0.000000      0.005000
  0.000000  0.141377 -0.000000      0.005000
 -0.000000  0.143237  0.000000      0.005000
 -0.000000  0.145097  0.000000      0.005000
  0.000000  0.146958 -0.000000      0.005000
  0.000000  0.148818 -0.000000      0.005000
 -0.000000  0.150678  0.000000      0.005000
 -0.000000  0.152538  0.000000      0.005000
  0.000000  0.154398 -0.000000      0.005000
 -0.000000  0.156259  0.000000      0.005000
 -0.000000  0.158119  0.000000      0.005000
  0.000000  0.159979 -0.000000      0.005000
  0.000000  0.161839 -0.000000      0.005000
 -0.000000  0.163700  0.000000      0.005000
 -0.000000  0.165560  0.000000      0.005000
  0.000000  0.167420 -0.000000      0.005000
 -0.000000  0.169280  0.000000      0.005000
 -0.000000  0.171141  0.000000      0.005000
  0.000000  0.173001 -0.000000      0.005000
  0.000000  0.174861 -0.000000      0.005000
 -0.000000  0.176721  0.000000      0.005000
  0.000000  0.178581 -0.000000      0.005000
  0.000000  0.180442 -0.000000      0.005000
 -0.000000  0.182302  0.000000      0.005000
  0.000000  0.184162  0.000000      0.005000
 


--------------------------------------------------------------------------------------------------------




 Dimension of arrays:
   k-points           NKPTS =    200   k-points in BZ     NKDIM =    200   number of bands    NBANDS=      8
   number of dos      NEDOS =    301   number of ions     NIONS =      2
   non local maximal  LDIM  =      4   non local SUM 2l+1 LMDIM =      8
   total plane-waves  NPLWV =  13824
   max r-space proj   IRMAX =      1   max aug-charges    IRDMAX=  11746
   dimension x,y,z NGX =    24 NGY =   24 NGZ =   24
   dimension x,y,z NGXF=    48 NGYF=   48 NGZF=   48
   support grid    NGXF=    48 NGYF=   48 NGZF=   48
   ions per type =               2
   NGX,Y,Z   is equivalent  to a cutoff of  10.39, 10.39, 10.39 a.u.
   NGXF,Y,Z  is equivalent  to a cutoff of  20.78, 20.78, 20.78 a.u.

 SYSTEM =  unknown system                          
 POSCAR =  Si                                      

 Startparameter for this run:
   NWRITE =      2    write-flag & timer
   PREC   = accura    normal or accurate (medium, high low for compatibility)
   ISTART =      0    job   : 0-new  1-cont  2-samecut
   ICHARG =     11    charge: 1-file 2-atom 10-const
   ISPIN  =      1    spin polarized calculation?
   LNONCOLLINEAR =      F non collinear calculations
   LSORBIT =      F    spin-orbit coupling
   INIWAV =      1    electr: 0-lowe 1-rand  2-diag
   LASPH  =      F    aspherical Exc in radial PAW
 Electronic Relaxation 1
   ENCUT  =  320.0 eV  23.52 Ry    4.85 a.u.   5.60  5.60  5.60*2*pi/ulx,y,z
   ENINI  =  320.0     initial cutoff
   ENAUG  =  322.1 eV  augmentation charge cutoff
   NELM   =     60;   NELMIN=  2; NELMDL= -5     # of ELM steps 
   EDIFF  = 0.1E-03   stopping-criterion for ELM
   LREAL  =      F    real-space projection
   NLSPLINE    = F    spline interpolate recip. space projectors
   LCOMPAT=      F    compatible to vasp.4.4
   GGA_COMPAT  = T    GGA compatible to vasp.4.4-vasp.4.6
   LMAXPAW     = -100 max onsite density
   LMAXMIX     =    2 max onsite mixed and CHGCAR
   VOSKOWN=      0    Vosko Wilk Nusair interpolation
   ROPT   =    0.00000
 Ionic relaxation
   EDIFFG = 0.1E-02   stopping-criterion for IOM
   NSW    =      0    number of steps for IOM
   NBLOCK =      1;   KBLOCK =      1    inner block; outer block 
   IBRION =     -1    ionic relax: 0-MD 1-quasi-New 2-CG
   NFREE  =      0    steps in history (QN), initial steepest desc. (CG)
   ISIF   =      2    stress and relaxation
   IWAVPR =     10    prediction:  0-non 1-charg 2-wave 3-comb
   ISYM   =      0    0-nonsym 1-usesym 2-fastsym
   LCORR  =      T    Harris-Foulkes like correction to forces

   POTIM  = 0.5000    time-step for ionic-motion
   TEIN   =    0.0    initial temperature
   TEBEG  =    0.0;   TEEND  =   0.0 temperature during run
   SMASS  =  -3.00    Nose mass-parameter (am)
   estimated Nose-frequenzy (Omega)   =  0.10E-29 period in steps = 0.13E+47 mass=  -0.337E-27a.u.
   SCALEE = 1.0000    scale energy and forces
   NPACO  =    256;   APACO  = 10.0  distance and # of slots for P.C.
   PSTRESS=    0.0 pullay stress

  Mass of Ions in am
   POMASS =  28.09
  Ionic Valenz
   ZVAL   =   4.00
  Atomic Wigner-Seitz radii
   RWIGS  =  -1.00
  virtual crystal weights 
   VCA    =   1.00
   NELECT =       8.0000    total number of electrons
   NUPDOWN=      -1.0000    fix difference up-down

 DOS related values:
   EMIN   =  10.00;   EMAX   =-10.00  energy-range for DOS
   EFERMI =   0.00
   ISMEAR =     0;   SIGMA  =   0.05  broadening in eV -4-tet -1-fermi 0-gaus

 Electronic relaxation 2 (details)
   IALGO  =     38    algorithm
   LDIAG  =      T    sub-space diagonalisation (order eigenvalues)
   LSUBROT=      F    optimize rotation matrix (better conditioning)
   TURBO    =      0    0=normal 1=particle mesh
   IRESTART =      0    0=no restart 2=restart with 2 vectors
   NREBOOT  =      0    no. of reboots
   NMIN     =      0    reboot dimension
   EREF     =   0.00    reference energy to select bands
   IMIX   =      4    mixing-type and parameters
     AMIX     =   0.40;   BMIX     =  1.00
     AMIX_MAG =   1.60;   BMIX_MAG =  1.00
     AMIN     =   0.10
     WC   =   100.;   INIMIX=   1;  MIXPRE=   1;  MAXMIX= -45

 Intra band minimization:
   WEIMIN = 0.0000     energy-eigenvalue tresh-hold
   EBREAK =  0.31E-05  absolut break condition
   DEPER  =   0.30     relativ break condition  

   TIME   =   0.40     timestep for ELM

  volume/ion in A,a.u.               =      20.01       135.05
  Fermi-wavevector in a.u.,A,eV,Ry     =   0.957176  1.808800 12.465458  0.916185
  Thomas-Fermi vector in A             =   2.086170
 
 Write flags
   LWAVE        =      T    write WAVECAR
   LDOWNSAMPLE  =      F    k-point downsampling of WAVECAR
   LCHARG       =      T    write CHGCAR
   LVTOT        =      F    write LOCPOT, total local potential
   LVHAR        =      F    write LOCPOT, Hartree potential only
   LELF         =      F    write electronic localiz. function (ELF)
   LORBIT       =     11    0 simple, 1 ext, 2 COOP (PROOUT), +10 PAW based schemes


 Dipole corrections
   LMONO  =      F    monopole corrections only (constant potential shift)
   LDIPOL =      F    correct potential (dipole corrections)
   IDIPOL =      0    1-x, 2-y, 3-z, 4-all directions 
   EPSILON=  1.0000000 bulk dielectric constant

 Exchange correlation treatment:
   GGA     =    PE    GGA type
   LEXCH   =     8    internal setting for exchange type
   LIBXC   =     F    Libxc                    
   VOSKOWN =     0    Vosko Wilk Nusair interpolation
   LHFCALC =     F    Hartree Fock is set to
   LHFONE  =     F    Hartree Fock one center treatment
   AEXX    =    0.0000 exact exchange contribution

 Linear response parameters
   LEPSILON=     F    determine dielectric tensor
   LRPA    =     F    only Hartree local field effects (RPA)
   LNABLA  =     F    use nabla operator in PAW spheres
   LVEL    =     F    velocity operator in full k-point grid
   CSHIFT  =0.1000    complex shift for real part using Kramers Kronig
   OMEGAMAX=  -1.0    maximum frequency
   DEG_THRESHOLD= 0.2000000E-02 threshold for treating states as degnerate
   RTIME   =   -0.100 relaxation time in fs
  (WPLASMAI=    0.000 imaginary part of plasma frequency in eV, 0.658/RTIME)
   DFIELD  = 0.0000000 0.0000000 0.0000000 field for delta impulse in time
 
  Optional k-point grid parameters
   LKPOINTS_OPT  =     F    use optional k-point grid
   KPOINTS_OPT_MODE=     1    mode for optional k-point grid
 
 Orbital magnetization related:
   ORBITALMAG=     F  switch on orbital magnetization
   LCHIMAG   =     F  perturbation theory with respect to B field
   DQ        =  0.001000  dq finite difference perturbation B field
   LLRAUG    =     F  two centre corrections for induced B field



--------------------------------------------------------------------------------------------------------


 Static calculation
 charge density and potential remain constant during run
 non-spin polarized calculation
 Variant of blocked Davidson
 Davidson routine will perform the subspace rotation
 perform sub-space diagonalisation
    after iterative eigenvector-optimisation
 no mixing
 using additional bands            4
 reciprocal scheme for non local part
 use partial core corrections
 calculate Harris-corrections to forces 
   (improved forces if not selfconsistent)
 use gradient corrections 
 WARNING: stress and forces are not correct
  (second derivative of E(xc) not defined)
 use of overlap-Matrix (Vanderbilt PP)
 Gauss-broadening in eV      SIGMA  =   0.05


--------------------------------------------------------------------------------------------------------


  energy-cutoff  :      320.00
  volume of cell :       40.03
      direct lattice vectors                 reciprocal lattice vectors
     0.000000000  2.715000000  2.715000000    -0.184162063  0.184162063  0.184162063
     2.715000000  0.000000000  2.715000000     0.184162063 -0.184162063  0.184162063
     2.715000000  2.715000000  0.000000000     0.184162063  0.184162063 -0.184162063

  length of vectors
     3.839589822  3.839589822  3.839589822     0.318978049  0.318978049  0.318978049


 
 k-points in units of 2pi/SCALE and weight: Delta-valley split path                 
   0.18416206  0.00000000  0.00000000       0.005
   0.18230184 -0.00000000  0.00000000       0.005
   0.18044162  0.00000000 -0.00000000       0.005
   0.17858139  0.00000000 -0.00000000       0.005
   0.17672117 -0.00000000  0.00000000       0.005
   0.17486095 -0.00000000  0.00000000       0.005
   0.17300073  0.00000000 -0.00000000       0.005
   0.17114050  0.00000000 -0.00000000       0.005
   0.16928028 -0.00000000  0.00000000       0.005
   0.16742006 -0.00000000  0.00000000       0.005
   0.16555983  0.00000000 -0.00000000       0.005
   0.16369961  0.00000000 -0.00000000       0.005
   0.16183939 -0.00000000  0.00000000       0.005
   0.15997917  0.00000000 -0.00000000       0.005
   0.15811894  0.00000000 -0.00000000       0.005
   0.15625872 -0.00000000  0.00000000       0.005
   0.15439850 -0.00000000  0.00000000       0.005
   0.15253827  0.00000000 -0.00000000       0.005
   0.15067805  0.00000000 -0.00000000       0.005
   0.14881783 -0.00000000  0.00000000       0.005
   0.14695761  0.00000000 -0.00000000       0.005
   0.14509738  0.00000000 -0.00000000       0.005
   0.14323716 -0.00000000  0.00000000       0.005
   0.14137694 -0.00000000  0.00000000       0.005
   0.13951671  0.00000000 -0.00000000       0.005
   0.13765649  0.00000000 -0.00000000       0.005
   0.13579627 -0.00000000  0.00000000       0.005
   0.13393605  0.00000000 -0.00000000       0.005
   0.13207582  0.00000000 -0.00000000       0.005
   0.13021560 -0.00000000  0.00000000       0.005
   0.12835538 -0.00000000  0.00000000       0.005
   0.12649515  0.00000000 -0.00000000       0.005
   0.12463493  0.00000000 -0.00000000       0.005
   0.12277471 -0.00000000  0.00000000       0.005
   0.12091449 -0.00000000  0.00000000       0.005
   0.11905426  0.00000000 -0.00000000       0.005
   0.11719404 -0.00000000  0.00000000       0.005
   0.11533382  0.00000000 -0.00000000       0.005
   0.11347359 -0.00000000  0.00000000       0.005
   0.11161337 -0.00000000  0.00000000       0.005
   0.10975315 -0.00000000  0.00000000       0.005
   0.10789293 -0.00000000  0.00000000       0.005
   0.10603270 -0.00000000  0.00000000       0.005
   0.10417248 -0.00000000  0.00000000       0.005
   0.10231226 -0.00000000  0.00000000       0.005
   0.10045203 -0.00000000  0.00000000       0.005
   0.09859181 -0.00000000  0.00000000       0.005
   0.09673159 -0.00000000  0.00000000       0.005
   0.09487137 -0.00000000  0.00000000       0.005
   0.09301114 -0.00000000  0.00000000       0.005
   0.09115092 -0.00000000  0.00000000       0.005
   0.08929070  0.00000000 -0.00000000       0.005
   0.08743047 -0.00000000  0.00000000       0.005
   0.08557025  0.00000000 -0.00000000       0.005
   0.08371003 -0.00000000  0.00000000       0.005
   0.08184981  0.00000000 -0.00000000       0.005
   0.07998958  0.00000000 -0.00000000       0.005
   0.07812936 -0.00000000  0.00000000       0.005
   0.07626914  0.00000000 -0.00000000       0.005
   0.07440891 -0.00000000  0.00000000       0.005
   0.07254869  0.00000000 -0.00000000       0.005
   0.07068847 -0.00000000  0.00000000       0.005
   0.06882825  0.00000000 -0.00000000       0.005
   0.06696802 -0.00000000  0.00000000       0.005
   0.06510780  0.00000000 -0.00000000       0.005
   0.06324758 -0.00000000  0.00000000       0.005
   0.06138735  0.00000000 -0.00000000       0.005
   0.05952713 -0.00000000  0.00000000       0.005
   0.05766691  0.00000000 -0.00000000       0.005
   0.05580669  0.00000000 -0.00000000       0.005
   0.05394646  0.00000000 -0.00000000       0.005
   0.05208624  0.00000000 -0.00000000       0.005
   0.05022602  0.00000000 -0.00000000       0.005
   0.04836579  0.00000000 -0.00000000       0.005
   0.04650557 -0.00000000  0.00000000       0.005
   0.04464535 -0.00000000  0.00000000       0.005
   0.04278513 -0.00000000  0.00000000       0.005
   0.04092490 -0.00000000  0.00000000       0.005
   0.03906468  0.00000000 -0.00000000       0.005
   0.03720446  0.00000000 -0.00000000       0.005
   0.03534423  0.00000000 -0.00000000       0.005
   0.03348401  0.00000000 -0.00000000       0.005
   0.03162379 -0.00000000  0.00000000       0.005
   0.02976357 -0.00000000  0.00000000       0.005
   0.02790334  0.00000000 -0.00000000       0.005
   0.02604312 -0.00000000  0.00000000       0.005
   0.02418290 -0.00000000  0.00000000       0.005
   0.02232267 -0.00000000  0.00000000       0.005
   0.02046245  0.00000000 -0.00000000       0.005
   0.01860223 -0.00000000  0.00000000       0.005
   0.01674201 -0.00000000  0.00000000       0.005
   0.01488178  0.00000000 -0.00000000       0.005
   0.01302156  0.00000000 -0.00000000       0.005
   0.01116134  0.00000000 -0.00000000       0.005
   0.00930111 -0.00000000  0.00000000       0.005
   0.00744089  0.00000000 -0.00000000       0.005
   0.00558067  0.00000000 -0.00000000       0.005
   0.00372045  0.00000000 -0.00000000       0.005
   0.00186022 -0.00000000  0.00000000       0.005
  -0.00000000  0.00000000 -0.00000000       0.005
   0.00000000  0.00000000  0.00000000       0.005
  -0.00000000  0.00186022  0.00000000       0.005
  -0.00000000  0.00372045  0.00000000       0.005
   0.00000000  0.00558067 -0.00000000       0.005
  -0.00000000  0.00744089  0.00000000       0.005
   0.00000000  0.00930111 -0.00000000       0.005
   0.00000000  0.01116134 -0.00000000       0.005
   0.00000000  0.01302156 -0.00000000       0.005
  -0.00000000  0.01488178  0.00000000       0.005
   0.00000000  0.01674201 -0.00000000       0.005
   0.00000000  0.01860223 -0.00000000       0.005
  -0.00000000  0.02046245  0.00000000       0.005
   0.00000000  0.02232267 -0.00000000       0.005
   0.00000000  0.02418290 -0.00000000       0.005
   0.00000000  0.02604312 -0.00000000       0.005
  -0.00000000  0.02790334  0.00000000       0.005
  -0.00000000  0.02976357  0.00000000       0.005
   0.00000000  0.03162379 -0.00000000       0.005
   0.00000000  0.03348401 -0.00000000       0.005
   0.00000000  0.03534423 -0.00000000       0.005
   0.00000000  0.03720446 -0.00000000       0.005
  -0.00000000  0.03906468  0.00000000       0.005
  -0.00000000  0.04092490  0.00000000       0.005
  -0.00000000  0.04278513  0.00000000       0.005
   0.00000000  0.04464535 -0.00000000       0.005
   0.00000000  0.04650557 -0.00000000       0.005
   0.00000000  0.04836579 -0.00000000       0.005
   0.00000000  0.05022602 -0.00000000       0.005
   0.00000000  0.05208624 -0.00000000       0.005
  -0.00000000  0.05394646  0.00000000       0.005
  -0.00000000  0.05580669  0.00000000       0.005
  -0.00000000  0.05766691  0.00000000       0.005
  -0.00000000  0.05952713  0.00000000       0.005
  -0.00000000  0.06138735  0.00000000       0.005
   0.00000000  0.06324758 -0.00000000       0.005
  -0.00000000  0.06510780  0.00000000       0.005
   0.00000000  0.06696802 -0.00000000       0.005
  -0.00000000  0.06882825  0.00000000       0.005
   0.00000000  0.07068847 -0.00000000       0.005
  -0.00000000  0.07254869  0.00000000       0.005
   0.00000000  0.07440891 -0.00000000       0.005
  -0.00000000  0.07626914  0.00000000       0.005
  -0.00000000  0.07812936  0.00000000       0.005
   0.00000000  0.07998958 -0.00000000       0.005
  -0.00000000  0.08184981  0.00000000       0.005
   0.00000000  0.08371003 -0.00000000       0.005
  -0.00000000  0.08557025  0.00000000       0.005
   0.00000000  0.08743047 -0.00000000       0.005
   0.00000000  0.08929070 -0.00000000       0.005
  -0.00000000  0.09115092  0.00000000       0.005
   0.00000000  0.09301114 -0.00000000       0.005
   0.00000000  0.09487137 -0.00000000       0.005
   0.00000000  0.09673159 -0.00000000       0.005
  -0.00000000  0.09859181  0.00000000       0.005
   0.00000000  0.10045203 -0.00000000       0.005
  -0.00000000  0.10231226  0.00000000       0.005
   0.00000000  0.10417248 -0.00000000       0.005
   0.00000000  0.10603270 -0.00000000       0.005
  -0.00000000  0.10789293  0.00000000       0.005
   0.00000000  0.10975315 -0.00000000       0.005
  -0.00000000  0.11161337  0.00000000       0.005
   0.00000000  0.11347359 -0.00000000       0.005
  -0.00000000  0.11533382  0.00000000       0.005
   0.00000000  0.11719404 -0.00000000       0.005
  -0.00000000  0.11905426  0.00000000       0.005
  -0.00000000  0.12091449  0.00000000       0.005
  -0.00000000  0.12277471  0.00000000       0.005
  -0.00000000  0.12463493  0.00000000       0.005
   0.00000000  0.12649515 -0.00000000       0.005
   0.00000000  0.12835538 -0.00000000       0.005
  -0.00000000  0.13021560  0.00000000       0.005
  -0.00000000  0.13207582  0.00000000       0.005
   0.00000000  0.13393605 -0.00000000       0.005
   0.00000000  0.13579627 -0.00000000       0.005
  -0.00000000  0.13765649  0.00000000       0.005
  -0.00000000  0.13951671  0.00000000       0.005
   0.00000000  0.14137694 -0.00000000       0.005
  -0.00000000  0.14323716  0.00000000       0.005
  -0.00000000  0.14509738  0.00000000       0.005
   0.00000000  0.14695761 -0.00000000       0.005
   0.00000000  0.14881783 -0.00000000       0.005
  -0.00000000  0.15067805  0.00000000       0.005
  -0.00000000  0.15253827  0.00000000       0.005
   0.00000000  0.15439850 -0.00000000       0.005
  -0.00000000  0.15625872  0.00000000       0.005
  -0.00000000  0.15811894  0.00000000       0.005
   0.00000000  0.15997917 -0.00000000       0.005
   0.00000000  0.16183939 -0.00000000       0.005
  -0.00000000  0.16369961  0.00000000       0.005
  -0.00000000  0.16555983  0.00000000       0.005
   0.00000000  0.16742006 -0.00000000       0.005
  -0.00000000  0.16928028  0.00000000       0.005
  -0.00000000  0.17114050  0.00000000       0.005
   0.00000000  0.17300073 -0.00000000       0.005
   0.00000000  0.17486095 -0.00000000       0.005
  -0.00000000  0.17672117  0.00000000       0.005
   0.00000000  0.17858139 -0.00000000       0.005
   0.00000000  0.18044162 -0.00000000       0.005
  -0.00000000  0.18230184  0.00000000       0.005
   0.00000000  0.18416206  0.00000000       0.005
 
 k-points in reciprocal lattice and weights: Delta-valley split path                 
   0.00000000  0.50000000  0.50000000       0.005
   0.00000000  0.49494949  0.49494949       0.005
   0.00000000  0.48989899  0.48989899       0.005
   0.00000000  0.48484848  0.48484848       0.005
   0.00000000  0.47979798  0.47979798       0.005
   0.00000000  0.47474747  0.47474747       0.005
   0.00000000  0.46969697  0.46969697       0.005
   0.00000000  0.46464646  0.46464646       0.005
   0.00000000  0.45959596  0.45959596       0.005
   0.00000000  0.45454545  0.45454545       0.005
   0.00000000  0.44949495  0.44949495       0.005
   0.00000000  0.44444444  0.44444444       0.005
   0.00000000  0.43939394  0.43939394       0.005
   0.00000000  0.43434343  0.43434343       0.005
   0.00000000  0.42929293  0.42929293       0.005
   0.00000000  0.42424242  0.42424242       0.005
   0.00000000  0.41919192  0.41919192       0.005
   0.00000000  0.41414141  0.41414141       0.005
   0.00000000  0.40909091  0.40909091       0.005
   0.00000000  0.40404040  0.40404040       0.005
   0.00000000  0.39898990  0.39898990       0.005
   0.00000000  0.39393939  0.39393939       0.005
   0.00000000  0.38888889  0.38888889       0.005
   0.00000000  0.38383838  0.38383838       0.005
   0.00000000  0.37878788  0.37878788       0.005
   0.00000000  0.37373737  0.37373737       0.005
   0.00000000  0.36868687  0.36868687       0.005
   0.00000000  0.36363636  0.36363636       0.005
   0.00000000  0.35858586  0.35858586       0.005
   0.00000000  0.35353535  0.35353535       0.005
   0.00000000  0.34848485  0.34848485       0.005
   0.00000000  0.34343434  0.34343434       0.005
   0.00000000  0.33838384  0.33838384       0.005
   0.00000000  0.33333333  0.33333333       0.005
   0.00000000  0.32828283  0.32828283       0.005
   0.00000000  0.32323232  0.32323232       0.005
   0.00000000  0.31818182  0.31818182       0.005
   0.00000000  0.31313131  0.31313131       0.005
   0.00000000  0.30808081  0.30808081       0.005
   0.00000000  0.30303030  0.30303030       0.005
   0.00000000  0.29797980  0.29797980       0.005
   0.00000000  0.29292929  0.29292929       0.005
   0.00000000  0.28787879  0.28787879       0.005
   0.00000000  0.28282828  0.28282828       0.005
   0.00000000  0.27777778  0.27777778       0.005
   0.00000000  0.27272727  0.27272727       0.005
   0.00000000  0.26767677  0.26767677       0.005
   0.00000000  0.26262626  0.26262626       0.005
   0.00000000  0.25757576  0.25757576       0.005
   0.00000000  0.25252525  0.25252525       0.005
   0.00000000  0.24747475  0.24747475       0.005
   0.00000000  0.24242424  0.24242424       0.005
   0.00000000  0.23737374  0.23737374       0.005
   0.00000000  0.23232323  0.23232323       0.005
   0.00000000  0.22727273  0.22727273       0.005
   0.00000000  0.22222222  0.22222222       0.005
   0.00000000  0.21717172  0.21717172       0.005
   0.00000000  0.21212121  0.21212121       0.005
   0.00000000  0.20707071  0.20707071       0.005
   0.00000000  0.20202020  0.20202020       0.005
   0.00000000  0.19696970  0.19696970       0.005
   0.00000000  0.19191919  0.19191919       0.005
   0.00000000  0.18686869  0.18686869       0.005
   0.00000000  0.18181818  0.18181818       0.005
   0.00000000  0.17676768  0.17676768       0.005
   0.00000000  0.17171717  0.17171717       0.005
   0.00000000  0.16666667  0.16666667       0.005
   0.00000000  0.16161616  0.16161616       0.005
   0.00000000  0.15656566  0.15656566       0.005
   0.00000000  0.15151515  0.15151515       0.005
   0.00000000  0.14646465  0.14646465       0.005
   0.00000000  0.14141414  0.14141414       0.005
   0.00000000  0.13636364  0.13636364       0.005
   0.00000000  0.13131313  0.13131313       0.005
   0.00000000  0.12626263  0.12626263       0.005
   0.00000000  0.12121212  0.12121212       0.005
   0.00000000  0.11616162  0.11616162       0.005
   0.00000000  0.11111111  0.11111111       0.005
   0.00000000  0.10606061  0.10606061       0.005
   0.00000000  0.10101010  0.10101010       0.005
   0.00000000  0.09595960  0.09595960       0.005
   0.00000000  0.09090909  0.09090909       0.005
   0.00000000  0.08585859  0.08585859       0.005
   0.00000000  0.08080808  0.08080808       0.005
   0.00000000  0.07575758  0.07575758       0.005
   0.00000000  0.07070707  0.07070707       0.005
   0.00000000  0.06565657  0.06565657       0.005
   0.00000000  0.06060606  0.06060606       0.005
   0.00000000  0.05555556  0.05555556       0.005
   0.00000000  0.05050505  0.05050505       0.005
   0.00000000  0.04545455  0.04545455       0.005
   0.00000000  0.04040404  0.04040404       0.005
   0.00000000  0.03535354  0.03535354       0.005
   0.00000000  0.03030303  0.03030303       0.005
   0.00000000  0.02525253  0.02525253       0.005
   0.00000000  0.02020202  0.02020202       0.005
   0.00000000  0.01515152  0.01515152       0.005
   0.00000000  0.01010101  0.01010101       0.005
   0.00000000  0.00505051  0.00505051       0.005
   0.00000000 -0.00000000 -0.00000000       0.005
   0.00000000  0.00000000  0.00000000       0.005
   0.00505051  0.00000000  0.00505051       0.005
   0.01010101  0.00000000  0.01010101       0.005
   0.01515152  0.00000000  0.01515152       0.005
   0.02020202  0.00000000  0.02020202       0.005
   0.02525253  0.00000000  0.02525253       0.005
   0.03030303  0.00000000  0.03030303       0.005
   0.03535354  0.00000000  0.03535354       0.005
   0.04040404  0.00000000  0.04040404       0.005
   0.04545455  0.00000000  0.04545455       0.005
   0.05050505  0.00000000  0.05050505       0.005
   0.05555556  0.00000000  0.05555556       0.005
   0.06060606  0.00000000  0.06060606       0.005
   0.06565657  0.00000000  0.06565657       0.005
   0.07070707  0.00000000  0.07070707       0.005
   0.07575758  0.00000000  0.07575758       0.005
   0.08080808  0.00000000  0.08080808       0.005
   0.08585859  0.00000000  0.08585859       0.005
   0.09090909  0.00000000  0.09090909       0.005
   0.09595960  0.00000000  0.09595960       0.005
   0.10101010  0.00000000  0.10101010       0.005
   0.10606061  0.00000000  0.10606061       0.005
   0.11111111  0.00000000  0.11111111       0.005
   0.11616162  0.00000000  0.11616162       0.005
   0.12121212  0.00000000  0.12121212       0.005
   0.12626263  0.00000000  0.12626263       0.005
   0.13131313  0.00000000  0.13131313       0.005
   0.13636364  0.00000000  0.13636364       0.005
   0.14141414  0.00000000  0.14141414       0.005
   0.14646465  0.00000000  0.14646465       0.005
   0.15151515  0.00000000  0.15151515       0.005
   0.15656566  0.00000000  0.15656566       0.005
   0.16161616  0.00000000  0.16161616       0.005
   0.16666667  0.00000000  0.16666667       0.005
   0.17171717  0.00000000  0.17171717       0.005
   0.17676768  0.00000000  0.17676768       0.005
   0.18181818  0.00000000  0.18181818       0.005
   0.18686869  0.00000000  0.18686869       0.005
   0.19191919  0.00000000  0.19191919       0.005
   0.19696970  0.00000000  0.19696970       0.005
   0.20202020  0.00000000  0.20202020       0.005
   0.20707071  0.00000000  0.20707071       0.005
   0.21212121  0.00000000  0.21212121       0.005
   0.21717172  0.00000000  0.21717172       0.005
   0.22222222  0.00000000  0.22222222       0.005
   0.22727273  0.00000000  0.22727273       0.005
   0.23232323  0.00000000  0.23232323       0.005
   0.23737374  0.00000000  0.23737374       0.005
   0.24242424  0.00000000  0.24242424       0.005
   0.24747475  0.00000000  0.24747475       0.005
   0.25252525  0.00000000  0.25252525       0.005
   0.25757576  0.00000000  0.25757576       0.005
   0.26262626  0.00000000  0.26262626       0.005
   0.26767677  0.00000000  0.26767677       0.005
   0.27272727  0.00000000  0.27272727       0.005
   0.27777778  0.00000000  0.27777778       0.005
   0.28282828  0.00000000  0.28282828       0.005
   0.28787879  0.00000000  0.28787879       0.005
   0.29292929  0.00000000  0.29292929       0.005
   0.29797980  0.00000000  0.29797980       0.005
   0.30303030  0.00000000  0.30303030       0.005
   0.30808081  0.00000000  0.30808081       0.005
   0.31313131  0.00000000  0.31313131       0.005
   0.31818182  0.00000000  0.31818182       0.005
   0.32323232  0.00000000  0.32323232       0.005
   0.32828283  0.00000000  0.32828283       0.005
   0.33333333  0.00000000  0.33333333       0.005
   0.33838384  0.00000000  0.33838384       0.005
   0.34343434  0.00000000  0.34343434       0.005
   0.34848485  0.00000000  0.34848485       0.005
   0.35353535  0.00000000  0.35353535       0.005
   0.35858586  0.00000000  0.35858586       0.005
   0.36363636  0.00000000  0.36363636       0.005
   0.36868687  0.00000000  0.36868687       0.005
   0.37373737  0.00000000  0.37373737       0.005
   0.37878788  0.00000000  0.37878788       0.005
   0.38383838  0.00000000  0.38383838       0.005
   0.38888889  0.00000000  0.38888889       0.005
   0.39393939  0.00000000  0.39393939       0.005
   0.39898990  0.00000000  0.39898990       0.005
   0.40404040  0.00000000  0.40404040       0.005
   0.40909091  0.00000000  0.40909091       0.005
   0.41414141  0.00000000  0.41414141       0.005
   0.41919192  0.00000000  0.41919192       0.005
   0.42424242  0.00000000  0.42424242       0.005
   0.42929293  0.00000000  0.42929293       0.005
   0.43434343  0.00000000  0.43434343       0.005
   0.43939394  0.00000000  0.43939394       0.005
   0.44444444  0.00000000  0.44444444       0.005
   0.44949495  0.00000000  0.44949495       0.005
   0.45454545  0.00000000  0.45454545       0.005
   0.45959596  0.00000000  0.45959596       0.005
   0.46464646  0.00000000  0.46464646       0.005
   0.46969697  0.00000000  0.46969697       0.005
   0.47474747  0.00000000  0.47474747       0.005
   0.47979798  0.00000000  0.47979798       0.005
   0.48484848  0.00000000  0.48484848       0.005
   0.48989899  0.00000000  0.48989899       0.005
   0.49494949  0.00000000  0.49494949       0.005
   0.50000000  0.00000000  0.50000000       0.005
 
 position of ions in fractional coordinates (direct lattice) 
   0.00000000  0.00000000  0.00000000
   0.25000000  0.25000000  0.25000000
 
 position of ions in cartesian coordinates  (Angst):
   0.00000000  0.00000000  0.00000000
   1.35750000  1.35750000  1.35750000
 


--------------------------------------------------------------------------------------------------------


 k-point   1 :   0.0000 0.5000 0.5000  plane waves:     524
 k-point   2 :   0.0000 0.4949 0.4949  plane waves:     524
 k-point   3 :   0.0000 0.4899 0.4899  plane waves:     524
 k-point   4 :   0.0000 0.4848 0.4848  plane waves:     524
 k-point   5 :   0.0000 0.4798 0.4798  plane waves:     524
 k-point   6 :   0.0000 0.4747 0.4747  plane waves:     524
 k-point   7 :   0.0000 0.4697 0.4697  plane waves:     516
 k-point   8 :   0.0000 0.4646 0.4646  plane waves:     516
 k-point   9 :   0.0000 0.4596 0.4596  plane waves:     516
 k-point  10 :   0.0000 0.4545 0.4545  plane waves:     516
 k-point  11 :   0.0000 0.4495 0.4495  plane waves:     516
 k-point  12 :   0.0000 0.4444 0.4444  plane waves:     516
 k-point  13 :   0.0000 0.4394 0.4394  plane waves:     516
 k-point  14 :   0.0000 0.4343 0.4343  plane waves:     516
 k-point  15 :   0.0000 0.4293 0.4293  plane waves:     516
 k-point  16 :   0.0000 0.4242 0.4242  plane waves:     516
 k-point  17 :   0.0000 0.4192 0.4192  plane waves:     516
 k-point  18 :   0.0000 0.4141 0.4141  plane waves:     516
 k-point  19 :   0.0000 0.4091 0.4091  plane waves:     508
 k-point  20 :   0.0000 0.4040 0.4040  plane waves:     508
 k-point  21 :   0.0000 0.3990 0.3990  plane waves:     508
 k-point  22 :   0.0000 0.3939 0.3939  plane waves:     512
 k-point  23 :   0.0000 0.3889 0.3889  plane waves:     512
 k-point  24 :   0.0000 0.3838 0.3838  plane waves:     512
 k-point  25 :   0.0000 0.3788 0.3788  plane waves:     520
 k-point  26 :   0.0000 0.3737 0.3737  plane waves:     520
 k-point  27 :   0.0000 0.3687 0.3687  plane waves:     520
 k-point  28 :   0.0000 0.3636 0.3636  plane waves:     520
 k-point  29 :   0.0000 0.3586 0.3586  plane waves:     512
 k-point  30 :   0.0000 0.3535 0.3535  plane waves:     512
 k-point  31 :   0.0000 0.3485 0.3485  plane waves:     512
 k-point  32 :   0.0000 0.3434 0.3434  plane waves:     512
 k-point  33 :   0.0000 0.3384 0.3384  plane waves:     512
 k-point  34 :   0.0000 0.3333 0.3333  plane waves:     512
 k-point  35 :   0.0000 0.3283 0.3283  plane waves:     512
 k-point  36 :   0.0000 0.3232 0.3232  plane waves:     512
 k-point  37 :   0.0000 0.3182 0.3182  plane waves:     512
 k-point  38 :   0.0000 0.3131 0.3131  plane waves:     512
 k-point  39 :   0.0000 0.3081 0.3081  plane waves:     512
 k-point  40 :   0.0000 0.3030 0.3030  plane waves:     512
 k-point  41 :   0.0000 0.2980 0.2980  plane waves:     508
 k-point  42 :   0.0000 0.2929 0.2929  plane waves:     508
 k-point  43 :   0.0000 0.2879 0.2879  plane waves:     508
 k-point  44 :   0.0000 0.2828 0.2828  plane waves:     520
 k-point  45 :   0.0000 0.2778 0.2778  plane waves:     520
 k-point  46 :   0.0000 0.2727 0.2727  plane waves:     520
 k-point  47 :   0.0000 0.2677 0.2677  plane waves:     528
 k-point  48 :   0.0000 0.2626 0.2626  plane waves:     528
 k-point  49 :   0.0000 0.2576 0.2576  plane waves:     528
 k-point  50 :   0.0000 0.2525 0.2525  plane waves:     528
 k-point  51 :   0.0000 0.2475 0.2475  plane waves:     528
 k-point  52 :   0.0000 0.2424 0.2424  plane waves:     528
 k-point  53 :   0.0000 0.2374 0.2374  plane waves:     528
 k-point  54 :   0.0000 0.2323 0.2323  plane waves:     528
 k-point  55 :   0.0000 0.2273 0.2273  plane waves:     524
 k-point  56 :   0.0000 0.2222 0.2222  plane waves:     524
 k-point  57 :   0.0000 0.2172 0.2172  plane waves:     524
 k-point  58 :   0.0000 0.2121 0.2121  plane waves:     524
 k-point  59 :   0.0000 0.2071 0.2071  plane waves:     524
 k-point  60 :   0.0000 0.2020 0.2020  plane waves:     524
 k-point  61 :   0.0000 0.1970 0.1970  plane waves:     524
 k-point  62 :   0.0000 0.1919 0.1919  plane waves:     524
 k-point  63 :   0.0000 0.1869 0.1869  plane waves:     524
 k-point  64 :   0.0000 0.1818 0.1818  plane waves:     524
 k-point  65 :   0.0000 0.1768 0.1768  plane waves:     532
 k-point  66 :   0.0000 0.1717 0.1717  plane waves:     532
 k-point  67 :   0.0000 0.1667 0.1667  plane waves:     528
 k-point  68 :   0.0000 0.1616 0.1616  plane waves:     528
 k-point  69 :   0.0000 0.1566 0.1566  plane waves:     528
 k-point  70 :   0.0000 0.1515 0.1515  plane waves:     524
 k-point  71 :   0.0000 0.1465 0.1465  plane waves:     524
 k-point  72 :   0.0000 0.1414 0.1414  plane waves:     524
 k-point  73 :   0.0000 0.1364 0.1364  plane waves:     524
 k-point  74 :   0.0000 0.1313 0.1313  plane waves:     524
 k-point  75 :   0.0000 0.1263 0.1263  plane waves:     532
 k-point  76 :   0.0000 0.1212 0.1212  plane waves:     532
 k-point  77 :   0.0000 0.1162 0.1162  plane waves:     532
 k-point  78 :   0.0000 0.1111 0.1111  plane waves:     532
 k-point  79 :   0.0000 0.1061 0.1061  plane waves:     532
 k-point  80 :   0.0000 0.1010 0.1010  plane waves:     532
 k-point  81 :   0.0000 0.0960 0.0960  plane waves:     532
 k-point  82 :   0.0000 0.0909 0.0909  plane waves:     532
 k-point  83 :   0.0000 0.0859 0.0859  plane waves:     532
 k-point  84 :   0.0000 0.0808 0.0808  plane waves:     532
 k-point  85 :   0.0000 0.0758 0.0758  plane waves:     532
 k-point  86 :   0.0000 0.0707 0.0707  plane waves:     532
 k-point  87 :   0.0000 0.0657 0.0657  plane waves:     532
 k-point  88 :   0.0000 0.0606 0.0606  plane waves:     532
 k-point  89 :   0.0000 0.0556 0.0556  plane waves:     532
 k-point  90 :   0.0000 0.0505 0.0505  plane waves:     532
 k-point  91 :   0.0000 0.0455 0.0455  plane waves:     532
 k-point  92 :   0.0000 0.0404 0.0404  plane waves:     532
 k-point  93 :   0.0000 0.0354 0.0354  plane waves:     531
 k-point  94 :   0.0000 0.0303 0.0303  plane waves:     531
 k-point  95 :   0.0000 0.0253 0.0253  plane waves:     531
 k-point  96 :   0.0000 0.0202 0.0202  plane waves:     531
 k-point  97 :   0.0000 0.0152 0.0152  plane waves:     531
 k-point  98 :   0.0000 0.0101 0.0101  plane waves:     531
 k-point  99 :   0.0000 0.0051 0.0051  plane waves:     531
 k-point 100 :   0.0000-0.0000-0.0000  plane waves:     531
 k-point 101 :   0.0000 0.0000 0.0000  plane waves:     531
 k-point 102 :   0.0051 0.0000 0.0051  plane waves:     531
 k-point 103 :   0.0101 0.0000 0.0101  plane waves:     531
 k-point 104 :   0.0152 0.0000 0.0152  plane waves:     531
 k-point 105 :   0.0202 0.0000 0.0202  plane waves:     531
 k-point 106 :   0.0253 0.0000 0.0253  plane waves:     531
 k-point 107 :   0.0303 0.0000 0.0303  plane waves:     531
 k-point 108 :   0.0354 0.0000 0.0354  plane waves:     531
 k-point 109 :   0.0404 0.0000 0.0404  plane waves:     532
 k-point 110 :   0.0455 0.0000 0.0455  plane waves:     532
 k-point 111 :   0.0505 0.0000 0.0505  plane waves:     532
 k-point 112 :   0.0556 0.0000 0.0556  plane waves:     532
 k-point 113 :   0.0606 0.0000 0.0606  plane waves:     532
 k-point 114 :   0.0657 0.0000 0.0657  plane waves:     532
 k-point 115 :   0.0707 0.0000 0.0707  plane waves:     532
 k-point 116 :   0.0758 0.0000 0.0758  plane waves:     532
 k-point 117 :   0.0808 0.0000 0.0808  plane waves:     532
 k-point 118 :   0.0859 0.0000 0.0859  plane waves:     532
 k-point 119 :   0.0909 0.0000 0.0909  plane waves:     532
 k-point 120 :   0.0960 0.0000 0.0960  plane waves:     532
 k-point 121 :   0.1010 0.0000 0.1010  plane waves:     532
 k-point 122 :   0.1061 0.0000 0.1061  plane waves:     532
 k-point 123 :   0.1111 0.0000 0.1111  plane waves:     532
 k-point 124 :   0.1162 0.0000 0.1162  plane waves:     532
 k-point 125 :   0.1212 0.0000 0.1212  plane waves:     532
 k-point 126 :   0.1263 0.0000 0.1263  plane waves:     532
 k-point 127 :   0.1313 0.0000 0.1313  plane waves:     524
 k-point 128 :   0.1364 0.0000 0.1364  plane waves:     524
 k-point 129 :   0.1414 0.0000 0.1414  plane waves:     524
 k-point 130 :   0.1465 0.0000 0.1465  plane waves:     524
 k-point 131 :   0.1515 0.0000 0.1515  plane waves:     524
 k-point 132 :   0.1566 0.0000 0.1566  plane waves:     528
 k-point 133 :   0.1616 0.0000 0.1616  plane waves:     528
 k-point 134 :   0.1667 0.0000 0.1667  plane waves:     528
 k-point 135 :   0.1717 0.0000 0.1717  plane waves:     532
 k-point 136 :   0.1768 0.0000 0.1768  plane waves:     532
 k-point 137 :   0.1818 0.0000 0.1818  plane waves:     524
 k-point 138 :   0.1869 0.0000 0.1869  plane waves:     524
 k-point 139 :   0.1919 0.0000 0.1919  plane waves:     524
 k-point 140 :   0.1970 0.0000 0.1970  plane waves:     524
 k-point 141 :   0.2020 0.0000 0.2020  plane waves:     524
 k-point 142 :   0.2071 0.0000 0.2071  plane waves:     524
 k-point 143 :   0.2121 0.0000 0.2121  plane waves:     524
 k-point 144 :   0.2172 0.0000 0.2172  plane waves:     524
 k-point 145 :   0.2222 0.0000 0.2222  plane waves:     524
 k-point 146 :   0.2273 0.0000 0.2273  plane waves:     524
 k-point 147 :   0.2323 0.0000 0.2323  plane waves:     528
 k-point 148 :   0.2374 0.0000 0.2374  plane waves:     528
 k-point 149 :   0.2424 0.0000 0.2424  plane waves:     528
 k-point 150 :   0.2475 0.0000 0.2475  plane waves:     528
 k-point 151 :   0.2525 0.0000 0.2525  plane waves:     528
 k-point 152 :   0.2576 0.0000 0.2576  plane waves:     528
 k-point 153 :   0.2626 0.0000 0.2626  plane waves:     528
 k-point 154 :   0.2677 0.0000 0.2677  plane waves:     528
 k-point 155 :   0.2727 0.0000 0.2727  plane waves:     520
 k-point 156 :   0.2778 0.0000 0.2778  plane waves:     520
 k-point 157 :   0.2828 0.0000 0.2828  plane waves:     520
 k-point 158 :   0.2879 0.0000 0.2879  plane waves:     508
 k-point 159 :   0.2929 0.0000 0.2929  plane waves:     508
 k-point 160 :   0.2980 0.0000 0.2980  plane waves:     508
 k-point 161 :   0.3030 0.0000 0.3030  plane waves:     512
 k-point 162 :   0.3081 0.0000 0.3081  plane waves:     512
 k-point 163 :   0.3131 0.0000 0.3131  plane waves:     512
 k-point 164 :   0.3182 0.0000 0.3182  plane waves:     512
 k-point 165 :   0.3232 0.0000 0.3232  plane waves:     512
 k-point 166 :   0.3283 0.0000 0.3283  plane waves:     512
 k-point 167 :   0.3333 0.0000 0.3333  plane waves:     512
 k-point 168 :   0.3384 0.0000 0.3384  plane waves:     512
 k-point 169 :   0.3434 0.0000 0.3434  plane waves:     512
 k-point 170 :   0.3485 0.0000 0.3485  plane waves:     512
 k-point 171 :   0.3535 0.0000 0.3535  plane waves:     512
 k-point 172 :   0.3586 0.0000 0.3586  plane waves:     512
 k-point 173 :   0.3636 0.0000 0.3636  plane waves:     520
 k-point 174 :   0.3687 0.0000 0.3687  plane waves:     520
 k-point 175 :   0.3737 0.0000 0.3737  plane waves:     520
 k-point 176 :   0.3788 0.0000 0.3788  plane waves:     520
 k-point 177 :   0.3838 0.0000 0.3838  plane waves:     512
 k-point 178 :   0.3889 0.0000 0.3889  plane waves:     512
 k-point 179 :   0.3939 0.0000 0.3939  plane waves:     512
 k-point 180 :   0.3990 0.0000 0.3990  plane waves:     508
 k-point 181 :   0.4040 0.0000 0.4040  plane waves:     508
 k-point 182 :   0.4091 0.0000 0.4091  plane waves:     508
 k-point 183 :   0.4141 0.0000 0.4141  plane waves:     516
 k-point 184 :   0.4192 0.0000 0.4192  plane waves:     516
 k-point 185 :   0.4242 0.0000 0.4242  plane waves:     516
 k-point 186 :   0.4293 0.0000 0.4293  plane waves:     516
 k-point 187 :   0.4343 0.0000 0.4343  plane waves:     516
 k-point 188 :   0.4394 0.0000 0.4394  plane waves:     516
 k-point 189 :   0.4444 0.0000 0.4444  plane waves:     516
 k-point 190 :   0.4495 0.0000 0.4495  plane waves:     516
 k-point 191 :   0.4545 0.0000 0.4545  plane waves:     516
 k-point 192 :   0.4596 0.0000 0.4596  plane waves:     516
 k-point 193 :   0.4646 0.0000 0.4646  plane waves:     516
 k-point 194 :   0.4697 0.0000 0.4697  plane waves:     516
 k-point 195 :   0.4747 0.0000 0.4747  plane waves:     524
 k-point 196 :   0.4798 0.0000 0.4798  plane waves:     524
 k-point 197 :   0.4848 0.0000 0.4848  plane waves:     524
 k-point 198 :   0.4899 0.0000 0.4899  plane waves:     524
 k-point 199 :   0.4949 0.0000 0.4949  plane waves:     524
 k-point 200 :   0.5000 0.0000 0.5000  plane waves:     524

 maximum and minimum number of plane-waves per node :       532      508

 maximum number of plane-waves:       532
 maximum index in each direction: 
   IXMAX=    5   IYMAX=    5   IZMAX=    5
   IXMIN=   -6   IYMIN=   -6   IZMIN=   -6


 serial   3D FFT for wavefunctions
 parallel 3D FFT for charge:
    minimum data exchange during FFTs selected (reduces bandwidth)


 total amount of memory used by VASP MPI-rank0    60794. kBytes
=======================================================================

   base      :      30000. kBytes
   nonl-proj :       6826. kBytes
   fftplans  :       3916. kBytes
   grid      :       6018. kBytes
   one-center:          6. kBytes
   wavefun   :      14028. kBytes
 
     INWAV:  cpu time      0.0000: real time      0.0000
 initial charge density was supplied:
 number of electron       7.9999999 magnetization 
 keeping initial charge density in first step


--------------------------------------------------------------------------------------------------------


 Maximum index for augmentation-charges        11057 (set IRDMAX)


--------------------------------------------------------------------------------------------------------


 First call to EWALD:  gamma=   0.518
 Maximum number of real-space cells 3x 3x 3
 Maximum number of reciprocal cells 3x 3x 3

    FEWALD:  cpu time      0.0014: real time      0.0014


--------------------------------------- Iteration      1(   1)  ---------------------------------------


    POTLOK:  cpu time      0.0447: real time      0.0447
    SETDIJ:  cpu time      0.0039: real time      0.0039
     EDDAV:  cpu time      2.1983: real time      2.1984
       DOS:  cpu time      0.0037: real time      0.0037
    --------------------------------------------
      LOOP:  cpu time      2.2507: real time      2.2508

 eigenvalue-minimisations  :  3208
 total energy-change (2. order) : 0.9472485E+01  (-0.2525947E+03)
 number of electron       7.9999999 magnetization 
 augmentation part        7.9999999 magnetization 

 Free energy of the ion-electron system (eV)
  ---------------------------------------------------
  alpha Z        PSCENC =         3.36414726
  Ewald energy   TEWEN  =      -228.56352493
  -Hartree energ DENC   =       -14.92811456
  -exchange      EXHF   =         0.00000000
  -V(xc)+E(xc)   XCENC  =       -17.95897558
  PAW double counting   =       894.42895762     -859.46829384
  entropy T*S    EENTRO =        -0.00056436
  eigenvalues    EBANDS =        26.46818614
  atomic energy  EATOM  =       206.13066687
  Solvation  Ediel_sol  =         0.00000000
  ---------------------------------------------------
  free energy    TOTEN  =         9.47248463 eV

  energy without entropy =        9.47304899  energy(sigma->0) =        9.47276681


--------------------------------------------------------------------------------------------------------




--------------------------------------- Iteration      1(   2)  ---------------------------------------


     EDDAV:  cpu time      3.2377: real time      3.2380
       DOS:  cpu time      0.0038: real time      0.0038
    --------------------------------------------
      LOOP:  cpu time      3.2415: real time      3.2417

 eigenvalue-minimisations  :  5424
 total energy-change (2. order) :-0.1459473E+02  (-0.1374077E+02)
 number of electron       7.9999999 magnetization 
 augmentation part        7.9999999 magnetization 

 Free energy of the ion-electron system (eV)
  ---------------------------------------------------
  alpha Z        PSCENC =         3.36414726
  Ewald energy   TEWEN  =      -228.56352493
  -Hartree energ DENC   =       -14.92811456
  -exchange      EXHF   =         0.00000000
  -V(xc)+E(xc)   XCENC  =       -17.95897558
  PAW double counting   =       894.42895762     -859.46829384
  entropy T*S    EENTRO =        -0.00001248
  eigenvalues    EBANDS =        11.87290693
  atomic energy  EATOM  =       206.13066687
  Solvation  Ediel_sol  =         0.00000000
  ---------------------------------------------------
  free energy    TOTEN  =        -5.12224270 eV

  energy without entropy =       -5.12223023  energy(sigma->0) =       -5.12223646


--------------------------------------------------------------------------------------------------------




--------------------------------------- Iteration      1(   3)  ---------------------------------------


     EDDAV:  cpu time      2.6465: real time      2.6466
       DOS:  cpu time      0.0020: real time      0.0020
    --------------------------------------------
      LOOP:  cpu time      2.6486: real time      2.6487

 eigenvalue-minimisations  :  4200
 total energy-change (2. order) :-0.1877762E+00  (-0.1877394E+00)
 number of electron       7.9999999 magnetization 
 augmentation part        7.9999999 magnetization 

 Free energy of the ion-electron system (eV)
  ---------------------------------------------------
  alpha Z        PSCENC =         3.36414726
  Ewald energy   TEWEN  =      -228.56352493
  -Hartree energ DENC   =       -14.92811456
  -exchange      EXHF   =         0.00000000
  -V(xc)+E(xc)   XCENC  =       -17.95897558
  PAW double counting   =       894.42895762     -859.46829384
  entropy T*S    EENTRO =        -0.00000000
  eigenvalues    EBANDS =        11.68511822
  atomic energy  EATOM  =       206.13066687
  Solvation  Ediel_sol  =         0.00000000
  ---------------------------------------------------
  free energy    TOTEN  =        -5.31001894 eV

  energy without entropy =       -5.31001894  energy(sigma->0) =       -5.31001894


--------------------------------------------------------------------------------------------------------




--------------------------------------- Iteration      1(   4)  ---------------------------------------


     EDDAV:  cpu time      3.0381: real time      3.0382
       DOS:  cpu time      0.0021: real time      0.0021
    --------------------------------------------
      LOOP:  cpu time      3.0402: real time      3.0403

 eigenvalue-minimisations  :  5024
 total energy-change (2. order) :-0.6983823E-03  (-0.6983823E-03)
 number of electron       7.9999999 magnetization 
 augmentation part        7.9999999 magnetization 

 Free energy of the ion-electron system (eV)
  ---------------------------------------------------
  alpha Z        PSCENC =         3.36414726
  Ewald energy   TEWEN  =      -228.56352493
  -Hartree energ DENC   =       -14.92811456
  -exchange      EXHF   =         0.00000000
  -V(xc)+E(xc)   XCENC  =       -17.95897558
  PAW double counting   =       894.42895762     -859.46829384
  entropy T*S    EENTRO =        -0.00000000
  eigenvalues    EBANDS =        11.68441984
  atomic energy  EATOM  =       206.13066687
  Solvation  Ediel_sol  =         0.00000000
  ---------------------------------------------------
  free energy    TOTEN  =        -5.31071732 eV

  energy without entropy =       -5.31071732  energy(sigma->0) =       -5.31071732


--------------------------------------------------------------------------------------------------------




--------------------------------------- Iteration      1(   5)  ---------------------------------------


     EDDAV:  cpu time      2.6310: real time      2.6313
       DOS:  cpu time      0.0021: real time      0.0021
    --------------------------------------------
      LOOP:  cpu time      2.6332: real time      2.6334

 eigenvalue-minimisations  :  4176
 total energy-change (2. order) :-0.1727661E-05  (-0.1727659E-05)
 number of electron       7.9999999 magnetization 
 augmentation part        7.9999999 magnetization 

 Free energy of the ion-electron system (eV)
  ---------------------------------------------------
  alpha Z        PSCENC =         3.36414726
  Ewald energy   TEWEN  =      -228.56352493
  -Hartree energ DENC   =       -14.92811456
  -exchange      EXHF   =         0.00000000
  -V(xc)+E(xc)   XCENC  =       -17.95897558
  PAW double counting   =       894.42895762     -859.46829384
  entropy T*S    EENTRO =        -0.00000000
  eigenvalues    EBANDS =        11.68441811
  atomic energy  EATOM  =       206.13066687
  Solvation  Ediel_sol  =         0.00000000
  ---------------------------------------------------
  free energy    TOTEN  =        -5.31071905 eV

  energy without entropy =       -5.31071905  energy(sigma->0) =       -5.31071905


--------------------------------------------------------------------------------------------------------




--------------------------------------- Iteration      1(   6)  ---------------------------------------


     EDDAV:  cpu time      2.5452: real time      2.5453
       DOS:  cpu time      0.0020: real time      0.0020
    --------------------------------------------
      LOOP:  cpu time      2.5472: real time      2.5473

 eigenvalue-minimisations  :  3976
 total energy-change (2. order) :-0.2394313E-07  (-0.2388793E-07)
 number of electron       7.9999999 magnetization 
 augmentation part        7.9999999 magnetization 

 Free energy of the ion-electron system (eV)
  ---------------------------------------------------
  alpha Z        PSCENC =         3.36414726
  Ewald energy   TEWEN  =      -228.56352493
  -Hartree energ DENC   =       -14.92811456
  -exchange      EXHF   =         0.00000000
  -V(xc)+E(xc)   XCENC  =       -17.95897558
  PAW double counting   =       894.42895762     -859.46829384
  entropy T*S    EENTRO =        -0.00000000
  eigenvalues    EBANDS =        11.68441808
  atomic energy  EATOM  =       206.13066687
  Solvation  Ediel_sol  =         0.00000000
  ---------------------------------------------------
  free energy    TOTEN  =        -5.31071907 eV

  energy without entropy =       -5.31071907  energy(sigma->0) =       -5.31071907


--------------------------------------------------------------------------------------------------------




 average (electrostatic) potential at core
  the test charge radii are     0.9892
  (the norm of the test charge is              1.0000)
       1 -83.2423       2 -83.2423
 
 
 
 E-fermi :   6.0582     XC(G=0):  -9.4099     alpha+bet :-11.9845

 Fermi energy:         6.0582285815

 k-point     1 :       0.0000    0.5000    0.5000
  band No.  band energies     occupation 
      1      -1.9830      2.00000
      2      -1.9830      2.00000
      3       2.9813      2.00000
      4       2.9813      2.00000
      5       6.5440      0.00000
      6       6.5440      0.00000
      7      15.9557      0.00000
      8      15.9570      0.00000

 k-point     2 :       0.0000    0.4949    0.4949
  band No.  band energies     occupation 
      1      -2.0610      2.00000
      2      -1.9046      2.00000
      3       2.9817      2.00000
      4       2.9817      2.00000
      5       6.5266      0.00000
      6       6.5626      0.00000
      7      15.9440      0.00000
      8      15.9503      0.00000

 k-point     3 :       0.0000    0.4899    0.4899
  band No.  band energies     occupation 
      1      -2.1384      2.00000
      2      -1.8256      2.00000
      3       2.9829      2.00000
      4       2.9829      2.00000
      5       6.5104      0.00000
      6       6.5824      0.00000
      7      15.9103      0.00000
      8      15.9125      0.00000

 k-point     4 :       0.0000    0.4848    0.4848
  band No.  band energies     occupation 
      1      -2.2152      2.00000
      2      -1.7461      2.00000
      3       2.9849      2.00000
      4       2.9849      2.00000
      5       6.4954      0.00000
      6       6.6034      0.00000
      7      15.8583      0.00000
      8      15.8585      0.00000

 k-point     5 :       0.0000    0.4798    0.4798
  band No.  band energies     occupation 
      1      -2.2915      2.00000
      2      -1.6661      2.00000
      3       2.9878      2.00000
      4       2.9878      2.00000
      5       6.4815      0.00000
      6       6.6257      0.00000
      7      15.7936      0.00000
      8      15.7947      0.00000

 k-point     6 :       0.0000    0.4747    0.4747
  band No.  band energies     occupation 
      1      -2.3672      2.00000
      2      -1.5856      2.00000
      3       2.9914      2.00000
      4       2.9914      2.00000
      5       6.4689      0.00000
      6       6.6492      0.00000
      7      15.7197      0.00000
      8      15.7214      0.00000

 k-point     7 :       0.0000    0.4697    0.4697
  band No.  band energies     occupation 
      1      -2.4423      2.00000
      2      -1.5045      2.00000
      3       2.9959      2.00000
      4       2.9959      2.00000
      5       6.4575      0.00000
      6       6.6742      0.00000
      7      15.6400      0.00000
      8      15.6401      0.00000

 k-point     8 :       0.0000    0.4646    0.4646
  band No.  band energies     occupation 
      1      -2.5168      2.00000
      2      -1.4231      2.00000
      3       3.0011      2.00000
      4       3.0011      2.00000
      5       6.4472      0.00000
      6       6.7002      0.00000
      7      15.5554      0.00000
      8      15.5554      0.00000

 k-point     9 :       0.0000    0.4596    0.4596
  band No.  band energies     occupation 
      1      -2.5908      2.00000
      2      -1.3412      2.00000
      3       3.0072      2.00000
      4       3.0072      2.00000
      5       6.4380      0.00000
      6       6.7274      0.00000
      7      15.4675      0.00000
      8      15.4675      0.00000

 k-point    10 :       0.0000    0.4545    0.4545
  band No.  band energies     occupation 
      1      -2.6641      2.00000
      2      -1.2588      2.00000
      3       3.0140      2.00000
      4       3.0140      2.00000
      5       6.4300      0.00000
      6       6.7559      0.00000
      7      15.3774      0.00000
      8      15.3775      0.00000

 k-point    11 :       0.0000    0.4495    0.4495
  band No.  band energies     occupation 
      1      -2.7368      2.00000
      2      -1.1760      2.00000
      3       3.0216      2.00000
      4       3.0216      2.00000
      5       6.4232      0.00000
      6       6.7857      0.00000
      7      15.2857      0.00000
      8      15.2857      0.00000

 k-point    12 :       0.0000    0.4444    0.4444
  band No.  band energies     occupation 
      1      -2.8089      2.00000
      2      -1.0928      2.00000
      3       3.0301      2.00000
      4       3.0301      2.00000
      5       6.4175      0.00000
      6       6.8168      0.00000
      7      15.1928      0.00000
      8      15.1928      0.00000

 k-point    13 :       0.0000    0.4394    0.4394
  band No.  band energies     occupation 
      1      -2.8804      2.00000
      2      -1.0091      2.00000
      3       3.0394      2.00000
      4       3.0394      2.00000
      5       6.4129      0.00000
      6       6.8491      0.00000
      7      15.0990      0.00000
      8      15.0990      0.00000

 k-point    14 :       0.0000    0.4343    0.4343
  band No.  band energies     occupation 
      1      -2.9512      2.00000
      2      -0.9250      2.00000
      3       3.0494      2.00000
      4       3.0494      2.00000
      5       6.4094      0.00000
      6       6.8827      0.00000
      7      15.0045      0.00000
      8      15.0045      0.00000

 k-point    15 :       0.0000    0.4293    0.4293
  band No.  band energies     occupation 
      1      -3.0214      2.00000
      2      -0.8406      2.00000
      3       3.0603      2.00000
      4       3.0603      2.00000
      5       6.4070      0.00000
      6       6.9176      0.00000
      7      14.9097      0.00000
      8      14.9098      0.00000

 k-point    16 :       0.0000    0.4242    0.4242
  band No.  band energies     occupation 
      1      -3.0910      2.00000
      2      -0.7557      2.00000
      3       3.0719      2.00000
      4       3.0719      2.00000
      5       6.4058      0.00000
      6       6.9538      0.00000
      7      14.8145      0.00000
      8      14.8145      0.00000

 k-point    17 :       0.0000    0.4192    0.4192
  band No.  band energies     occupation 
      1      -3.1599      2.00000
      2      -0.6705      2.00000
      3       3.0844      2.00000
      4       3.0844      2.00000
      5       6.4056      0.00000
      6       6.9912      0.00000
      7      14.7191      0.00000
      8      14.7193      0.00000

 k-point    18 :       0.0000    0.4141    0.4141
  band No.  band energies     occupation 
      1      -3.2281      2.00000
      2      -0.5849      2.00000
      3       3.0977      2.00000
      4       3.0977      2.00000
      5       6.4065      0.00000
      6       7.0298      0.00000
      7      14.6224      0.00000
      8      14.6224      0.00000

 k-point    19 :       0.0000    0.4091    0.4091
  band No.  band energies     occupation 
      1      -3.2956      2.00000
      2      -0.4990      2.00000
      3       3.1117      2.00000
      4       3.1117      2.00000
      5       6.4086      0.00000
      6       7.0699      0.00000
      7      14.5271      0.00000
      8      14.5271      0.00000

 k-point    20 :       0.0000    0.4040    0.4040
  band No.  band energies     occupation 
      1      -3.3625      2.00000
      2      -0.4127      2.00000
      3       3.1266      2.00000
      4       3.1266      2.00000
      5       6.4116      0.00000
      6       7.1113      0.00000
      7      14.4315      0.00000
      8      14.4315      0.00000

 k-point    21 :       0.0000    0.3990    0.3990
  band No.  band energies     occupation 
      1      -3.4287      2.00000
      2      -0.3261      2.00000
      3       3.1422      2.00000
      4       3.1422      2.00000
      5       6.4157      0.00000
      6       7.1539      0.00000
      7      14.3359      0.00000
      8      14.3360      0.00000

 k-point    22 :       0.0000    0.3939    0.3939
  band No.  band energies     occupation 
      1      -3.4942      2.00000
      2      -0.2392      2.00000
      3       3.1586      2.00000
      4       3.1586      2.00000
      5       6.4207      0.00000
      6       7.1976      0.00000
      7      14.2403      0.00000
      8      14.2403      0.00000

 k-point    23 :       0.0000    0.3889    0.3889
  band No.  band energies     occupation 
      1      -3.5590      2.00000
      2      -0.1520      2.00000
      3       3.1758      2.00000
      4       3.1758      2.00000
      5       6.4270      0.00000
      6       7.2429      0.00000
      7      14.1449      0.00000
      8      14.1449      0.00000

 k-point    24 :       0.0000    0.3838    0.3838
  band No.  band energies     occupation 
      1      -3.6231      2.00000
      2      -0.0645      2.00000
      3       3.1938      2.00000
      4       3.1938      2.00000
      5       6.4342      0.00000
      6       7.2895      0.00000
      7      14.0495      0.00000
      8      14.0495      0.00000

 k-point    25 :       0.0000    0.3788    0.3788
  band No.  band energies     occupation 
      1      -3.6865      2.00000
      2       0.0232      2.00000
      3       3.2125      2.00000
      4       3.2125      2.00000
      5       6.4425      0.00000
      6       7.3372      0.00000
      7      13.9539      0.00000
      8      13.9539      0.00000

 k-point    26 :       0.0000    0.3737    0.3737
  band No.  band energies     occupation 
      1      -3.7492      2.00000
      2       0.1113      2.00000
      3       3.2320      2.00000
      4       3.2320      2.00000
      5       6.4518      0.00000
      6       7.3864      0.00000
      7      13.8588      0.00000
      8      13.8588      0.00000

 k-point    27 :       0.0000    0.3687    0.3687
  band No.  band energies     occupation 
      1      -3.8111      2.00000
      2       0.1996      2.00000
      3       3.2523      2.00000
      4       3.2523      2.00000
      5       6.4621      0.00000
      6       7.4369      0.00000
      7      13.7639      0.00000
      8      13.7639      0.00000

 k-point    28 :       0.0000    0.3636    0.3636
  band No.  band energies     occupation 
      1      -3.8723      2.00000
      2       0.2881      2.00000
      3       3.2734      2.00000
      4       3.2734      2.00000
      5       6.4733      0.00000
      6       7.4887      0.00000
      7      13.6691      0.00000
      8      13.6691      0.00000

 k-point    29 :       0.0000    0.3586    0.3586
  band No.  band energies     occupation 
      1      -3.9327      2.00000
      2       0.3769      2.00000
      3       3.2953      2.00000
      4       3.2953      2.00000
      5       6.4864      0.00000
      6       7.5419      0.00000
      7      13.5755      0.00000
      8      13.5755      0.00000

 k-point    30 :       0.0000    0.3535    0.3535
  band No.  band energies     occupation 
      1      -3.9925      2.00000
      2       0.4659      2.00000
      3       3.3180      2.00000
      4       3.3180      2.00000
      5       6.4997      0.00000
      6       7.5963      0.00000
      7      13.4811      0.00000
      8      13.4811      0.00000

 k-point    31 :       0.0000    0.3485    0.3485
  band No.  band energies     occupation 
      1      -4.0515      2.00000
      2       0.5551      2.00000
      3       3.3414      2.00000
      4       3.3414      2.00000
      5       6.5139      0.00000
      6       7.6519      0.00000
      7      13.3869      0.00000
      8      13.3869      0.00000

 k-point    32 :       0.0000    0.3434    0.3434
  band No.  band energies     occupation 
      1      -4.1097      2.00000
      2       0.6445      2.00000
      3       3.3655      2.00000
      4       3.3655      2.00000
      5       6.5290      0.00000
      6       7.7089      0.00000
      7      13.2929      0.00000
      8      13.2929      0.00000

 k-point    33 :       0.0000    0.3384    0.3384
  band No.  band energies     occupation 
      1      -4.1672      2.00000
      2       0.7340      2.00000
      3       3.3904      2.00000
      4       3.3904      2.00000
      5       6.5451      0.00000
      6       7.7671      0.00000
      7      13.1991      0.00000
      8      13.1991      0.00000

 k-point    34 :       0.0000    0.3333    0.3333
  band No.  band energies     occupation 
      1      -4.2239      2.00000
      2       0.8238      2.00000
      3       3.4161      2.00000
      4       3.4161      2.00000
      5       6.5622      0.00000
      6       7.8265      0.00000
      7      13.1055      0.00000
      8      13.1056      0.00000

 k-point    35 :       0.0000    0.3283    0.3283
  band No.  band energies     occupation 
      1      -4.2799      2.00000
      2       0.9136      2.00000
      3       3.4425      2.00000
      4       3.4425      2.00000
      5       6.5801      0.00000
      6       7.8872      0.00000
      7      13.0122      0.00000
      8      13.0122      0.00000

 k-point    36 :       0.0000    0.3232    0.3232
  band No.  band energies     occupation 
      1      -4.3351      2.00000
      2       1.0037      2.00000
      3       3.4696      2.00000
      4       3.4696      2.00000
      5       6.5990      0.00000
      6       7.9492      0.00000
      7      12.9190      0.00000
      8      12.9190      0.00000

 k-point    37 :       0.0000    0.3182    0.3182
  band No.  band energies     occupation 
      1      -4.3895      2.00000
      2       1.0938      2.00000
      3       3.4975      2.00000
      4       3.4975      2.00000
      5       6.6187      0.00000
      6       8.0123      0.00000
      7      12.8261      0.00000
      8      12.8261      0.00000

 k-point    38 :       0.0000    0.3131    0.3131
  band No.  band energies     occupation 
      1      -4.4432      2.00000
      2       1.1841      2.00000
      3       3.5262      2.00000
      4       3.5262      2.00000
      5       6.6394      0.00000
      6       8.0766      0.00000
      7      12.7335      0.00000
      8      12.7335      0.00000

 k-point    39 :       0.0000    0.3081    0.3081
  band No.  band energies     occupation 
      1      -4.4961      2.00000
      2       1.2745      2.00000
      3       3.5555      2.00000
      4       3.5555      2.00000
      5       6.6609      0.00000
      6       8.1421      0.00000
      7      12.6410      0.00000
      8      12.6410      0.00000

 k-point    40 :       0.0000    0.3030    0.3030
  band No.  band energies     occupation 
      1      -4.5481      2.00000
      2       1.3650      2.00000
      3       3.5856      2.00000
      4       3.5856      2.00000
      5       6.6832      0.00000
      6       8.2088      0.00000
      7      12.5488      0.00000
      8      12.5489      0.00000

 k-point    41 :       0.0000    0.2980    0.2980
  band No.  band energies     occupation 
      1      -4.5994      2.00000
      2       1.4556      2.00000
      3       3.6165      2.00000
      4       3.6165      2.00000
      5       6.7065      0.00000
      6       8.2766      0.00000
      7      12.4569      0.00000
      8      12.4569      0.00000

 k-point    42 :       0.0000    0.2929    0.2929
  band No.  band energies     occupation 
      1      -4.6499      2.00000
      2       1.5462      2.00000
      3       3.6480      2.00000
      4       3.6480      2.00000
      5       6.7305      0.00000
      6       8.3455      0.00000
      7      12.3652      0.00000
      8      12.3652      0.00000

 k-point    43 :       0.0000    0.2879    0.2879
  band No.  band energies     occupation 
      1      -4.6996      2.00000
      2       1.6369      2.00000
      3       3.6802      2.00000
      4       3.6802      2.00000
      5       6.7554      0.00000
      6       8.4154      0.00000
      7      12.2738      0.00000
      8      12.2738      0.00000

 k-point    44 :       0.0000    0.2828    0.2828
  band No.  band energies     occupation 
      1      -4.7485      2.00000
      2       1.7276      2.00000
      3       3.7131      2.00000
      4       3.7131      2.00000
      5       6.7808      0.00000
      6       8.4860      0.00000
      7      12.1814      0.00000
      8      12.1814      0.00000

 k-point    45 :       0.0000    0.2778    0.2778
  band No.  band energies     occupation 
      1      -4.7966      2.00000
      2       1.8184      2.00000
      3       3.7467      2.00000
      4       3.7467      2.00000
      5       6.8072      0.00000
      6       8.5580      0.00000
      7      12.0905      0.00000
      8      12.0905      0.00000

 k-point    46 :       0.0000    0.2727    0.2727
  band No.  band energies     occupation 
      1      -4.8439      2.00000
      2       1.9092      2.00000
      3       3.7810      2.00000
      4       3.7810      2.00000
      5       6.8343      0.00000
      6       8.6308      0.00000
      7      11.9999      0.00000
      8      11.9999      0.00000

 k-point    47 :       0.0000    0.2677    0.2677
  band No.  band energies     occupation 
      1      -4.8904      2.00000
      2       2.0000      2.00000
      3       3.8159      2.00000
      4       3.8159      2.00000
      5       6.8620      0.00000
      6       8.7045      0.00000
      7      11.9089      0.00000
      8      11.9089      0.00000

 k-point    48 :       0.0000    0.2626    0.2626
  band No.  band energies     occupation 
      1      -4.9361      2.00000
      2       2.0908      2.00000
      3       3.8516      2.00000
      4       3.8516      2.00000
      5       6.8906      0.00000
      6       8.7791      0.00000
      7      11.8189      0.00000
      8      11.8189      0.00000

 k-point    49 :       0.0000    0.2576    0.2576
  band No.  band energies     occupation 
      1      -4.9809      2.00000
      2       2.1816      2.00000
      3       3.8879      2.00000
      4       3.8879      2.00000
      5       6.9200      0.00000
      6       8.8543      0.00000
      7      11.7292      0.00000
      8      11.7292      0.00000

 k-point    50 :       0.0000    0.2525    0.2525
  band No.  band energies     occupation 
      1      -5.0250      2.00000
      2       2.2724      2.00000
      3       3.9249      2.00000
      4       3.9249      2.00000
      5       6.9500      0.00000
      6       8.9303      0.00000
      7      11.6398      0.00000
      8      11.6398      0.00000

 k-point    51 :       0.0000    0.2475    0.2475
  band No.  band energies     occupation 
      1      -5.0681      2.00000
      2       2.3631      2.00000
      3       3.9625      2.00000
      4       3.9625      2.00000
      5       6.9807      0.00000
      6       9.0068      0.00000
      7      11.5507      0.00000
      8      11.5507      0.00000

 k-point    52 :       0.0000    0.2424    0.2424
  band No.  band energies     occupation 
      1      -5.1105      2.00000
      2       2.4538      2.00000
      3       4.0007      2.00000
      4       4.0007      2.00000
      5       7.0120      0.00000
      6       9.0837      0.00000
      7      11.4619      0.00000
      8      11.4620      0.00000

 k-point    53 :       0.0000    0.2374    0.2374
  band No.  band energies     occupation 
      1      -5.1520      2.00000
      2       2.5444      2.00000
      3       4.0396      2.00000
      4       4.0396      2.00000
      5       7.0439      0.00000
      6       9.1610      0.00000
      7      11.3735      0.00000
      8      11.3736      0.00000

 k-point    54 :       0.0000    0.2323    0.2323
  band No.  band energies     occupation 
      1      -5.1927      2.00000
      2       2.6350      2.00000
      3       4.0791      2.00000
      4       4.0791      2.00000
      5       7.0765      0.00000
      6       9.2385      0.00000
      7      11.2855      0.00000
      8      11.2855      0.00000

 k-point    55 :       0.0000    0.2273    0.2273
  band No.  band energies     occupation 
      1      -5.2326      2.00000
      2       2.7255      2.00000
      3       4.1192      2.00000
      4       4.1192      2.00000
      5       7.1098      0.00000
      6       9.3161      0.00000
      7      11.1984      0.00000
      8      11.1984      0.00000

 k-point    56 :       0.0000    0.2222    0.2222
  band No.  band energies     occupation 
      1      -5.2716      2.00000
      2       2.8158      2.00000
      3       4.1598      2.00000
      4       4.1598      2.00000
      5       7.1435      0.00000
      6       9.3935      0.00000
      7      11.1111      0.00000
      8      11.1111      0.00000

 k-point    57 :       0.0000    0.2172    0.2172
  band No.  band energies     occupation 
      1      -5.3098      2.00000
      2       2.9060      2.00000
      3       4.2010      2.00000
      4       4.2010      2.00000
      5       7.1777      0.00000
      6       9.4705      0.00000
      7      11.0242      0.00000
      8      11.0242      0.00000

 k-point    58 :       0.0000    0.2121    0.2121
  band No.  band energies     occupation 
      1      -5.3471      2.00000
      2       2.9961      2.00000
      3       4.2428      2.00000
      4       4.2428      2.00000
      5       7.2123      0.00000
      6       9.5470      0.00000
      7      10.9378      0.00000
      8      10.9378      0.00000

 k-point    59 :       0.0000    0.2071    0.2071
  band No.  band energies     occupation 
      1      -5.3836      2.00000
      2       3.0860      2.00000
      3       4.2851      2.00000
      4       4.2851      2.00000
      5       7.2474      0.00000
      6       9.6225      0.00000
      7      10.8518      0.00000
      8      10.8518      0.00000

 k-point    60 :       0.0000    0.2020    0.2020
  band No.  band energies     occupation 
      1      -5.4193      2.00000
      2       3.1757      2.00000
      3       4.3280      2.00000
      4       4.3280      2.00000
      5       7.2830      0.00000
      6       9.6968      0.00000
      7      10.7663      0.00000
      8      10.7663      0.00000

 k-point    61 :       0.0000    0.1970    0.1970
  band No.  band energies     occupation 
      1      -5.4540      2.00000
      2       3.2652      2.00000
      3       4.3713      2.00000
      4       4.3713      2.00000
      5       7.3189      0.00000
      6       9.7695      0.00000
      7      10.6812      0.00000
      8      10.6812      0.00000

 k-point    62 :       0.0000    0.1919    0.1919
  band No.  band energies     occupation 
      1      -5.4880      2.00000
      2       3.3545      2.00000
      3       4.4151      2.00000
      4       4.4151      2.00000
      5       7.3552      0.00000
      6       9.8400      0.00000
      7      10.5967      0.00000
      8      10.5967      0.00000

 k-point    63 :       0.0000    0.1869    0.1869
  band No.  band energies     occupation 
      1      -5.5210      2.00000
      2       3.4435      2.00000
      3       4.4593      2.00000
      4       4.4593      2.00000
      5       7.3918      0.00000
      6       9.9080      0.00000
      7      10.5127      0.00000
      8      10.5127      0.00000

 k-point    64 :       0.0000    0.1818    0.1818
  band No.  band energies     occupation 
      1      -5.5533      2.00000
      2       3.5323      2.00000
      3       4.5040      2.00000
      4       4.5040      2.00000
      5       7.4286      0.00000
      6       9.9727      0.00000
      7      10.4293      0.00000
      8      10.4293      0.00000

 k-point    65 :       0.0000    0.1768    0.1768
  band No.  band energies     occupation 
      1      -5.5846      2.00000
      2       3.6207      2.00000
      3       4.5490      2.00000
      4       4.5490      2.00000
      5       7.4657      0.00000
      6      10.0334      0.00000
      7      10.3463      0.00000
      8      10.3463      0.00000

 k-point    66 :       0.0000    0.1717    0.1717
  band No.  band energies     occupation 
      1      -5.6151      2.00000
      2       3.7088      2.00000
      3       4.5945      2.00000
      4       4.5945      2.00000
      5       7.5030      0.00000
      6      10.0894      0.00000
      7      10.2641      0.00000
      8      10.2641      0.00000

 k-point    67 :       0.0000    0.1667    0.1667
  band No.  band energies     occupation 
      1      -5.6448      2.00000
      2       3.7968      2.00000
      3       4.6403      2.00000
      4       4.6403      2.00000
      5       7.5404      0.00000
      6      10.1410      0.00000
      7      10.1826      0.00000
      8      10.1826      0.00000

 k-point    68 :       0.0000    0.1616    0.1616
  band No.  band energies     occupation 
      1      -5.6735      2.00000
      2       3.8842      2.00000
      3       4.6864      2.00000
      4       4.6864      2.00000
      5       7.5779      0.00000
      6      10.1018      0.00000
      7      10.1018      0.00000
      8      10.1847      0.00000

 k-point    69 :       0.0000    0.1566    0.1566
  band No.  band energies     occupation 
      1      -5.7014      2.00000
      2       3.9711      2.00000
      3       4.7328      2.00000
      4       4.7328      2.00000
      5       7.6155      0.00000
      6      10.0217      0.00000
      7      10.0217      0.00000
      8      10.2208      0.00000

 k-point    70 :       0.0000    0.1515    0.1515
  band No.  band energies     occupation 
      1      -5.7285      2.00000
      2       4.0575      2.00000
      3       4.7795      2.00000
      4       4.7795      2.00000
      5       7.6531      0.00000
      6       9.9426      0.00000
      7       9.9426      0.00000
      8      10.2488      0.00000

 k-point    71 :       0.0000    0.1465    0.1465
  band No.  band energies     occupation 
      1      -5.7546      2.00000
      2       4.1433      2.00000
      3       4.8263      2.00000
      4       4.8263      2.00000
      5       7.6906      0.00000
      6       9.8641      0.00000
      7       9.8641      0.00000
      8      10.2674      0.00000

 k-point    72 :       0.0000    0.1414    0.1414
  band No.  band energies     occupation 
      1      -5.7799      2.00000
      2       4.2286      2.00000
      3       4.8733      2.00000
      4       4.8733      2.00000
      5       7.7279      0.00000
      6       9.7864      0.00000
      7       9.7864      0.00000
      8      10.2763      0.00000

 k-point    73 :       0.0000    0.1364    0.1364
  band No.  band energies     occupation 
      1      -5.8043      2.00000
      2       4.3132      2.00000
      3       4.9204      2.00000
      4       4.9204      2.00000
      5       7.7651      0.00000
      6       9.7097      0.00000
      7       9.7097      0.00000
      8      10.2756      0.00000

 k-point    74 :       0.0000    0.1313    0.1313
  band No.  band energies     occupation 
      1      -5.8279      2.00000
      2       4.3971      2.00000
      3       4.9675      2.00000
      4       4.9675      2.00000
      5       7.8020      0.00000
      6       9.6340      0.00000
      7       9.6340      0.00000
      8      10.2653      0.00000

 k-point    75 :       0.0000    0.1263    0.1263
  band No.  band energies     occupation 
      1      -5.8505      2.00000
      2       4.4802      2.00000
      3       5.0145      2.00000
      4       5.0145      2.00000
      5       7.8384      0.00000
      6       9.5586      0.00000
      7       9.5586      0.00000
      8      10.2459      0.00000

 k-point    76 :       0.0000    0.1212    0.1212
  band No.  band energies     occupation 
      1      -5.8723      2.00000
      2       4.5624      2.00000
      3       5.0615      2.00000
      4       5.0615      2.00000
      5       7.8746      0.00000
      6       9.4851      0.00000
      7       9.4851      0.00000
      8      10.2183      0.00000

 k-point    77 :       0.0000    0.1162    0.1162
  band No.  band energies     occupation 
      1      -5.8932      2.00000
      2       4.6436      2.00000
      3       5.1084      2.00000
      4       5.1084      2.00000
      5       7.9103      0.00000
      6       9.4128      0.00000
      7       9.4128      0.00000
      8      10.1834      0.00000

 k-point    78 :       0.0000    0.1111    0.1111
  band No.  band energies     occupation 
      1      -5.9132      2.00000
      2       4.7238      2.00000
      3       5.1550      2.00000
      4       5.1550      2.00000
      5       7.9454      0.00000
      6       9.3417      0.00000
      7       9.3417      0.00000
      8      10.1422      0.00000

 k-point    79 :       0.0000    0.1061    0.1061
  band No.  band energies     occupation 
      1      -5.9324      2.00000
      2       4.8028      2.00000
      3       5.2013      2.00000
      4       5.2013      2.00000
      5       7.9799      0.00000
      6       9.2721      0.00000
      7       9.2721      0.00000
      8      10.0957      0.00000

 k-point    80 :       0.0000    0.1010    0.1010
  band No.  band energies     occupation 
      1      -5.9506      2.00000
      2       4.8805      2.00000
      3       5.2472      2.00000
      4       5.2472      2.00000
      5       8.0137      0.00000
      6       9.2039      0.00000
      7       9.2039      0.00000
      8      10.0451      0.00000

 k-point    81 :       0.0000    0.0960    0.0960
  band No.  band energies     occupation 
      1      -5.9680      2.00000
      2       4.9568      2.00000
      3       5.2925      2.00000
      4       5.2925      2.00000
      5       8.0467      0.00000
      6       9.1373      0.00000
      7       9.1373      0.00000
      8       9.9912      0.00000

 k-point    82 :       0.0000    0.0909    0.0909
  band No.  band energies     occupation 
      1      -5.9845      2.00000
      2       5.0315      2.00000
      3       5.3372      2.00000
      4       5.3372      2.00000
      5       8.0788      0.00000
      6       9.0724      0.00000
      7       9.0724      0.00000
      8       9.9350      0.00000

 k-point    83 :       0.0000    0.0859    0.0859
  band No.  band energies     occupation 
      1      -6.0001      2.00000
      2       5.1045      2.00000
      3       5.3811      2.00000
      4       5.3811      2.00000
      5       8.1099      0.00000
      6       9.0094      0.00000
      7       9.0094      0.00000
      8       9.8773      0.00000

 k-point    84 :       0.0000    0.0808    0.0808
  band No.  band energies     occupation 
      1      -6.0148      2.00000
      2       5.1755      2.00000
      3       5.4242      2.00000
      4       5.4242      2.00000
      5       8.1399      0.00000
      6       8.9483      0.00000
      7       8.9483      0.00000
      8       9.8187      0.00000

 k-point    85 :       0.0000    0.0758    0.0758
  band No.  band energies     occupation 
      1      -6.0286      2.00000
      2       5.2443      2.00000
      3       5.4661      2.00000
      4       5.4661      2.00000
      5       8.1687      0.00000
      6       8.8894      0.00000
      7       8.8894      0.00000
      8       9.7600      0.00000

 k-point    86 :       0.0000    0.0707    0.0707
  band No.  band energies     occupation 
      1      -6.0416      2.00000
      2       5.3108      2.00000
      3       5.5068      2.00000
      4       5.5068      2.00000
      5       8.1963      0.00000
      6       8.8328      0.00000
      7       8.8328      0.00000
      8       9.7017      0.00000

 k-point    87 :       0.0000    0.0657    0.0657
  band No.  band energies     occupation 
      1      -6.0536      2.00000
      2       5.3747      2.00000
      3       5.5461      2.00000
      4       5.5461      2.00000
      5       8.2225      0.00000
      6       8.7787      0.00000
      7       8.7787      0.00000
      8       9.6444      0.00000

 k-point    88 :       0.0000    0.0606    0.0606
  band No.  band energies     occupation 
      1      -6.0648      2.00000
      2       5.4357      2.00000
      3       5.5838      2.00000
      4       5.5838      2.00000
      5       8.2472      0.00000
      6       8.7273      0.00000
      7       8.7273      0.00000
      8       9.5887      0.00000

 k-point    89 :       0.0000    0.0556    0.0556
  band No.  band energies     occupation 
      1      -6.0751      2.00000
      2       5.4936      2.00000
      3       5.6197      2.00000
      4       5.6197      2.00000
      5       8.2704      0.00000
      6       8.6788      0.00000
      7       8.6788      0.00000
      8       9.5351      0.00000

 k-point    90 :       0.0000    0.0505    0.0505
  band No.  band energies     occupation 
      1      -6.0845      2.00000
      2       5.5480      2.00000
      3       5.6536      2.00000
      4       5.6536      2.00000
      5       8.2919      0.00000
      6       8.6334      0.00000
      7       8.6334      0.00000
      8       9.4841      0.00000

 k-point    91 :       0.0000    0.0455    0.0455
  band No.  band energies     occupation 
      1      -6.0929      2.00000
      2       5.5986      2.00000
      3       5.6852      2.00000
      4       5.6852      2.00000
      5       8.3117      0.00000
      6       8.5913      0.00000
      7       8.5913      0.00000
      8       9.4361      0.00000

 k-point    92 :       0.0000    0.0404    0.0404
  band No.  band energies     occupation 
      1      -6.1005      2.00000
      2       5.6451      2.00000
      3       5.7144      2.00000
      4       5.7144      2.00000
      5       8.3296      0.00000
      6       8.5528      0.00000
      7       8.5528      0.00000
      8       9.3916      0.00000

 k-point    93 :       0.0000    0.0354    0.0354
  band No.  band energies     occupation 
      1      -6.1072      2.00000
      2       5.6872      2.00000
      3       5.7408      2.00000
      4       5.7408      2.00000
      5       8.3456      0.00000
      6       8.5181      0.00000
      7       8.5181      0.00000
      8       9.3511      0.00000

 k-point    94 :       0.0000    0.0303    0.0303
  band No.  band energies     occupation 
      1      -6.1130      2.00000
      2       5.7246      2.00000
      3       5.7643      2.00000
      4       5.7643      2.00000
      5       8.3597      0.00000
      6       8.4874      0.00000
      7       8.4874      0.00000
      8       9.3149      0.00000

 k-point    95 :       0.0000    0.0253    0.0253
  band No.  band energies     occupation 
      1      -6.1180      2.00000
      2       5.7568      2.00000
      3       5.7846      2.00000
      4       5.7846      2.00000
      5       8.3717      0.00000
      6       8.4611      0.00000
      7       8.4611      0.00000
      8       9.2836      0.00000

 k-point    96 :       0.0000    0.0202    0.0202
  band No.  band energies     occupation 
      1      -6.1220      2.00000
      2       5.7836      2.00000
      3       5.8016      2.00000
      4       5.8016      2.00000
      5       8.3816      0.00000
      6       8.4392      0.00000
      7       8.4392      0.00000
      8       9.2574      0.00000

 k-point    97 :       0.0000    0.0152    0.0152
  band No.  band energies     occupation 
      1      -6.1251      2.00000
      2       5.8048      2.00000
      3       5.8150      2.00000
      4       5.8150      2.00000
      5       8.3894      0.00000
      6       8.4219      0.00000
      7       8.4219      0.00000
      8       9.2367      0.00000

 k-point    98 :       0.0000    0.0101    0.0101
  band No.  band energies     occupation 
      1      -6.1273      2.00000
      2       5.8201      2.00000
      3       5.8247      2.00000
      4       5.8247      2.00000
      5       8.3950      0.00000
      6       8.4095      0.00000
      7       8.4095      0.00000
      8       9.2217      0.00000

 k-point    99 :       0.0000    0.0051    0.0051
  band No.  band energies     occupation 
      1      -6.1287      2.00000
      2       5.8294      2.00000
      3       5.8305      2.00000
      4       5.8305      2.00000
      5       8.3983      0.00000
      6       8.4020      0.00000
      7       8.4020      0.00000
      8       9.2126      0.00000

 k-point   100 :       0.0000   -0.0000   -0.0000
  band No.  band energies     occupation 
      1      -6.1291      2.00000
      2       5.8325      2.00000
      3       5.8325      2.00000
      4       5.8325      2.00000
      5       8.3995      0.00000
      6       8.3995      0.00000
      7       8.3995      0.00000
      8       9.2095      0.00000

 k-point   101 :       0.0000    0.0000    0.0000
  band No.  band energies     occupation 
      1      -6.1291      2.00000
      2       5.8325      2.00000
      3       5.8325      2.00000
      4       5.8325      2.00000
      5       8.3995      0.00000
      6       8.3995      0.00000
      7       8.3995      0.00000
      8       9.2095      0.00000

 k-point   102 :       0.0051    0.0000    0.0051
  band No.  band energies     occupation 
      1      -6.1287      2.00000
      2       5.8294      2.00000
      3       5.8305      2.00000
      4       5.8305      2.00000
      5       8.3983      0.00000
      6       8.4020      0.00000
      7       8.4020      0.00000
      8       9.2126      0.00000

 k-point   103 :       0.0101    0.0000    0.0101
  band No.  band energies     occupation 
      1      -6.1273      2.00000
      2       5.8201      2.00000
      3       5.8247      2.00000
      4       5.8247      2.00000
      5       8.3950      0.00000
      6       8.4095      0.00000
      7       8.4095      0.00000
      8       9.2217      0.00000

 k-point   104 :       0.0152    0.0000    0.0152
  band No.  band energies     occupation 
      1      -6.1251      2.00000
      2       5.8048      2.00000
      3       5.8150      2.00000
      4       5.8150      2.00000
      5       8.3894      0.00000
      6       8.4219      0.00000
      7       8.4219      0.00000
      8       9.2367      0.00000

 k-point   105 :       0.0202    0.0000    0.0202
  band No.  band energies     occupation 
      1      -6.1220      2.00000
      2       5.7836      2.00000
      3       5.8016      2.00000
      4       5.8016      2.00000
      5       8.3816      0.00000
      6       8.4392      0.00000
      7       8.4392      0.00000
      8       9.2574      0.00000

 k-point   106 :       0.0253    0.0000    0.0253
  band No.  band energies     occupation 
      1      -6.1180      2.00000
      2       5.7568      2.00000
      3       5.7846      2.00000
      4       5.7846      2.00000
      5       8.3717      0.00000
      6       8.4611      0.00000
      7       8.4611      0.00000
      8       9.2836      0.00000

 k-point   107 :       0.0303    0.0000    0.0303
  band No.  band energies     occupation 
      1      -6.1130      2.00000
      2       5.7246      2.00000
      3       5.7643      2.00000
      4       5.7643      2.00000
      5       8.3597      0.00000
      6       8.4874      0.00000
      7       8.4874      0.00000
      8       9.3149      0.00000

 k-point   108 :       0.0354    0.0000    0.0354
  band No.  band energies     occupation 
      1      -6.1072      2.00000
      2       5.6872      2.00000
      3       5.7408      2.00000
      4       5.7408      2.00000
      5       8.3456      0.00000
      6       8.5181      0.00000
      7       8.5181      0.00000
      8       9.3511      0.00000

 k-point   109 :       0.0404    0.0000    0.0404
  band No.  band energies     occupation 
      1      -6.1005      2.00000
      2       5.6451      2.00000
      3       5.7144      2.00000
      4       5.7144      2.00000
      5       8.3296      0.00000
      6       8.5528      0.00000
      7       8.5528      0.00000
      8       9.3916      0.00000

 k-point   110 :       0.0455    0.0000    0.0455
  band No.  band energies     occupation 
      1      -6.0929      2.00000
      2       5.5986      2.00000
      3       5.6852      2.00000
      4       5.6852      2.00000
      5       8.3117      0.00000
      6       8.5913      0.00000
      7       8.5913      0.00000
      8       9.4361      0.00000

 k-point   111 :       0.0505    0.0000    0.0505
  band No.  band energies     occupation 
      1      -6.0845      2.00000
      2       5.5480      2.00000
      3       5.6536      2.00000
      4       5.6536      2.00000
      5       8.2919      0.00000
      6       8.6334      0.00000
      7       8.6334      0.00000
      8       9.4841      0.00000

 k-point   112 :       0.0556    0.0000    0.0556
  band No.  band energies     occupation 
      1      -6.0751      2.00000
      2       5.4936      2.00000
      3       5.6197      2.00000
      4       5.6197      2.00000
      5       8.2704      0.00000
      6       8.6788      0.00000
      7       8.6788      0.00000
      8       9.5351      0.00000

 k-point   113 :       0.0606    0.0000    0.0606
  band No.  band energies     occupation 
      1      -6.0648      2.00000
      2       5.4357      2.00000
      3       5.5838      2.00000
      4       5.5838      2.00000
      5       8.2472      0.00000
      6       8.7273      0.00000
      7       8.7273      0.00000
      8       9.5887      0.00000

 k-point   114 :       0.0657    0.0000    0.0657
  band No.  band energies     occupation 
      1      -6.0536      2.00000
      2       5.3747      2.00000
      3       5.5461      2.00000
      4       5.5461      2.00000
      5       8.2225      0.00000
      6       8.7787      0.00000
      7       8.7787      0.00000
      8       9.6444      0.00000

 k-point   115 :       0.0707    0.0000    0.0707
  band No.  band energies     occupation 
      1      -6.0416      2.00000
      2       5.3108      2.00000
      3       5.5068      2.00000
      4       5.5068      2.00000
      5       8.1963      0.00000
      6       8.8328      0.00000
      7       8.8328      0.00000
      8       9.7017      0.00000

 k-point   116 :       0.0758    0.0000    0.0758
  band No.  band energies     occupation 
      1      -6.0286      2.00000
      2       5.2443      2.00000
      3       5.4661      2.00000
      4       5.4661      2.00000
      5       8.1687      0.00000
      6       8.8894      0.00000
      7       8.8894      0.00000
      8       9.7600      0.00000

 k-point   117 :       0.0808    0.0000    0.0808
  band No.  band energies     occupation 
      1      -6.0148      2.00000
      2       5.1755      2.00000
      3       5.4242      2.00000
      4       5.4242      2.00000
      5       8.1399      0.00000
      6       8.9483      0.00000
      7       8.9483      0.00000
      8       9.8187      0.00000

 k-point   118 :       0.0859    0.0000    0.0859
  band No.  band energies     occupation 
      1      -6.0001      2.00000
      2       5.1045      2.00000
      3       5.3811      2.00000
      4       5.3811      2.00000
      5       8.1099      0.00000
      6       9.0094      0.00000
      7       9.0094      0.00000
      8       9.8773      0.00000

 k-point   119 :       0.0909    0.0000    0.0909
  band No.  band energies     occupation 
      1      -5.9845      2.00000
      2       5.0315      2.00000
      3       5.3372      2.00000
      4       5.3372      2.00000
      5       8.0788      0.00000
      6       9.0724      0.00000
      7       9.0724      0.00000
      8       9.9350      0.00000

 k-point   120 :       0.0960    0.0000    0.0960
  band No.  band energies     occupation 
      1      -5.9680      2.00000
      2       4.9568      2.00000
      3       5.2925      2.00000
      4       5.2925      2.00000
      5       8.0467      0.00000
      6       9.1373      0.00000
      7       9.1373      0.00000
      8       9.9912      0.00000

 k-point   121 :       0.1010    0.0000    0.1010
  band No.  band energies     occupation 
      1      -5.9506      2.00000
      2       4.8805      2.00000
      3       5.2472      2.00000
      4       5.2472      2.00000
      5       8.0137      0.00000
      6       9.2039      0.00000
      7       9.2039      0.00000
      8      10.0451      0.00000

 k-point   122 :       0.1061    0.0000    0.1061
  band No.  band energies     occupation 
      1      -5.9324      2.00000
      2       4.8028      2.00000
      3       5.2013      2.00000
      4       5.2013      2.00000
      5       7.9799      0.00000
      6       9.2721      0.00000
      7       9.2721      0.00000
      8      10.0957      0.00000

 k-point   123 :       0.1111    0.0000    0.1111
  band No.  band energies     occupation 
      1      -5.9132      2.00000
      2       4.7238      2.00000
      3       5.1550      2.00000
      4       5.1550      2.00000
      5       7.9454      0.00000
      6       9.3417      0.00000
      7       9.3417      0.00000
      8      10.1422      0.00000

 k-point   124 :       0.1162    0.0000    0.1162
  band No.  band energies     occupation 
      1      -5.8932      2.00000
      2       4.6436      2.00000
      3       5.1084      2.00000
      4       5.1084      2.00000
      5       7.9103      0.00000
      6       9.4128      0.00000
      7       9.4128      0.00000
      8      10.1834      0.00000

 k-point   125 :       0.1212    0.0000    0.1212
  band No.  band energies     occupation 
      1      -5.8723      2.00000
      2       4.5624      2.00000
      3       5.0615      2.00000
      4       5.0615      2.00000
      5       7.8746      0.00000
      6       9.4851      0.00000
      7       9.4851      0.00000
      8      10.2183      0.00000

 k-point   126 :       0.1263    0.0000    0.1263
  band No.  band energies     occupation 
      1      -5.8505      2.00000
      2       4.4802      2.00000
      3       5.0145      2.00000
      4       5.0145      2.00000
      5       7.8384      0.00000
      6       9.5586      0.00000
      7       9.5586      0.00000
      8      10.2459      0.00000

 k-point   127 :       0.1313    0.0000    0.1313
  band No.  band energies     occupation 
      1      -5.8279      2.00000
      2       4.3971      2.00000
      3       4.9675      2.00000
      4       4.9675      2.00000
      5       7.8020      0.00000
      6       9.6340      0.00000
      7       9.6340      0.00000
      8      10.2653      0.00000

 k-point   128 :       0.1364    0.0000    0.1364
  band No.  band energies     occupation 
      1      -5.8043      2.00000
      2       4.3132      2.00000
      3       4.9204      2.00000
      4       4.9204      2.00000
      5       7.7651      0.00000
      6       9.7097      0.00000
      7       9.7097      0.00000
      8      10.2756      0.00000

 k-point   129 :       0.1414    0.0000    0.1414
  band No.  band energies     occupation 
      1      -5.7799      2.00000
      2       4.2286      2.00000
      3       4.8733      2.00000
      4       4.8733      2.00000
      5       7.7279      0.00000
      6       9.7864      0.00000
      7       9.7864      0.00000
      8      10.2763      0.00000

 k-point   130 :       0.1465    0.0000    0.1465
  band No.  band energies     occupation 
      1      -5.7546      2.00000
      2       4.1433      2.00000
      3       4.8263      2.00000
      4       4.8263      2.00000
      5       7.6906      0.00000
      6       9.8641      0.00000
      7       9.8641      0.00000
      8      10.2674      0.00000

 k-point   131 :       0.1515    0.0000    0.1515
  band No.  band energies     occupation 
      1      -5.7285      2.00000
      2       4.0575      2.00000
      3       4.7795      2.00000
      4       4.7795      2.00000
      5       7.6531      0.00000
      6       9.9426      0.00000
      7       9.9426      0.00000
      8      10.2488      0.00000

 k-point   132 :       0.1566    0.0000    0.1566
  band No.  band energies     occupation 
      1      -5.7014      2.00000
      2       3.9711      2.00000
      3       4.7328      2.00000
      4       4.7328      2.00000
      5       7.6155      0.00000
      6      10.0217      0.00000
      7      10.0217      0.00000
      8      10.2208      0.00000

 k-point   133 :       0.1616    0.0000    0.1616
  band No.  band energies     occupation 
      1      -5.6735      2.00000
      2       3.8842      2.00000
      3       4.6864      2.00000
      4       4.6864      2.00000
      5       7.5779      0.00000
      6      10.1018      0.00000
      7      10.1018      0.00000
      8      10.1847      0.00000

 k-point   134 :       0.1667    0.0000    0.1667
  band No.  band energies     occupation 
      1      -5.6448      2.00000
      2       3.7968      2.00000
      3       4.6403      2.00000
      4       4.6403      2.00000
      5       7.5404      0.00000
      6      10.1410      0.00000
      7      10.1826      0.00000
      8      10.1826      0.00000

 k-point   135 :       0.1717    0.0000    0.1717
  band No.  band energies     occupation 
      1      -5.6151      2.00000
      2       3.7088      2.00000
      3       4.5945      2.00000
      4       4.5945      2.00000
      5       7.5030      0.00000
      6      10.0894      0.00000
      7      10.2641      0.00000
      8      10.2641      0.00000

 k-point   136 :       0.1768    0.0000    0.1768
  band No.  band energies     occupation 
      1      -5.5846      2.00000
      2       3.6207      2.00000
      3       4.5490      2.00000
      4       4.5490      2.00000
      5       7.4657      0.00000
      6      10.0334      0.00000
      7      10.3463      0.00000
      8      10.3463      0.00000

 k-point   137 :       0.1818    0.0000    0.1818
  band No.  band energies     occupation 
      1      -5.5533      2.00000
      2       3.5323      2.00000
      3       4.5040      2.00000
      4       4.5040      2.00000
      5       7.4286      0.00000
      6       9.9727      0.00000
      7      10.4293      0.00000
      8      10.4293      0.00000

 k-point   138 :       0.1869    0.0000    0.1869
  band No.  band energies     occupation 
      1      -5.5210      2.00000
      2       3.4435      2.00000
      3       4.4593      2.00000
      4       4.4593      2.00000
      5       7.3918      0.00000
      6       9.9080      0.00000
      7      10.5127      0.00000
      8      10.5127      0.00000

 k-point   139 :       0.1919    0.0000    0.1919
  band No.  band energies     occupation 
      1      -5.4880      2.00000
      2       3.3545      2.00000
      3       4.4151      2.00000
      4       4.4151      2.00000
      5       7.3552      0.00000
      6       9.8400      0.00000
      7      10.5967      0.00000
      8      10.5967      0.00000

 k-point   140 :       0.1970    0.0000    0.1970
  band No.  band energies     occupation 
      1      -5.4540      2.00000
      2       3.2652      2.00000
      3       4.3713      2.00000
      4       4.3713      2.00000
      5       7.3189      0.00000
      6       9.7695      0.00000
      7      10.6812      0.00000
      8      10.6812      0.00000

 k-point   141 :       0.2020    0.0000    0.2020
  band No.  band energies     occupation 
      1      -5.4193      2.00000
      2       3.1757      2.00000
      3       4.3280      2.00000
      4       4.3280      2.00000
      5       7.2830      0.00000
      6       9.6968      0.00000
      7      10.7663      0.00000
      8      10.7663      0.00000

 k-point   142 :       0.2071    0.0000    0.2071
  band No.  band energies     occupation 
      1      -5.3836      2.00000
      2       3.0860      2.00000
      3       4.2851      2.00000
      4       4.2851      2.00000
      5       7.2474      0.00000
      6       9.6225      0.00000
      7      10.8518      0.00000
      8      10.8518      0.00000

 k-point   143 :       0.2121    0.0000    0.2121
  band No.  band energies     occupation 
      1      -5.3471      2.00000
      2       2.9961      2.00000
      3       4.2428      2.00000
      4       4.2428      2.00000
      5       7.2123      0.00000
      6       9.5470      0.00000
      7      10.9378      0.00000
      8      10.9378      0.00000

 k-point   144 :       0.2172    0.0000    0.2172
  band No.  band energies     occupation 
      1      -5.3098      2.00000
      2       2.9060      2.00000
      3       4.2010      2.00000
      4       4.2010      2.00000
      5       7.1777      0.00000
      6       9.4705      0.00000
      7      11.0242      0.00000
      8      11.0242      0.00000

 k-point   145 :       0.2222    0.0000    0.2222
  band No.  band energies     occupation 
      1      -5.2716      2.00000
      2       2.8158      2.00000
      3       4.1598      2.00000
      4       4.1598      2.00000
      5       7.1435      0.00000
      6       9.3935      0.00000
      7      11.1111      0.00000
      8      11.1111      0.00000

 k-point   146 :       0.2273    0.0000    0.2273
  band No.  band energies     occupation 
      1      -5.2326      2.00000
      2       2.7255      2.00000
      3       4.1192      2.00000
      4       4.1192      2.00000
      5       7.1098      0.00000
      6       9.3161      0.00000
      7      11.1984      0.00000
      8      11.1984      0.00000

 k-point   147 :       0.2323    0.0000    0.2323
  band No.  band energies     occupation 
      1      -5.1927      2.00000
      2       2.6350      2.00000
      3       4.0791      2.00000
      4       4.0791      2.00000
      5       7.0765      0.00000
      6       9.2385      0.00000
      7      11.2855      0.00000
      8      11.2856      0.00000

 k-point   148 :       0.2374    0.0000    0.2374
  band No.  band energies     occupation 
      1      -5.1520      2.00000
      2       2.5444      2.00000
      3       4.0396      2.00000
      4       4.0396      2.00000
      5       7.0439      0.00000
      6       9.1610      0.00000
      7      11.3735      0.00000
      8      11.3736      0.00000

 k-point   149 :       0.2424    0.0000    0.2424
  band No.  band energies     occupation 
      1      -5.1105      2.00000
      2       2.4538      2.00000
      3       4.0007      2.00000
      4       4.0007      2.00000
      5       7.0120      0.00000
      6       9.0837      0.00000
      7      11.4619      0.00000
      8      11.4619      0.00000

 k-point   150 :       0.2475    0.0000    0.2475
  band No.  band energies     occupation 
      1      -5.0681      2.00000
      2       2.3631      2.00000
      3       3.9625      2.00000
      4       3.9625      2.00000
      5       6.9807      0.00000
      6       9.0068      0.00000
      7      11.5507      0.00000
      8      11.5507      0.00000

 k-point   151 :       0.2525    0.0000    0.2525
  band No.  band energies     occupation 
      1      -5.0250      2.00000
      2       2.2724      2.00000
      3       3.9249      2.00000
      4       3.9249      2.00000
      5       6.9500      0.00000
      6       8.9303      0.00000
      7      11.6398      0.00000
      8      11.6398      0.00000

 k-point   152 :       0.2576    0.0000    0.2576
  band No.  band energies     occupation 
      1      -4.9809      2.00000
      2       2.1816      2.00000
      3       3.8879      2.00000
      4       3.8879      2.00000
      5       6.9200      0.00000
      6       8.8543      0.00000
      7      11.7292      0.00000
      8      11.7292      0.00000

 k-point   153 :       0.2626    0.0000    0.2626
  band No.  band energies     occupation 
      1      -4.9361      2.00000
      2       2.0908      2.00000
      3       3.8516      2.00000
      4       3.8516      2.00000
      5       6.8906      0.00000
      6       8.7791      0.00000
      7      11.8189      0.00000
      8      11.8189      0.00000

 k-point   154 :       0.2677    0.0000    0.2677
  band No.  band energies     occupation 
      1      -4.8904      2.00000
      2       2.0000      2.00000
      3       3.8159      2.00000
      4       3.8159      2.00000
      5       6.8620      0.00000
      6       8.7045      0.00000
      7      11.9089      0.00000
      8      11.9089      0.00000

 k-point   155 :       0.2727    0.0000    0.2727
  band No.  band energies     occupation 
      1      -4.8439      2.00000
      2       1.9092      2.00000
      3       3.7810      2.00000
      4       3.7810      2.00000
      5       6.8343      0.00000
      6       8.6308      0.00000
      7      11.9999      0.00000
      8      11.9999      0.00000

 k-point   156 :       0.2778    0.0000    0.2778
  band No.  band energies     occupation 
      1      -4.7966      2.00000
      2       1.8184      2.00000
      3       3.7467      2.00000
      4       3.7467      2.00000
      5       6.8072      0.00000
      6       8.5580      0.00000
      7      12.0905      0.00000
      8      12.0905      0.00000

 k-point   157 :       0.2828    0.0000    0.2828
  band No.  band energies     occupation 
      1      -4.7485      2.00000
      2       1.7276      2.00000
      3       3.7131      2.00000
      4       3.7131      2.00000
      5       6.7808      0.00000
      6       8.4860      0.00000
      7      12.1814      0.00000
      8      12.1814      0.00000

 k-point   158 :       0.2879    0.0000    0.2879
  band No.  band energies     occupation 
      1      -4.6996      2.00000
      2       1.6369      2.00000
      3       3.6802      2.00000
      4       3.6802      2.00000
      5       6.7554      0.00000
      6       8.4154      0.00000
      7      12.2738      0.00000
      8      12.2738      0.00000

 k-point   159 :       0.2929    0.0000    0.2929
  band No.  band energies     occupation 
      1      -4.6499      2.00000
      2       1.5462      2.00000
      3       3.6480      2.00000
      4       3.6480      2.00000
      5       6.7305      0.00000
      6       8.3455      0.00000
      7      12.3652      0.00000
      8      12.3652      0.00000

 k-point   160 :       0.2980    0.0000    0.2980
  band No.  band energies     occupation 
      1      -4.5994      2.00000
      2       1.4556      2.00000
      3       3.6165      2.00000
      4       3.6165      2.00000
      5       6.7065      0.00000
      6       8.2766      0.00000
      7      12.4569      0.00000
      8      12.4569      0.00000

 k-point   161 :       0.3030    0.0000    0.3030
  band No.  band energies     occupation 
      1      -4.5481      2.00000
      2       1.3650      2.00000
      3       3.5856      2.00000
      4       3.5856      2.00000
      5       6.6832      0.00000
      6       8.2088      0.00000
      7      12.5488      0.00000
      8      12.5488      0.00000

 k-point   162 :       0.3081    0.0000    0.3081
  band No.  band energies     occupation 
      1      -4.4961      2.00000
      2       1.2745      2.00000
      3       3.5555      2.00000
      4       3.5555      2.00000
      5       6.6609      0.00000
      6       8.1421      0.00000
      7      12.6410      0.00000
      8      12.6410      0.00000

 k-point   163 :       0.3131    0.0000    0.3131
  band No.  band energies     occupation 
      1      -4.4432      2.00000
      2       1.1841      2.00000
      3       3.5262      2.00000
      4       3.5262      2.00000
      5       6.6394      0.00000
      6       8.0766      0.00000
      7      12.7335      0.00000
      8      12.7335      0.00000

 k-point   164 :       0.3182    0.0000    0.3182
  band No.  band energies     occupation 
      1      -4.3895      2.00000
      2       1.0938      2.00000
      3       3.4975      2.00000
      4       3.4975      2.00000
      5       6.6187      0.00000
      6       8.0123      0.00000
      7      12.8261      0.00000
      8      12.8261      0.00000

 k-point   165 :       0.3232    0.0000    0.3232
  band No.  band energies     occupation 
      1      -4.3351      2.00000
      2       1.0037      2.00000
      3       3.4696      2.00000
      4       3.4696      2.00000
      5       6.5990      0.00000
      6       7.9492      0.00000
      7      12.9190      0.00000
      8      12.9190      0.00000

 k-point   166 :       0.3283    0.0000    0.3283
  band No.  band energies     occupation 
      1      -4.2799      2.00000
      2       0.9136      2.00000
      3       3.4425      2.00000
      4       3.4425      2.00000
      5       6.5801      0.00000
      6       7.8872      0.00000
      7      13.0122      0.00000
      8      13.0122      0.00000

 k-point   167 :       0.3333    0.0000    0.3333
  band No.  band energies     occupation 
      1      -4.2239      2.00000
      2       0.8238      2.00000
      3       3.4161      2.00000
      4       3.4161      2.00000
      5       6.5622      0.00000
      6       7.8265      0.00000
      7      13.1055      0.00000
      8      13.1055      0.00000

 k-point   168 :       0.3384    0.0000    0.3384
  band No.  band energies     occupation 
      1      -4.1672      2.00000
      2       0.7340      2.00000
      3       3.3904      2.00000
      4       3.3904      2.00000
      5       6.5451      0.00000
      6       7.7671      0.00000
      7      13.1991      0.00000
      8      13.1991      0.00000

 k-point   169 :       0.3434    0.0000    0.3434
  band No.  band energies     occupation 
      1      -4.1097      2.00000
      2       0.6445      2.00000
      3       3.3655      2.00000
      4       3.3655      2.00000
      5       6.5290      0.00000
      6       7.7089      0.00000
      7      13.2929      0.00000
      8      13.2929      0.00000

 k-point   170 :       0.3485    0.0000    0.3485
  band No.  band energies     occupation 
      1      -4.0515      2.00000
      2       0.5551      2.00000
      3       3.3414      2.00000
      4       3.3414      2.00000
      5       6.5139      0.00000
      6       7.6519      0.00000
      7      13.3869      0.00000
      8      13.3871      0.00000

 k-point   171 :       0.3535    0.0000    0.3535
  band No.  band energies     occupation 
      1      -3.9925      2.00000
      2       0.4659      2.00000
      3       3.3180      2.00000
      4       3.3180      2.00000
      5       6.4997      0.00000
      6       7.5963      0.00000
      7      13.4811      0.00000
      8      13.4811      0.00000

 k-point   172 :       0.3586    0.0000    0.3586
  band No.  band energies     occupation 
      1      -3.9327      2.00000
      2       0.3769      2.00000
      3       3.2953      2.00000
      4       3.2953      2.00000
      5       6.4864      0.00000
      6       7.5419      0.00000
      7      13.5755      0.00000
      8      13.5755      0.00000

 k-point   173 :       0.3636    0.0000    0.3636
  band No.  band energies     occupation 
      1      -3.8723      2.00000
      2       0.2881      2.00000
      3       3.2734      2.00000
      4       3.2734      2.00000
      5       6.4733      0.00000
      6       7.4887      0.00000
      7      13.6691      0.00000
      8      13.6692      0.00000

 k-point   174 :       0.3687    0.0000    0.3687
  band No.  band energies     occupation 
      1      -3.8111      2.00000
      2       0.1996      2.00000
      3       3.2523      2.00000
      4       3.2523      2.00000
      5       6.4621      0.00000
      6       7.4369      0.00000
      7      13.7639      0.00000
      8      13.7639      0.00000

 k-point   175 :       0.3737    0.0000    0.3737
  band No.  band energies     occupation 
      1      -3.7492      2.00000
      2       0.1113      2.00000
      3       3.2320      2.00000
      4       3.2320      2.00000
      5       6.4518      0.00000
      6       7.3864      0.00000
      7      13.8588      0.00000
      8      13.8588      0.00000

 k-point   176 :       0.3788    0.0000    0.3788
  band No.  band energies     occupation 
      1      -3.6865      2.00000
      2       0.0232      2.00000
      3       3.2125      2.00000
      4       3.2125      2.00000
      5       6.4425      0.00000
      6       7.3372      0.00000
      7      13.9539      0.00000
      8      13.9539      0.00000

 k-point   177 :       0.3838    0.0000    0.3838
  band No.  band energies     occupation 
      1      -3.6231      2.00000
      2      -0.0645      2.00000
      3       3.1938      2.00000
      4       3.1938      2.00000
      5       6.4342      0.00000
      6       7.2895      0.00000
      7      14.0495      0.00000
      8      14.0495      0.00000

 k-point   178 :       0.3889    0.0000    0.3889
  band No.  band energies     occupation 
      1      -3.5590      2.00000
      2      -0.1520      2.00000
      3       3.1758      2.00000
      4       3.1758      2.00000
      5       6.4270      0.00000
      6       7.2429      0.00000
      7      14.1449      0.00000
      8      14.1449      0.00000

 k-point   179 :       0.3939    0.0000    0.3939
  band No.  band energies     occupation 
      1      -3.4942      2.00000
      2      -0.2392      2.00000
      3       3.1586      2.00000
      4       3.1586      2.00000
      5       6.4207      0.00000
      6       7.1976      0.00000
      7      14.2403      0.00000
      8      14.2403      0.00000

 k-point   180 :       0.3990    0.0000    0.3990
  band No.  band energies     occupation 
      1      -3.4287      2.00000
      2      -0.3261      2.00000
      3       3.1422      2.00000
      4       3.1422      2.00000
      5       6.4157      0.00000
      6       7.1539      0.00000
      7      14.3359      0.00000
      8      14.3360      0.00000

 k-point   181 :       0.4040    0.0000    0.4040
  band No.  band energies     occupation 
      1      -3.3625      2.00000
      2      -0.4127      2.00000
      3       3.1266      2.00000
      4       3.1266      2.00000
      5       6.4116      0.00000
      6       7.1113      0.00000
      7      14.4315      0.00000
      8      14.4315      0.00000

 k-point   182 :       0.4091    0.0000    0.4091
  band No.  band energies     occupation 
      1      -3.2956      2.00000
      2      -0.4990      2.00000
      3       3.1117      2.00000
      4       3.1117      2.00000
      5       6.4086      0.00000
      6       7.0699      0.00000
      7      14.5271      0.00000
      8      14.5271      0.00000

 k-point   183 :       0.4141    0.0000    0.4141
  band No.  band energies     occupation 
      1      -3.2281      2.00000
      2      -0.5849      2.00000
      3       3.0977      2.00000
      4       3.0977      2.00000
      5       6.4065      0.00000
      6       7.0298      0.00000
      7      14.6224      0.00000
      8      14.6225      0.00000

 k-point   184 :       0.4192    0.0000    0.4192
  band No.  band energies     occupation 
      1      -3.1599      2.00000
      2      -0.6705      2.00000
      3       3.0844      2.00000
      4       3.0844      2.00000
      5       6.4056      0.00000
      6       6.9912      0.00000
      7      14.7191      0.00000
      8      14.7191      0.00000

 k-point   185 :       0.4242    0.0000    0.4242
  band No.  band energies     occupation 
      1      -3.0910      2.00000
      2      -0.7557      2.00000
      3       3.0719      2.00000
      4       3.0719      2.00000
      5       6.4058      0.00000
      6       6.9538      0.00000
      7      14.8145      0.00000
      8      14.8145      0.00000

 k-point   186 :       0.4293    0.0000    0.4293
  band No.  band energies     occupation 
      1      -3.0214      2.00000
      2      -0.8406      2.00000
      3       3.0603      2.00000
      4       3.0603      2.00000
      5       6.4070      0.00000
      6       6.9176      0.00000
      7      14.9097      0.00000
      8      14.9097      0.00000

 k-point   187 :       0.4343    0.0000    0.4343
  band No.  band energies     occupation 
      1      -2.9512      2.00000
      2      -0.9250      2.00000
      3       3.0494      2.00000
      4       3.0494      2.00000
      5       6.4094      0.00000
      6       6.8827      0.00000
      7      15.0045      0.00000
      8      15.0045      0.00000

 k-point   188 :       0.4394    0.0000    0.4394
  band No.  band energies     occupation 
      1      -2.8804      2.00000
      2      -1.0091      2.00000
      3       3.0394      2.00000
      4       3.0394      2.00000
      5       6.4129      0.00000
      6       6.8491      0.00000
      7      15.0990      0.00000
      8      15.0990      0.00000

 k-point   189 :       0.4444    0.0000    0.4444
  band No.  band energies     occupation 
      1      -2.8089      2.00000
      2      -1.0928      2.00000
      3       3.0301      2.00000
      4       3.0301      2.00000
      5       6.4175      0.00000
      6       6.8168      0.00000
      7      15.1928      0.00000
      8      15.1928      0.00000

 k-point   190 :       0.4495    0.0000    0.4495
  band No.  band energies     occupation 
      1      -2.7368      2.00000
      2      -1.1760      2.00000
      3       3.0216      2.00000
      4       3.0216      2.00000
      5       6.4232      0.00000
      6       6.7857      0.00000
      7      15.2857      0.00000
      8      15.2857      0.00000

 k-point   191 :       0.4545    0.0000    0.4545
  band No.  band energies     occupation 
      1      -2.6641      2.00000
      2      -1.2588      2.00000
      3       3.0140      2.00000
      4       3.0140      2.00000
      5       6.4300      0.00000
      6       6.7559      0.00000
      7      15.3774      0.00000
      8      15.3774      0.00000

 k-point   192 :       0.4596    0.0000    0.4596
  band No.  band energies     occupation 
      1      -2.5908      2.00000
      2      -1.3412      2.00000
      3       3.0072      2.00000
      4       3.0072      2.00000
      5       6.4380      0.00000
      6       6.7274      0.00000
      7      15.4675      0.00000
      8      15.4675      0.00000

 k-point   193 :       0.4646    0.0000    0.4646
  band No.  band energies     occupation 
      1      -2.5168      2.00000
      2      -1.4231      2.00000
      3       3.0011      2.00000
      4       3.0011      2.00000
      5       6.4472      0.00000
      6       6.7002      0.00000
      7      15.5554      0.00000
      8      15.5554      0.00000

 k-point   194 :       0.4697    0.0000    0.4697
  band No.  band energies     occupation 
      1      -2.4423      2.00000
      2      -1.5045      2.00000
      3       2.9959      2.00000
      4       2.9959      2.00000
      5       6.4575      0.00000
      6       6.6742      0.00000
      7      15.6400      0.00000
      8      15.6401      0.00000

 k-point   195 :       0.4747    0.0000    0.4747
  band No.  band energies     occupation 
      1      -2.3672      2.00000
      2      -1.5856      2.00000
      3       2.9914      2.00000
      4       2.9914      2.00000
      5       6.4689      0.00000
      6       6.6492      0.00000
      7      15.7197      0.00000
      8      15.7198      0.00000

 k-point   196 :       0.4798    0.0000    0.4798
  band No.  band energies     occupation 
      1      -2.2915      2.00000
      2      -1.6661      2.00000
      3       2.9878      2.00000
      4       2.9878      2.00000
      5       6.4815      0.00000
      6       6.6257      0.00000
      7      15.7937      0.00000
      8      15.7941      0.00000

 k-point   197 :       0.4848    0.0000    0.4848
  band No.  band energies     occupation 
      1      -2.2152      2.00000
      2      -1.7461      2.00000
      3       2.9849      2.00000
      4       2.9849      2.00000
      5       6.4954      0.00000
      6       6.6034      0.00000
      7      15.8583      0.00000
      8      15.8590      0.00000

 k-point   198 :       0.4899    0.0000    0.4899
  band No.  band energies     occupation 
      1      -2.1384      2.00000
      2      -1.8256      2.00000
      3       2.9829      2.00000
      4       2.9829      2.00000
      5       6.5104      0.00000
      6       6.5824      0.00000
      7      15.9099      0.00000
      8      15.9117      0.00000

 k-point   199 :       0.4949    0.0000    0.4949
  band No.  band energies     occupation 
      1      -2.0610      2.00000
      2      -1.9046      2.00000
      3       2.9817      2.00000
      4       2.9817      2.00000
      5       6.5266      0.00000
      6       6.5626      0.00000
      7      15.9437      0.00000
      8      15.9450      0.00000

 k-point   200 :       0.5000    0.0000    0.5000
  band No.  band energies     occupation 
      1      -1.9830      2.00000
      2      -1.9830      2.00000
      3       2.9813      2.00000
      4       2.9813      2.00000
      5       6.5440      0.00000
      6       6.5440      0.00000
      7      15.9558      0.00000
      8      15.9577      0.00000


--------------------------------------------------------------------------------------------------------


 soft charge-density along one line, spin component           1
         0         1         2         3         4         5         6         7         8         9
 total charge-density along one line
 
 pseudopotential strength for first ion, spin component:           1
 18.413  25.690   0.000   0.000   0.000   0.000   0.000   0.000
 25.690  35.846   0.000   0.000   0.000   0.000   0.000   0.000
  0.000   0.000   4.178  -0.000  -0.000   7.786  -0.000  -0.000
  0.000   0.000  -0.000   4.178  -0.000  -0.000   7.786  -0.000
  0.000   0.000  -0.000  -0.000   4.178  -0.000  -0.000   7.786
  0.000   0.000   7.786  -0.000  -0.000  14.520  -0.000  -0.000
  0.000   0.000  -0.000   7.786  -0.000  -0.000  14.520  -0.000
  0.000   0.000  -0.000  -0.000   7.786  -0.000  -0.000  14.520
 total augmentation occupancy for first ion, spin component:           1
  2.000   0.000   0.000   0.000   0.000   0.000   0.000   0.000
  0.000   0.000   0.000   0.000   0.000   0.000   0.000   0.000
  0.000   0.000   0.667   0.000   0.000   0.000   0.000   0.000
  0.000   0.000   0.000   0.667   0.000   0.000   0.000   0.000
  0.000   0.000   0.000   0.000   0.667   0.000   0.000   0.000
  0.000   0.000   0.000   0.000   0.000   0.000   0.000   0.000
  0.000   0.000   0.000   0.000   0.000   0.000   0.000   0.000
  0.000   0.000   0.000   0.000   0.000   0.000   0.000   0.000


------------------------ aborting loop because EDIFF is reached ----------------------------------------





 total charge

# of ion       s       p       d       tot
------------------------------------------
    1        0.677   1.065   0.000   1.743
    2        0.677   1.065   0.000   1.743
--------------------------------------------------
tot          1.355   2.131   0.000   3.485
 
    CHARGE:  cpu time      0.1840: real time      0.1840
    FORLOC:  cpu time      0.0028: real time      0.0028
    FORNL :  cpu time      0.1040: real time      0.1040
    STRESS:  cpu time      0.5690: real time      0.5690
    FORCOR:  cpu time      0.0468: real time      0.0468
    FORHAR:  cpu time      0.0095: real time      0.0095
    OFIELD:  cpu time      0.0001: real time      0.0001

  FORCE on cell =-STRESS in cart. coord.  units (eV):
  Direction    XX          YY          ZZ          XY          YZ          ZX
  --------------------------------------------------------------------------------------
  Alpha Z     3.36415     3.36415     3.36415
  Ewald     -76.18788   -76.18788   -76.18788    -0.00000    -0.00000     0.00000
  Hartree     6.26875     6.26875     6.05914     0.00000    -0.00000    -0.00000
  E(xc)     -25.39241   -25.39241   -25.73493    -0.00000    -0.00000    -0.00000
  Local     -29.83350   -29.83350   -36.34238     0.00001     0.00001     0.00001
  n-local    76.26959    76.26958    81.06796     0.00000    -0.00000    -0.00000
  augment   -10.93093   -10.93094   -11.60784    -0.00001    -0.00001    -0.00001
  Kinetic    62.40750    62.40752    67.77894    -0.00000     0.00000     0.00000
  Fock        0.00000     0.00000     0.00000     0.00000     0.00000     0.00000
  -------------------------------------------------------------------------------------
  Total       5.96526     5.96528     8.39716    -0.00000     0.00000     0.00000
  in kB     238.78154   238.78219   336.12716    -0.00005     0.00017     0.00017
  external pressure =      271.23 kB  Pullay stress =        0.00 kB


 VOLUME and BASIS-vectors are now :
 -----------------------------------------------------------------------------
  energy-cutoff  :      320.00
  volume of cell :       40.03
      direct lattice vectors                 reciprocal lattice vectors
     0.000000000  2.715000000  2.715000000    -0.184162063  0.184162063  0.184162063
     2.715000000  0.000000000  2.715000000     0.184162063 -0.184162063  0.184162063
     2.715000000  2.715000000  0.000000000     0.184162063  0.184162063 -0.184162063

  length of vectors
     3.839589822  3.839589822  3.839589822     0.318978049  0.318978049  0.318978049


 FORCES acting on ions
    electron-ion (+dipol)            ewald-force                    non-local-force                 convergence-correction
 -----------------------------------------------------------------------------------------------
   -.189E-04 0.146E-04 -.223E-04   -.476E-15 -.149E-14 0.391E-14   0.126E-04 -.980E-05 0.156E-04   0.233E-05 -.115E-05 0.222E-05
   -.186E-04 0.767E-05 -.196E-04   0.623E-15 0.106E-14 -.375E-14   0.124E-04 -.587E-05 0.136E-04   0.163E-05 -.914E-06 0.172E-05
 -----------------------------------------------------------------------------------------------
   -.374E-04 0.223E-04 -.420E-04   0.147E-15 -.426E-15 0.164E-15   0.249E-04 -.157E-04 0.292E-04   0.395E-05 -.206E-05 0.394E-05
 
 
 POSITION                                       TOTAL-FORCE (eV/Angst)
 -----------------------------------------------------------------------------------
      0.00000      0.00000      0.00000         0.000000      0.000001     -0.000000
      1.35750      1.35750      1.35750        -0.000000     -0.000001      0.000000
 -----------------------------------------------------------------------------------
    total drift:                               -0.000009      0.000005     -0.000009


--------------------------------------------------------------------------------------------------------



  FREE ENERGIE OF THE ION-ELECTRON SYSTEM (eV)
  ---------------------------------------------------
  free  energy   TOTEN  =        -5.31071907 eV

  energy  without entropy=       -5.31071907  energy(sigma->0) =       -5.31071907
 


--------------------------------------------------------------------------------------------------------


    POTLOK:  cpu time      0.0456: real time      0.0456


--------------------------------------------------------------------------------------------------------


 writing wavefunctions
     LOOP+:  cpu time     17.4693: real time     17.4828
    4ORBIT:  cpu time      0.0000: real time      0.0000



 total charge

# of ion       s       p       d       tot
------------------------------------------
    1        0.677   1.065   0.000   1.743
    2        0.677   1.065   0.000   1.743
--------------------------------------------------
tot          1.355   2.131   0.000   3.485
 

 total amount of memory used by VASP MPI-rank0    60794. kBytes
=======================================================================

   base      :      30000. kBytes
   nonl-proj :       6826. kBytes
   fftplans  :       3916. kBytes
   grid      :       6018. kBytes
   one-center:          6. kBytes
   wavefun   :      14028. kBytes
 
  
  
 General timing and accounting informations for this job:
 ========================================================
  
                  Total CPU time used (sec):       18.118
                            User time (sec):       17.958
                          System time (sec):        0.160
                         Elapsed time (sec):       18.424
  
                   Maximum memory used (kb):      126912.
                   Average memory used (kb):          N/A
  
                          Minor page faults:        15586
                          Major page faults:            3
                 Voluntary context switches:         1154
