       N       E                     dE             d eps       ncg     rms          rms(c)
DAV:   1     0.899384202084E+01    0.89938E+01   -0.25449E+03  1280   0.508E+02
DAV:   2    -0.513143831501E+01   -0.14125E+02   -0.13175E+02  2208   0.670E+01
DAV:   3    -0.530493884233E+01   -0.17350E+00   -0.17350E+00  1664   0.943E+00
DAV:   4    -0.530557696560E+01   -0.63812E-03   -0.63812E-03  2032   0.573E-01
DAV:   5    -0.530557834170E+01   -0.13761E-05   -0.13758E-05  1640   0.169E-02
DAV:   6    -0.530557836688E+01   -0.25180E-07   -0.25495E-07  1504   0.155E-03
   1 F= -.53055784E+01 E0= -.53055784E+01  d E =-.114102E-15
