 vasp.6.3.0 20Jan22 (build Mar 29 2022 17:59:55) complex                        
  
 executed on           IFC91_ompi date 2026.07.23  12:33:48
 running on    1 total cores
 distrk:  each k-point on    1 cores,    1 groups
 distr:  one band on NCORE=   1 cores,    1 groups


--------------------------------------------------------------------------------------------------------


 INCAR:
   ISTART = 0
   ICHARG = 2
   ENCUT = 320
   PREC = Accurate
   ISMEAR = 0
   SIGMA = 0.05
   ISYM = 0
   EDIFF = 1E-7
   LCHARG = .TRUE.
   NSW = 0
   GGA = PE

 POTCAR:    PAW_PBE Si 05Jan2001                  
 POTCAR:    PAW_PBE Si 05Jan2001                  
   VRHFIN =Si: s2p2                                                                                 
   LEXCH  = PE                                                                                      
   EATOM  =   103.0669 eV,    7.5752 Ry                                                             
                                                                                                    
   TITEL  = PAW_PBE Si 05Jan2001                                                                    
   LULTRA =        F    use ultrasoft PP ?                                                          
   IUNSCR =        1    unscreen: 0-lin 1-nonlin 2-no                                               
   RPACOR =    1.500    partial core radius                                                         
   POMASS =   28.085; ZVAL   =    4.000    mass and valenz                                          
   RCORE  =    1.900    outmost cutoff radius                                                       
   RWIGS  =    2.480; RWIGS  =    1.312    wigner-seitz radius (au A)                               
   ENMAX  =  245.345; ENMIN  =  184.009 eV                                                          
   ICORE  =        2    local potential                                                             
   LCOR   =        T    correct aug charges                                                         
   LPAW   =        T    paw PP                                                                      
   EAUG   =  322.069                                                                                
   DEXC   =    0.000                                                                                
   RMAX   =    1.950    core radius for proj-oper                                                   
   RAUG   =    1.300    factor for augmentation sphere                                              
   RDEP   =    1.993    radius for radial grids                                                     
   RDEPT  =    1.837    core radius for aug-charge                                                  
                                                                                                    
   Atomic configuration                                                                             
    6 entries                                                                                       
     n  l   j            E        occ.                                                              
     1  0  0.50     -1785.8828   2.0000                                                             
     2  0  0.50      -139.4969   2.0000                                                             
     2  1  1.50       -95.5546   6.0000                                                             
     3  0  0.50       -10.8127   2.0000                                                             
     3  1  0.50        -4.0811   2.0000                                                             
     3  2  1.50        -4.0817   0.0000                                                             
   Description                                                                                      
     l       E           TYP  RCUT    TYP  RCUT                                                     
     0    -10.8127223     23  1.900                                                                 
     0     -7.6451159     23  1.900                                                                 
     1     -4.0811372     23  1.900                                                                 
     1      2.4879257     23  1.900                                                                 
     2     -4.0817478      7  1.900                                                                 
  local pseudopotential read in
  partial core-charges read in
  partial kinetic energy density read in
  atomic valenz-charges read in
  non local Contribution for L=           0  read in
    real space projection operators read in
  non local Contribution for L=           0  read in
    real space projection operators read in
  non local Contribution for L=           1  read in
    real space projection operators read in
  non local Contribution for L=           1  read in
    real space projection operators read in
    PAW grid and wavefunctions read in
 
   number of l-projection  operators is LMAX  =           4
   number of lm-projection operators is LMMAX =           8
 
  PAW_PBE Si 05Jan2001                  :
 energy of atom  1       EATOM= -103.0669
 kinetic energy error for atom=    0.0016 (will be added to EATOM!!)
 
 
 POSCAR: Si
  positions in cartesian coordinates
  No initial velocities read in
 exchange correlation table for  LEXCH =        8
   RHO(1)=    0.500       N(1)  =     2000
   RHO(2)=  100.500       N(2)  =     4000
 


--------------------------------------------------------------------------------------------------------


 ion  position               nearest neighbor table
   1  0.000  0.000  0.000-   2 2.36   2 2.36   2 2.36   2 2.36
   2  0.250  0.250  0.250-   1 2.36   1 2.36   1 2.36   1 2.36
 

IMPORTANT INFORMATION: All symmetrisations will be switched off!
NOSYMM: (Re-)initialisation of all symmetry stuff for point group C_1.


----------------------------------------------------------------------------------------

                                     Primitive cell                                     

  volume of cell :      40.2259

  direct lattice vectors                    reciprocal lattice vectors
     0.000000000  2.715000000  2.715000000    -0.183245833  0.184162063  0.184162063
     2.728575000  0.000000000  2.715000000     0.183245833 -0.184162063  0.184162063
     2.728575000  2.715000000  0.000000000     0.183245833  0.184162063 -0.184162063

  length of vectors
     3.839589822  3.849200765  3.849200765     0.318449943  0.318449943  0.318449943

  position of ions in fractional coordinates (direct lattice)
     0.000000000  0.000000000  0.000000000
     0.250000000  0.250000000  0.250000000

  ion indices of the primitive-cell ions
   primitive index   ion index
                 1           1
                 2           2

----------------------------------------------------------------------------------------

 
 
 KPOINTS: auto                                    

Automatic generation of k-mesh.
 Grid dimensions read from file:
 generate k-points for:    8    8    8

 Generating k-lattice:

  Cartesian coordinates                     Fractional coordinates (reciprocal lattice)
    -0.022905729  0.023020258  0.023020258     0.125000000  0.000000000  0.000000000
     0.022905729 -0.023020258  0.023020258    -0.000000000  0.125000000 -0.000000000
     0.022905729  0.023020258 -0.023020258     0.000000000 -0.000000000  0.125000000

  Length of vectors
     0.039806243  0.039806243  0.039806243

  Shift w.r.t. Gamma in fractional coordinates (k-lattice)
     0.000000000  0.000000000  0.000000000

 
 Subroutine IBZKPT returns following result:
 ===========================================
 
 Found    260 irreducible k-points:
 
 Following reciprocal coordinates:
            Coordinates               Weight
  0.000000  0.000000  0.000000      1.000000
  0.125000  0.000000  0.000000      2.000000
  0.000000 -0.125000  0.000000      2.000000
 -0.125000 -0.125000 -0.125000      2.000000
 -0.000000  0.000000 -0.125000      2.000000
  0.250000  0.000000  0.000000      2.000000
  0.000000 -0.250000  0.000000      2.000000
 -0.250000 -0.250000 -0.250000      2.000000
 -0.000000  0.000000 -0.250000      2.000000
  0.375000  0.000000  0.000000      2.000000
  0.000000 -0.375000  0.000000      2.000000
 -0.375000 -0.375000 -0.375000      2.000000
 -0.000000  0.000000 -0.375000      2.000000
  0.500000  0.000000  0.000000      1.000000
  0.000000  0.500000  0.000000      1.000000
  0.500000  0.500000  0.500000      1.000000
  0.000000 -0.000000  0.500000      1.000000
  0.125000  0.125000  0.000000      2.000000
  0.125000 -0.000000  0.125000      2.000000
  0.250000  0.125000  0.000000      2.000000
  0.125000 -0.125000  0.125000      2.000000
 -0.250000 -0.250000 -0.125000      2.000000
 -0.125000  0.000000 -0.250000      2.000000
 -0.125000 -0.125000  0.125000      2.000000
  0.250000  0.125000  0.250000      2.000000
  0.125000  0.250000 -0.000000      2.000000
 -0.250000 -0.000000 -0.125000      2.000000
  0.375000  0.125000  0.000000      2.000000
  0.125000 -0.250000  0.125000      2.000000
 -0.375000 -0.375000 -0.250000      2.000000
 -0.125000  0.000000 -0.375000      2.000000
 -0.125000 -0.125000  0.250000      2.000000
  0.375000  0.250000  0.375000      2.000000
  0.125000  0.375000 -0.000000      2.000000
 -0.375000 -0.000000 -0.125000      2.000000
  0.500000  0.125000  0.000000      2.000000
  0.125000 -0.375000  0.125000      2.000000
  0.500000  0.500000 -0.375000      2.000000
 -0.125000 -0.000000  0.500000      2.000000
 -0.125000 -0.125000  0.375000      2.000000
  0.500000  0.375000  0.500000      2.000000
  0.125000  0.500000 -0.000000      2.000000
  0.500000  0.000000 -0.125000      2.000000
 -0.375000  0.125000 -0.000000      2.000000
  0.125000  0.500000  0.125000      2.000000
  0.375000  0.375000  0.500000      2.000000
 -0.125000 -0.000000  0.375000      2.000000
 -0.125000 -0.125000  0.500000      2.000000
 -0.375000  0.500000 -0.375000      2.000000
  0.125000 -0.375000  0.000000      2.000000
  0.375000  0.000000 -0.125000      2.000000
 -0.250000  0.125000 -0.000000      2.000000
  0.125000  0.375000  0.125000      2.000000
  0.250000  0.250000  0.375000      2.000000
 -0.125000 -0.000000  0.250000      2.000000
 -0.125000 -0.125000 -0.375000      2.000000
 -0.250000 -0.375000 -0.250000      2.000000
  0.125000 -0.250000  0.000000      2.000000
  0.250000  0.000000 -0.125000      2.000000
 -0.125000  0.125000 -0.000000      2.000000
  0.125000  0.250000  0.125000      2.000000
  0.125000  0.125000  0.250000      2.000000
 -0.125000 -0.000000  0.125000      2.000000
  0.250000  0.250000  0.000000      2.000000
  0.250000 -0.000000  0.250000      2.000000
  0.375000  0.250000  0.000000      2.000000
  0.250000 -0.125000  0.250000      2.000000
 -0.375000 -0.375000 -0.125000      2.000000
 -0.250000  0.000000 -0.375000      2.000000
 -0.250000 -0.250000  0.125000      2.000000
  0.375000  0.125000  0.375000      2.000000
  0.250000  0.375000 -0.000000      2.000000
 -0.375000 -0.000000 -0.250000      2.000000
  0.500000  0.250000  0.000000      2.000000
  0.250000 -0.250000  0.250000      2.000000
  0.500000  0.500000 -0.250000      2.000000
 -0.250000 -0.000000  0.500000      2.000000
 -0.250000 -0.250000  0.250000      2.000000
  0.500000  0.250000  0.500000      2.000000
  0.250000  0.500000 -0.000000      2.000000
  0.500000  0.000000 -0.250000      2.000000
 -0.375000  0.250000 -0.000000      2.000000
  0.250000 -0.375000  0.250000      2.000000
  0.375000  0.375000 -0.375000      2.000000
 -0.250000 -0.000000  0.375000      2.000000
 -0.250000 -0.250000  0.375000      2.000000
 -0.375000  0.375000 -0.375000      2.000000
  0.250000 -0.375000  0.000000      2.000000
  0.375000  0.000000 -0.250000      2.000000
 -0.250000  0.250000 -0.000000      2.000000
  0.250000  0.500000  0.250000      2.000000
  0.250000  0.250000  0.500000      2.000000
 -0.250000 -0.000000  0.250000      2.000000
  0.375000  0.375000  0.000000      2.000000
  0.375000 -0.000000  0.375000      2.000000
  0.500000  0.375000  0.000000      2.000000
  0.375000 -0.125000  0.375000      2.000000
  0.500000  0.500000 -0.125000      2.000000
 -0.375000 -0.000000  0.500000      2.000000
 -0.375000 -0.375000  0.125000      2.000000
  0.500000  0.125000  0.500000      2.000000
  0.375000  0.500000 -0.000000      2.000000
  0.500000  0.000000 -0.375000      2.000000
 -0.375000  0.375000 -0.000000      2.000000
  0.375000 -0.250000  0.375000      2.000000
  0.375000  0.375000 -0.250000      2.000000
 -0.375000 -0.000000  0.375000      2.000000
  0.500000  0.500000  0.000000      1.000000
  0.500000 -0.000000  0.500000      1.000000
 -0.000000  0.125000  0.125000      2.000000
  0.250000  0.125000  0.125000      2.000000
  0.000000 -0.125000  0.125000      2.000000
  0.375000  0.125000  0.125000      2.000000
  0.000000 -0.250000  0.125000      2.000000
 -0.375000 -0.250000 -0.250000      2.000000
 -0.000000  0.125000 -0.250000      2.000000
  0.500000  0.125000  0.125000      2.000000
 -0.000000 -0.375000  0.125000      2.000000
  0.500000 -0.375000 -0.375000      2.000000
  0.000000  0.125000 -0.375000      2.000000
 -0.375000  0.125000  0.125000      2.000000
 -0.000000  0.500000  0.125000      2.000000
  0.375000  0.500000  0.500000      2.000000
  0.000000  0.125000  0.500000      2.000000
 -0.250000  0.125000  0.125000      2.000000
 -0.000000  0.375000  0.125000      2.000000
  0.250000  0.375000  0.375000      2.000000
 -0.000000  0.125000  0.375000      2.000000
 -0.125000  0.125000  0.125000      2.000000
 -0.000000  0.250000  0.125000      2.000000
  0.125000  0.250000  0.250000      2.000000
  0.000000  0.125000  0.250000      2.000000
  0.375000  0.250000  0.125000      2.000000
  0.125000 -0.125000  0.250000      2.000000
 -0.125000 -0.250000  0.125000      2.000000
  0.375000  0.125000  0.250000      2.000000
  0.500000  0.250000  0.125000      2.000000
  0.125000 -0.250000  0.250000      2.000000
  0.500000 -0.375000 -0.250000      2.000000
 -0.125000  0.125000 -0.375000      2.000000
 -0.125000 -0.250000  0.250000      2.000000
  0.500000  0.250000  0.375000      2.000000
  0.125000  0.375000 -0.125000      2.000000
  0.500000 -0.125000 -0.250000      2.000000
 -0.375000  0.250000  0.125000      2.000000
  0.125000 -0.375000  0.250000      2.000000
  0.375000  0.500000 -0.375000      2.000000
 -0.125000  0.125000  0.500000      2.000000
 -0.125000 -0.250000  0.375000      2.000000
 -0.375000  0.375000  0.500000      2.000000
  0.125000  0.500000 -0.125000      2.000000
  0.375000 -0.125000 -0.250000      2.000000
 -0.250000  0.250000  0.125000      2.000000
  0.125000  0.500000  0.250000      2.000000
  0.250000  0.375000  0.500000      2.000000
 -0.125000  0.125000  0.375000      2.000000
 -0.125000 -0.250000  0.500000      2.000000
 -0.250000  0.500000 -0.375000      2.000000
  0.125000 -0.375000 -0.125000      2.000000
  0.250000 -0.125000 -0.250000      2.000000
 -0.125000  0.250000  0.125000      2.000000
  0.125000  0.375000  0.250000      2.000000
  0.125000  0.250000  0.375000      2.000000
 -0.125000  0.125000  0.250000      2.000000
  0.250000  0.375000  0.125000      2.000000
  0.250000  0.125000  0.375000      2.000000
 -0.250000 -0.125000  0.125000      2.000000
 -0.250000  0.125000 -0.125000      2.000000
  0.500000  0.375000  0.125000      2.000000
  0.250000 -0.125000  0.375000      2.000000
 -0.250000 -0.375000  0.125000      2.000000
  0.500000  0.125000  0.375000      2.000000
 -0.375000  0.375000  0.125000      2.000000
  0.250000 -0.250000  0.375000      2.000000
  0.375000  0.500000 -0.250000      2.000000
 -0.250000  0.125000  0.500000      2.000000
 -0.250000 -0.375000  0.250000      2.000000
 -0.375000  0.250000  0.500000      2.000000
  0.250000  0.500000 -0.125000      2.000000
  0.375000 -0.125000 -0.375000      2.000000
 -0.250000  0.375000  0.125000      2.000000
  0.250000 -0.375000  0.375000      2.000000
  0.250000  0.375000 -0.375000      2.000000
 -0.250000  0.125000  0.375000      2.000000
  0.250000  0.500000  0.125000      2.000000
  0.375000  0.250000  0.500000      2.000000
 -0.250000 -0.125000  0.250000      2.000000
 -0.375000  0.125000 -0.125000      2.000000
 -0.375000  0.500000 -0.250000      2.000000
  0.250000 -0.250000  0.125000      2.000000
  0.375000  0.125000 -0.125000      2.000000
 -0.250000 -0.125000  0.500000      2.000000
  0.375000  0.500000  0.125000      2.000000
  0.375000  0.125000  0.500000      2.000000
 -0.375000 -0.250000  0.125000      2.000000
 -0.375000  0.125000 -0.250000      2.000000
 -0.375000  0.500000  0.125000      2.000000
  0.375000 -0.125000  0.500000      2.000000
  0.250000 -0.375000  0.125000      2.000000
  0.500000  0.375000 -0.375000      2.000000
 -0.250000 -0.125000  0.375000      2.000000
  0.500000  0.125000 -0.125000      2.000000
  0.375000 -0.375000  0.125000      2.000000
  0.500000  0.250000 -0.375000      2.000000
 -0.375000 -0.250000  0.250000      2.000000
  0.500000  0.125000 -0.250000      2.000000
  0.500000  0.375000 -0.250000      2.000000
  0.375000 -0.250000  0.250000      2.000000
  0.500000  0.250000 -0.125000      2.000000
 -0.375000 -0.125000  0.375000      2.000000
  0.500000 -0.375000  0.125000      2.000000
  0.500000  0.125000 -0.375000      2.000000
  0.375000 -0.250000  0.125000      2.000000
 -0.375000  0.375000 -0.250000      2.000000
 -0.375000 -0.250000  0.375000      2.000000
  0.375000  0.125000 -0.250000      2.000000
 -0.000000  0.250000  0.250000      2.000000
  0.500000  0.250000  0.250000      2.000000
  0.000000 -0.250000  0.250000      2.000000
 -0.375000  0.250000  0.250000      2.000000
  0.000000 -0.375000  0.250000      2.000000
  0.375000 -0.375000 -0.375000      2.000000
 -0.000000  0.250000 -0.375000      2.000000
 -0.250000  0.250000  0.250000      2.000000
 -0.000000  0.500000  0.250000      2.000000
  0.250000  0.500000  0.500000      2.000000
  0.000000  0.250000  0.500000      2.000000
 -0.125000  0.250000  0.250000      2.000000
  0.000000  0.375000  0.250000      2.000000
  0.125000  0.375000  0.375000      2.000000
  0.000000  0.250000  0.375000      2.000000
 -0.375000  0.375000  0.250000      2.000000
  0.125000 -0.250000  0.375000      2.000000
 -0.125000 -0.375000  0.250000      2.000000
 -0.375000  0.250000  0.375000      2.000000
 -0.250000  0.375000  0.250000      2.000000
  0.125000 -0.375000  0.375000      2.000000
  0.250000  0.500000 -0.375000      2.000000
 -0.125000  0.250000  0.500000      2.000000
 -0.125000 -0.375000  0.375000      2.000000
 -0.250000  0.375000  0.500000      2.000000
  0.125000  0.500000 -0.250000      2.000000
  0.250000 -0.250000 -0.375000      2.000000
 -0.125000  0.375000  0.250000      2.000000
  0.125000  0.500000  0.375000      2.000000
  0.125000  0.375000  0.500000      2.000000
 -0.125000  0.250000  0.375000      2.000000
 -0.250000  0.500000  0.250000      2.000000
  0.250000 -0.250000  0.500000      2.000000
  0.500000 -0.250000  0.250000      2.000000
 -0.000000  0.375000  0.375000      2.000000
 -0.250000  0.375000  0.375000      2.000000
 -0.000000 -0.375000  0.375000      2.000000
 -0.125000  0.375000  0.375000      2.000000
  0.000000  0.500000  0.375000      2.000000
  0.125000  0.500000  0.500000      2.000000
  0.000000  0.375000  0.500000      2.000000
 -0.125000  0.500000  0.375000      2.000000
  0.125000 -0.375000  0.500000      2.000000
 -0.000000  0.500000  0.500000      1.000000
 
 Following cartesian coordinates:
            Coordinates               Weight
  0.000000  0.000000  0.000000      1.000000
 -0.022906  0.023020  0.023020      2.000000
 -0.022906  0.023020 -0.023020      2.000000
 -0.022906 -0.023020 -0.023020      2.000000
 -0.022906 -0.023020  0.023020      2.000000
 -0.045811  0.046041  0.046041      2.000000
 -0.045811  0.046041 -0.046041      2.000000
 -0.045811 -0.046041 -0.046041      2.000000
 -0.045811 -0.046041  0.046041      2.000000
 -0.068717  0.069061  0.069061      2.000000
 -0.068717  0.069061 -0.069061      2.000000
 -0.068717 -0.069061 -0.069061      2.000000
 -0.068717 -0.069061  0.069061      2.000000
 -0.091623  0.092081  0.092081      1.000000
  0.091623 -0.092081  0.092081      1.000000
  0.091623  0.092081  0.092081      1.000000
  0.091623  0.092081 -0.092081      1.000000
  0.000000  0.000000  0.046041      2.000000
  0.000000  0.046041 -0.000000      2.000000
 -0.022906  0.023020  0.069061      2.000000
 -0.022906  0.069061 -0.023020      2.000000
 -0.022906 -0.023020 -0.069061      2.000000
 -0.022906 -0.069061  0.023020      2.000000
  0.022906  0.023020 -0.069061      2.000000
  0.022906  0.069061  0.023020      2.000000
  0.022906 -0.023020  0.069061      2.000000
  0.022906 -0.069061 -0.023020      2.000000
 -0.045811  0.046041  0.092081      2.000000
 -0.045811  0.092081 -0.046041      2.000000
 -0.045811 -0.046041 -0.092081      2.000000
 -0.045811 -0.092081  0.046041      2.000000
  0.045811  0.046041 -0.092081      2.000000
  0.045811  0.092081  0.046041      2.000000
  0.045811 -0.046041  0.092081      2.000000
  0.045811 -0.092081 -0.046041      2.000000
 -0.068717  0.069061  0.115101      2.000000
 -0.068717  0.115101 -0.069061      2.000000
 -0.068717 -0.069061  0.253223      2.000000
  0.114529  0.069061 -0.115101      2.000000
  0.068717  0.069061 -0.115101      2.000000
  0.068717  0.115101  0.069061      2.000000
  0.068717 -0.069061  0.115101      2.000000
 -0.114529  0.069061  0.115101      2.000000
  0.091623 -0.092081 -0.046041      2.000000
  0.091623 -0.046041  0.092081      2.000000
  0.091623  0.092081  0.046041      2.000000
  0.091623  0.046041 -0.092081      2.000000
  0.091623  0.092081 -0.138122      2.000000
  0.091623 -0.230203  0.092081      2.000000
 -0.091623  0.092081 -0.046041      2.000000
 -0.091623  0.046041  0.092081      2.000000
  0.068717 -0.069061 -0.023020      2.000000
  0.068717 -0.023020  0.069061      2.000000
  0.068717  0.069061  0.023020      2.000000
  0.068717  0.023020 -0.069061      2.000000
 -0.068717 -0.069061  0.023020      2.000000
 -0.068717 -0.023020 -0.069061      2.000000
 -0.068717  0.069061 -0.023020      2.000000
 -0.068717  0.023020  0.069061      2.000000
  0.045811 -0.046041  0.000000      2.000000
  0.045811 -0.000000  0.046041      2.000000
  0.045811  0.046041 -0.000000      2.000000
  0.045811  0.000000 -0.046041      2.000000
  0.000000  0.000000  0.092081      2.000000
  0.000000  0.092081 -0.000000      2.000000
 -0.022906  0.023020  0.115101      2.000000
 -0.022906  0.115101 -0.023020      2.000000
 -0.022906 -0.023020 -0.115101      2.000000
 -0.022906 -0.115101  0.023020      2.000000
  0.022906  0.023020 -0.115101      2.000000
  0.022906  0.115101  0.023020      2.000000
  0.022906 -0.023020  0.115101      2.000000
  0.022906 -0.115101 -0.023020      2.000000
 -0.045811  0.046041  0.138122      2.000000
 -0.045811  0.138122 -0.046041      2.000000
 -0.045811 -0.046041  0.230203      2.000000
  0.137434  0.046041 -0.138122      2.000000
  0.045811  0.046041 -0.138122      2.000000
  0.045811  0.138122  0.046041      2.000000
  0.045811 -0.046041  0.138122      2.000000
 -0.137434  0.046041  0.138122      2.000000
  0.114529 -0.115101 -0.023020      2.000000
 -0.068717  0.161142 -0.069061      2.000000
 -0.068717 -0.069061  0.207182      2.000000
  0.114529  0.023020 -0.115101      2.000000
  0.068717  0.069061 -0.161142      2.000000
  0.068717 -0.207182  0.069061      2.000000
 -0.114529  0.115101 -0.023020      2.000000
 -0.114529  0.023020  0.115101      2.000000
  0.091623 -0.092081  0.000000      2.000000
  0.091623 -0.000000  0.092081      2.000000
  0.091623  0.092081 -0.000000      2.000000
  0.091623 -0.000000 -0.092081      2.000000
  0.000000 -0.000000  0.138122      2.000000
  0.000000  0.138122 -0.000000      2.000000
 -0.022906  0.023020  0.161142      2.000000
 -0.022906  0.161142 -0.023020      2.000000
 -0.022906 -0.023020  0.207182      2.000000
  0.160340  0.023020 -0.161142      2.000000
  0.022906  0.023020 -0.161142      2.000000
  0.022906  0.161142  0.023020      2.000000
  0.022906 -0.023020  0.161142      2.000000
 -0.160340  0.023020  0.161142      2.000000
  0.137434 -0.138122  0.000000      2.000000
 -0.045811  0.184162 -0.046041      2.000000
 -0.045811 -0.046041  0.184162      2.000000
  0.137434 -0.000000 -0.138122      2.000000
  0.000000  0.000000  0.184162      1.000000
  0.000000  0.184162 -0.000000      1.000000
  0.045811  0.000000  0.000000      2.000000
  0.000000  0.046041  0.046041      2.000000
  0.000000  0.046041 -0.046041      2.000000
 -0.022906  0.069061  0.069061      2.000000
 -0.022906  0.069061 -0.069061      2.000000
 -0.022906 -0.069061 -0.069061      2.000000
 -0.022906 -0.069061  0.069061      2.000000
 -0.045811  0.092081  0.092081      2.000000
 -0.045811  0.092081 -0.092081      2.000000
 -0.229057  0.092081  0.092081      2.000000
 -0.045811 -0.092081  0.092081      2.000000
  0.114529 -0.069061 -0.069061      2.000000
  0.114529 -0.069061  0.069061      2.000000
  0.114529  0.069061  0.069061      2.000000
  0.114529  0.069061 -0.069061      2.000000
  0.091623 -0.046041 -0.046041      2.000000
  0.091623 -0.046041  0.046041      2.000000
  0.091623  0.046041  0.046041      2.000000
  0.091623  0.046041 -0.046041      2.000000
  0.068717 -0.023020 -0.023020      2.000000
  0.068717 -0.023020  0.023020      2.000000
  0.068717  0.023020  0.023020      2.000000
  0.068717  0.023020 -0.023020      2.000000
  0.000000  0.046041  0.092081      2.000000
  0.000000  0.092081 -0.046041      2.000000
  0.000000  0.046041 -0.092081      2.000000
  0.000000  0.092081  0.046041      2.000000
 -0.022906  0.069061  0.115101      2.000000
 -0.022906  0.115101 -0.069061      2.000000
 -0.206152  0.115101  0.069061      2.000000
 -0.022906 -0.115101  0.069061      2.000000
  0.022906  0.069061 -0.115101      2.000000
  0.022906  0.115101  0.069061      2.000000
  0.022906 -0.069061  0.115101      2.000000
 -0.160340  0.069061  0.115101      2.000000
  0.137434 -0.092081 -0.046041      2.000000
 -0.045811  0.138122 -0.092081      2.000000
 -0.045811 -0.092081  0.230203      2.000000
  0.137434  0.046041 -0.092081      2.000000
  0.045811  0.092081 -0.138122      2.000000
  0.229057 -0.046041 -0.092081      2.000000
  0.045811 -0.092081  0.138122      2.000000
 -0.137434  0.046041  0.092081      2.000000
  0.114529 -0.069061 -0.023020      2.000000
  0.114529 -0.023020  0.069061      2.000000
  0.114529  0.069061  0.023020      2.000000
  0.114529  0.023020 -0.069061      2.000000
  0.068717  0.115101 -0.161142      2.000000
  0.068717 -0.207182  0.115101      2.000000
 -0.114529  0.069061 -0.023020      2.000000
 -0.114529  0.023020  0.069061      2.000000
  0.091623 -0.046041  0.000000      2.000000
  0.091623 -0.000000  0.046041      2.000000
  0.091623  0.046041 -0.000000      2.000000
  0.091623  0.000000 -0.046041      2.000000
  0.045811 -0.000000  0.092081      2.000000
  0.045811  0.092081 -0.000000      2.000000
  0.045811 -0.000000 -0.092081      2.000000
  0.045811 -0.092081  0.000000      2.000000
  0.000000  0.046041  0.138122      2.000000
  0.000000  0.138122 -0.046041      2.000000
  0.000000  0.046041 -0.138122      2.000000
  0.000000  0.138122  0.046041      2.000000
  0.160340 -0.115101 -0.023020      2.000000
 -0.022906  0.161142 -0.069061      2.000000
 -0.022906 -0.069061  0.207182      2.000000
  0.160340  0.023020 -0.115101      2.000000
  0.022906  0.069061 -0.161142      2.000000
  0.206152 -0.023020 -0.115101      2.000000
  0.022906 -0.069061  0.161142      2.000000
 -0.160340  0.023020  0.115101      2.000000
  0.137434 -0.092081  0.000000      2.000000
 -0.045811  0.184162 -0.092081      2.000000
 -0.045811 -0.092081  0.184162      2.000000
  0.137434 -0.000000 -0.092081      2.000000
  0.068717 -0.023020  0.115101      2.000000
  0.068717  0.115101  0.023020      2.000000
  0.068717  0.023020 -0.115101      2.000000
  0.068717 -0.115101 -0.023020      2.000000
  0.114529 -0.207182  0.069061      2.000000
 -0.068717  0.115101 -0.023020      2.000000
 -0.068717  0.023020  0.115101      2.000000
  0.114529  0.069061 -0.161142      2.000000
  0.045811 -0.000000  0.138122      2.000000
  0.045811  0.138122 -0.000000      2.000000
  0.045811  0.000000 -0.138122      2.000000
  0.045811 -0.138122  0.000000      2.000000
  0.183246 -0.138122  0.000000      2.000000
  0.000000  0.184162 -0.046041      2.000000
 -0.091623  0.138122 -0.046041      2.000000
 -0.091623 -0.046041  0.230203      2.000000
  0.091623  0.046041 -0.138122      2.000000
 -0.091623  0.046041  0.138122      2.000000
 -0.114529  0.161142 -0.023020      2.000000
 -0.114529 -0.023020  0.207182      2.000000
  0.068717  0.023020 -0.161142      2.000000
 -0.114529  0.023020  0.161142      2.000000
 -0.068717 -0.023020  0.207182      2.000000
 -0.068717  0.161142 -0.023020      2.000000
 -0.068717  0.023020  0.161142      2.000000
  0.114529  0.023020 -0.161142      2.000000
 -0.137434  0.184162 -0.000000      2.000000
 -0.137434 -0.000000  0.184162      2.000000
 -0.091623  0.138122 -0.000000      2.000000
  0.091623 -0.184162  0.046041      2.000000
  0.091623  0.046041 -0.184162      2.000000
 -0.091623 -0.000000  0.138122      2.000000
  0.091623  0.000000  0.000000      2.000000
  0.000000  0.092081  0.092081      2.000000
  0.000000  0.092081 -0.092081      2.000000
  0.160340 -0.069061 -0.069061      2.000000
 -0.022906  0.115101 -0.115101      2.000000
 -0.206152  0.069061  0.069061      2.000000
 -0.022906 -0.115101  0.115101      2.000000
  0.137434 -0.046041 -0.046041      2.000000
  0.137434 -0.046041  0.046041      2.000000
  0.137434  0.046041  0.046041      2.000000
  0.137434  0.046041 -0.046041      2.000000
  0.114529 -0.023020 -0.023020      2.000000
  0.114529 -0.023020  0.023020      2.000000
  0.114529  0.023020  0.023020      2.000000
  0.114529  0.023020 -0.023020      2.000000
  0.183246 -0.092081 -0.046041      2.000000
 -0.000000  0.138122 -0.092081      2.000000
 -0.000000  0.092081 -0.138122      2.000000
  0.183246 -0.046041 -0.092081      2.000000
  0.160340 -0.069061 -0.023020      2.000000
 -0.022906  0.161142 -0.115101      2.000000
 -0.022906 -0.115101  0.207182      2.000000
  0.160340  0.023020 -0.069061      2.000000
  0.022906  0.115101 -0.161142      2.000000
  0.206152 -0.023020 -0.069061      2.000000
  0.022906 -0.115101  0.161142      2.000000
 -0.160340  0.023020  0.069061      2.000000
  0.137434 -0.046041  0.000000      2.000000
  0.137434  0.000000  0.046041      2.000000
  0.137434  0.046041 -0.000000      2.000000
  0.137434 -0.000000 -0.046041      2.000000
  0.183246 -0.092081  0.000000      2.000000
  0.000000  0.184162 -0.092081      2.000000
 -0.091623  0.184162 -0.000000      2.000000
  0.137434 -0.000000 -0.000000      2.000000
  0.183246 -0.046041 -0.046041      2.000000
  0.000000  0.138122 -0.138122      2.000000
  0.160340 -0.023020 -0.023020      2.000000
  0.160340 -0.023020  0.023020      2.000000
  0.160340  0.023020  0.023020      2.000000
  0.160340  0.023020 -0.023020      2.000000
  0.183246 -0.046041  0.000000      2.000000
  0.000000  0.184162 -0.138122      2.000000
  0.183246  0.000000  0.000000      1.000000
 


--------------------------------------------------------------------------------------------------------




 Dimension of arrays:
   k-points           NKPTS =    260   k-points in BZ     NKDIM =    260   number of bands    NBANDS=      8
   number of dos      NEDOS =    301   number of ions     NIONS =      2
   non local maximal  LDIM  =      4   non local SUM 2l+1 LMDIM =      8
   total plane-waves  NPLWV =  13824
   max r-space proj   IRMAX =      1   max aug-charges    IRDMAX=  11688
   dimension x,y,z NGX =    24 NGY =   24 NGZ =   24
   dimension x,y,z NGXF=    48 NGYF=   48 NGZF=   48
   support grid    NGXF=    48 NGYF=   48 NGZF=   48
   ions per type =               2
   NGX,Y,Z   is equivalent  to a cutoff of  10.39, 10.37, 10.37 a.u.
   NGXF,Y,Z  is equivalent  to a cutoff of  20.78, 20.73, 20.73 a.u.

 SYSTEM =  unknown system                          
 POSCAR =  Si                                      

 Startparameter for this run:
   NWRITE =      2    write-flag & timer
   PREC   = accura    normal or accurate (medium, high low for compatibility)
   ISTART =      0    job   : 0-new  1-cont  2-samecut
   ICHARG =      2    charge: 1-file 2-atom 10-const
   ISPIN  =      1    spin polarized calculation?
   LNONCOLLINEAR =      F non collinear calculations
   LSORBIT =      F    spin-orbit coupling
   INIWAV =      1    electr: 0-lowe 1-rand  2-diag
   LASPH  =      F    aspherical Exc in radial PAW
 Electronic Relaxation 1
   ENCUT  =  320.0 eV  23.52 Ry    4.85 a.u.   5.60  5.61  5.61*2*pi/ulx,y,z
   ENINI  =  320.0     initial cutoff
   ENAUG  =  322.1 eV  augmentation charge cutoff
   NELM   =     60;   NELMIN=  2; NELMDL= -5     # of ELM steps 
   EDIFF  = 0.1E-06   stopping-criterion for ELM
   LREAL  =      F    real-space projection
   NLSPLINE    = F    spline interpolate recip. space projectors
   LCOMPAT=      F    compatible to vasp.4.4
   GGA_COMPAT  = T    GGA compatible to vasp.4.4-vasp.4.6
   LMAXPAW     = -100 max onsite density
   LMAXMIX     =    2 max onsite mixed and CHGCAR
   VOSKOWN=      0    Vosko Wilk Nusair interpolation
   ROPT   =    0.00000
 Ionic relaxation
   EDIFFG = 0.1E-05   stopping-criterion for IOM
   NSW    =      0    number of steps for IOM
   NBLOCK =      1;   KBLOCK =      1    inner block; outer block 
   IBRION =     -1    ionic relax: 0-MD 1-quasi-New 2-CG
   NFREE  =      0    steps in history (QN), initial steepest desc. (CG)
   ISIF   =      2    stress and relaxation
   IWAVPR =     10    prediction:  0-non 1-charg 2-wave 3-comb
   ISYM   =      0    0-nonsym 1-usesym 2-fastsym
   LCORR  =      T    Harris-Foulkes like correction to forces

   POTIM  = 0.5000    time-step for ionic-motion
   TEIN   =    0.0    initial temperature
   TEBEG  =    0.0;   TEEND  =   0.0 temperature during run
   SMASS  =  -3.00    Nose mass-parameter (am)
   estimated Nose-frequenzy (Omega)   =  0.10E-29 period in steps = 0.13E+47 mass=  -0.337E-27a.u.
   SCALEE = 1.0000    scale energy and forces
   NPACO  =    256;   APACO  = 10.0  distance and # of slots for P.C.
   PSTRESS=    0.0 pullay stress

  Mass of Ions in am
   POMASS =  28.09
  Ionic Valenz
   ZVAL   =   4.00
  Atomic Wigner-Seitz radii
   RWIGS  =  -1.00
  virtual crystal weights 
   VCA    =   1.00
   NELECT =       8.0000    total number of electrons
   NUPDOWN=      -1.0000    fix difference up-down

 DOS related values:
   EMIN   =  10.00;   EMAX   =-10.00  energy-range for DOS
   EFERMI =   0.00
   ISMEAR =     0;   SIGMA  =   0.05  broadening in eV -4-tet -1-fermi 0-gaus

 Electronic relaxation 2 (details)
   IALGO  =     38    algorithm
   LDIAG  =      T    sub-space diagonalisation (order eigenvalues)
   LSUBROT=      F    optimize rotation matrix (better conditioning)
   TURBO    =      0    0=normal 1=particle mesh
   IRESTART =      0    0=no restart 2=restart with 2 vectors
   NREBOOT  =      0    no. of reboots
   NMIN     =      0    reboot dimension
   EREF     =   0.00    reference energy to select bands
   IMIX   =      4    mixing-type and parameters
     AMIX     =   0.40;   BMIX     =  1.00
     AMIX_MAG =   1.60;   BMIX_MAG =  1.00
     AMIN     =   0.10
     WC   =   100.;   INIMIX=   1;  MIXPRE=   1;  MAXMIX= -45

 Intra band minimization:
   WEIMIN = 0.0000     energy-eigenvalue tresh-hold
   EBREAK =  0.31E-08  absolut break condition
   DEPER  =   0.30     relativ break condition  

   TIME   =   0.40     timestep for ELM

  volume/ion in A,a.u.               =      20.11       135.73
  Fermi-wavevector in a.u.,A,eV,Ry     =   0.955586  1.805795 12.424079  0.913144
  Thomas-Fermi vector in A             =   2.084437
 
 Write flags
   LWAVE        =      T    write WAVECAR
   LDOWNSAMPLE  =      F    k-point downsampling of WAVECAR
   LCHARG       =      T    write CHGCAR
   LVTOT        =      F    write LOCPOT, total local potential
   LVHAR        =      F    write LOCPOT, Hartree potential only
   LELF         =      F    write electronic localiz. function (ELF)
   LORBIT       =      0    0 simple, 1 ext, 2 COOP (PROOUT), +10 PAW based schemes


 Dipole corrections
   LMONO  =      F    monopole corrections only (constant potential shift)
   LDIPOL =      F    correct potential (dipole corrections)
   IDIPOL =      0    1-x, 2-y, 3-z, 4-all directions 
   EPSILON=  1.0000000 bulk dielectric constant

 Exchange correlation treatment:
   GGA     =    PE    GGA type
   LEXCH   =     8    internal setting for exchange type
   LIBXC   =     F    Libxc                    
   VOSKOWN =     0    Vosko Wilk Nusair interpolation
   LHFCALC =     F    Hartree Fock is set to
   LHFONE  =     F    Hartree Fock one center treatment
   AEXX    =    0.0000 exact exchange contribution

 Linear response parameters
   LEPSILON=     F    determine dielectric tensor
   LRPA    =     F    only Hartree local field effects (RPA)
   LNABLA  =     F    use nabla operator in PAW spheres
   LVEL    =     F    velocity operator in full k-point grid
   CSHIFT  =0.1000    complex shift for real part using Kramers Kronig
   OMEGAMAX=  -1.0    maximum frequency
   DEG_THRESHOLD= 0.2000000E-02 threshold for treating states as degnerate
   RTIME   =   -0.100 relaxation time in fs
  (WPLASMAI=    0.000 imaginary part of plasma frequency in eV, 0.658/RTIME)
   DFIELD  = 0.0000000 0.0000000 0.0000000 field for delta impulse in time
 
  Optional k-point grid parameters
   LKPOINTS_OPT  =     F    use optional k-point grid
   KPOINTS_OPT_MODE=     1    mode for optional k-point grid
 
 Orbital magnetization related:
   ORBITALMAG=     F  switch on orbital magnetization
   LCHIMAG   =     F  perturbation theory with respect to B field
   DQ        =  0.001000  dq finite difference perturbation B field
   LLRAUG    =     F  two centre corrections for induced B field



--------------------------------------------------------------------------------------------------------


 Static calculation
 charge density and potential will be updated during run
 non-spin polarized calculation
 Variant of blocked Davidson
 Davidson routine will perform the subspace rotation
 perform sub-space diagonalisation
    after iterative eigenvector-optimisation
 modified Broyden-mixing scheme, WC =      100.0
 initial mixing is a Kerker type mixing with AMIX =  0.4000 and BMIX =      1.0000
 Hartree-type preconditioning will be used
 using additional bands            4
 reciprocal scheme for non local part
 use partial core corrections
 calculate Harris-corrections to forces 
   (improved forces if not selfconsistent)
 use gradient corrections 
 use of overlap-Matrix (Vanderbilt PP)
 Gauss-broadening in eV      SIGMA  =   0.05


--------------------------------------------------------------------------------------------------------


  energy-cutoff  :      320.00
  volume of cell :       40.23
      direct lattice vectors                 reciprocal lattice vectors
     0.000000000  2.715000000  2.715000000    -0.183245833  0.184162063  0.184162063
     2.728575000  0.000000000  2.715000000     0.183245833 -0.184162063  0.184162063
     2.728575000  2.715000000  0.000000000     0.183245833  0.184162063 -0.184162063

  length of vectors
     3.839589822  3.849200765  3.849200765     0.318449943  0.318449943  0.318449943


 
 k-points in units of 2pi/SCALE and weight: auto                                    
   0.00000000  0.00000000  0.00000000       0.002
  -0.02290573  0.02302026  0.02302026       0.004
  -0.02290573  0.02302026 -0.02302026       0.004
  -0.02290573 -0.02302026 -0.02302026       0.004
  -0.02290573 -0.02302026  0.02302026       0.004
  -0.04581146  0.04604052  0.04604052       0.004
  -0.04581146  0.04604052 -0.04604052       0.004
  -0.04581146 -0.04604052 -0.04604052       0.004
  -0.04581146 -0.04604052  0.04604052       0.004
  -0.06871719  0.06906077  0.06906077       0.004
  -0.06871719  0.06906077 -0.06906077       0.004
  -0.06871719 -0.06906077 -0.06906077       0.004
  -0.06871719 -0.06906077  0.06906077       0.004
  -0.09162292  0.09208103  0.09208103       0.002
   0.09162292 -0.09208103  0.09208103       0.002
   0.09162292  0.09208103  0.09208103       0.002
   0.09162292  0.09208103 -0.09208103       0.002
   0.00000000  0.00000000  0.04604052       0.004
   0.00000000  0.04604052 -0.00000000       0.004
  -0.02290573  0.02302026  0.06906077       0.004
  -0.02290573  0.06906077 -0.02302026       0.004
  -0.02290573 -0.02302026 -0.06906077       0.004
  -0.02290573 -0.06906077  0.02302026       0.004
   0.02290573  0.02302026 -0.06906077       0.004
   0.02290573  0.06906077  0.02302026       0.004
   0.02290573 -0.02302026  0.06906077       0.004
   0.02290573 -0.06906077 -0.02302026       0.004
  -0.04581146  0.04604052  0.09208103       0.004
  -0.04581146  0.09208103 -0.04604052       0.004
  -0.04581146 -0.04604052 -0.09208103       0.004
  -0.04581146 -0.09208103  0.04604052       0.004
   0.04581146  0.04604052 -0.09208103       0.004
   0.04581146  0.09208103  0.04604052       0.004
   0.04581146 -0.04604052  0.09208103       0.004
   0.04581146 -0.09208103 -0.04604052       0.004
  -0.06871719  0.06906077  0.11510129       0.004
  -0.06871719  0.11510129 -0.06906077       0.004
  -0.06871719 -0.06906077  0.25322284       0.004
   0.11452865  0.06906077 -0.11510129       0.004
   0.06871719  0.06906077 -0.11510129       0.004
   0.06871719  0.11510129  0.06906077       0.004
   0.06871719 -0.06906077  0.11510129       0.004
  -0.11452865  0.06906077  0.11510129       0.004
   0.09162292 -0.09208103 -0.04604052       0.004
   0.09162292 -0.04604052  0.09208103       0.004
   0.09162292  0.09208103  0.04604052       0.004
   0.09162292  0.04604052 -0.09208103       0.004
   0.09162292  0.09208103 -0.13812155       0.004
   0.09162292 -0.23020258  0.09208103       0.004
  -0.09162292  0.09208103 -0.04604052       0.004
  -0.09162292  0.04604052  0.09208103       0.004
   0.06871719 -0.06906077 -0.02302026       0.004
   0.06871719 -0.02302026  0.06906077       0.004
   0.06871719  0.06906077  0.02302026       0.004
   0.06871719  0.02302026 -0.06906077       0.004
  -0.06871719 -0.06906077  0.02302026       0.004
  -0.06871719 -0.02302026 -0.06906077       0.004
  -0.06871719  0.06906077 -0.02302026       0.004
  -0.06871719  0.02302026  0.06906077       0.004
   0.04581146 -0.04604052  0.00000000       0.004
   0.04581146 -0.00000000  0.04604052       0.004
   0.04581146  0.04604052 -0.00000000       0.004
   0.04581146  0.00000000 -0.04604052       0.004
   0.00000000  0.00000000  0.09208103       0.004
   0.00000000  0.09208103 -0.00000000       0.004
  -0.02290573  0.02302026  0.11510129       0.004
  -0.02290573  0.11510129 -0.02302026       0.004
  -0.02290573 -0.02302026 -0.11510129       0.004
  -0.02290573 -0.11510129  0.02302026       0.004
   0.02290573  0.02302026 -0.11510129       0.004
   0.02290573  0.11510129  0.02302026       0.004
   0.02290573 -0.02302026  0.11510129       0.004
   0.02290573 -0.11510129 -0.02302026       0.004
  -0.04581146  0.04604052  0.13812155       0.004
  -0.04581146  0.13812155 -0.04604052       0.004
  -0.04581146 -0.04604052  0.23020258       0.004
   0.13743438  0.04604052 -0.13812155       0.004
   0.04581146  0.04604052 -0.13812155       0.004
   0.04581146  0.13812155  0.04604052       0.004
   0.04581146 -0.04604052  0.13812155       0.004
  -0.13743438  0.04604052  0.13812155       0.004
   0.11452865 -0.11510129 -0.02302026       0.004
  -0.06871719  0.16114180 -0.06906077       0.004
  -0.06871719 -0.06906077  0.20718232       0.004
   0.11452865  0.02302026 -0.11510129       0.004
   0.06871719  0.06906077 -0.16114180       0.004
   0.06871719 -0.20718232  0.06906077       0.004
  -0.11452865  0.11510129 -0.02302026       0.004
  -0.11452865  0.02302026  0.11510129       0.004
   0.09162292 -0.09208103  0.00000000       0.004
   0.09162292 -0.00000000  0.09208103       0.004
   0.09162292  0.09208103 -0.00000000       0.004
   0.09162292 -0.00000000 -0.09208103       0.004
   0.00000000 -0.00000000  0.13812155       0.004
   0.00000000  0.13812155 -0.00000000       0.004
  -0.02290573  0.02302026  0.16114180       0.004
  -0.02290573  0.16114180 -0.02302026       0.004
  -0.02290573 -0.02302026  0.20718232       0.004
   0.16034010  0.02302026 -0.16114180       0.004
   0.02290573  0.02302026 -0.16114180       0.004
   0.02290573  0.16114180  0.02302026       0.004
   0.02290573 -0.02302026  0.16114180       0.004
  -0.16034010  0.02302026  0.16114180       0.004
   0.13743438 -0.13812155  0.00000000       0.004
  -0.04581146  0.18416206 -0.04604052       0.004
  -0.04581146 -0.04604052  0.18416206       0.004
   0.13743438 -0.00000000 -0.13812155       0.004
   0.00000000  0.00000000  0.18416206       0.002
   0.00000000  0.18416206 -0.00000000       0.002
   0.04581146  0.00000000  0.00000000       0.004
   0.00000000  0.04604052  0.04604052       0.004
   0.00000000  0.04604052 -0.04604052       0.004
  -0.02290573  0.06906077  0.06906077       0.004
  -0.02290573  0.06906077 -0.06906077       0.004
  -0.02290573 -0.06906077 -0.06906077       0.004
  -0.02290573 -0.06906077  0.06906077       0.004
  -0.04581146  0.09208103  0.09208103       0.004
  -0.04581146  0.09208103 -0.09208103       0.004
  -0.22905729  0.09208103  0.09208103       0.004
  -0.04581146 -0.09208103  0.09208103       0.004
   0.11452865 -0.06906077 -0.06906077       0.004
   0.11452865 -0.06906077  0.06906077       0.004
   0.11452865  0.06906077  0.06906077       0.004
   0.11452865  0.06906077 -0.06906077       0.004
   0.09162292 -0.04604052 -0.04604052       0.004
   0.09162292 -0.04604052  0.04604052       0.004
   0.09162292  0.04604052  0.04604052       0.004
   0.09162292  0.04604052 -0.04604052       0.004
   0.06871719 -0.02302026 -0.02302026       0.004
   0.06871719 -0.02302026  0.02302026       0.004
   0.06871719  0.02302026  0.02302026       0.004
   0.06871719  0.02302026 -0.02302026       0.004
   0.00000000  0.04604052  0.09208103       0.004
   0.00000000  0.09208103 -0.04604052       0.004
   0.00000000  0.04604052 -0.09208103       0.004
   0.00000000  0.09208103  0.04604052       0.004
  -0.02290573  0.06906077  0.11510129       0.004
  -0.02290573  0.11510129 -0.06906077       0.004
  -0.20615156  0.11510129  0.06906077       0.004
  -0.02290573 -0.11510129  0.06906077       0.004
   0.02290573  0.06906077 -0.11510129       0.004
   0.02290573  0.11510129  0.06906077       0.004
   0.02290573 -0.06906077  0.11510129       0.004
  -0.16034010  0.06906077  0.11510129       0.004
   0.13743438 -0.09208103 -0.04604052       0.004
  -0.04581146  0.13812155 -0.09208103       0.004
  -0.04581146 -0.09208103  0.23020258       0.004
   0.13743438  0.04604052 -0.09208103       0.004
   0.04581146  0.09208103 -0.13812155       0.004
   0.22905729 -0.04604052 -0.09208103       0.004
   0.04581146 -0.09208103  0.13812155       0.004
  -0.13743438  0.04604052  0.09208103       0.004
   0.11452865 -0.06906077 -0.02302026       0.004
   0.11452865 -0.02302026  0.06906077       0.004
   0.11452865  0.06906077  0.02302026       0.004
   0.11452865  0.02302026 -0.06906077       0.004
   0.06871719  0.11510129 -0.16114180       0.004
   0.06871719 -0.20718232  0.11510129       0.004
  -0.11452865  0.06906077 -0.02302026       0.004
  -0.11452865  0.02302026  0.06906077       0.004
   0.09162292 -0.04604052  0.00000000       0.004
   0.09162292 -0.00000000  0.04604052       0.004
   0.09162292  0.04604052 -0.00000000       0.004
   0.09162292  0.00000000 -0.04604052       0.004
   0.04581146  0.00000000  0.09208103       0.004
   0.04581146  0.09208103 -0.00000000       0.004
   0.04581146 -0.00000000 -0.09208103       0.004
   0.04581146 -0.09208103  0.00000000       0.004
   0.00000000  0.04604052  0.13812155       0.004
   0.00000000  0.13812155 -0.04604052       0.004
   0.00000000  0.04604052 -0.13812155       0.004
   0.00000000  0.13812155  0.04604052       0.004
   0.16034010 -0.11510129 -0.02302026       0.004
  -0.02290573  0.16114180 -0.06906077       0.004
  -0.02290573 -0.06906077  0.20718232       0.004
   0.16034010  0.02302026 -0.11510129       0.004
   0.02290573  0.06906077 -0.16114180       0.004
   0.20615156 -0.02302026 -0.11510129       0.004
   0.02290573 -0.06906077  0.16114180       0.004
  -0.16034010  0.02302026  0.11510129       0.004
   0.13743438 -0.09208103  0.00000000       0.004
  -0.04581146  0.18416206 -0.09208103       0.004
  -0.04581146 -0.09208103  0.18416206       0.004
   0.13743438 -0.00000000 -0.09208103       0.004
   0.06871719 -0.02302026  0.11510129       0.004
   0.06871719  0.11510129  0.02302026       0.004
   0.06871719  0.02302026 -0.11510129       0.004
   0.06871719 -0.11510129 -0.02302026       0.004
   0.11452865 -0.20718232  0.06906077       0.004
  -0.06871719  0.11510129 -0.02302026       0.004
  -0.06871719  0.02302026  0.11510129       0.004
   0.11452865  0.06906077 -0.16114180       0.004
   0.04581146 -0.00000000  0.13812155       0.004
   0.04581146  0.13812155 -0.00000000       0.004
   0.04581146 -0.00000000 -0.13812155       0.004
   0.04581146 -0.13812155  0.00000000       0.004
   0.18324583 -0.13812155  0.00000000       0.004
   0.00000000  0.18416206 -0.04604052       0.004
  -0.09162292  0.13812155 -0.04604052       0.004
  -0.09162292 -0.04604052  0.23020258       0.004
   0.09162292  0.04604052 -0.13812155       0.004
  -0.09162292  0.04604052  0.13812155       0.004
  -0.11452865  0.16114180 -0.02302026       0.004
  -0.11452865 -0.02302026  0.20718232       0.004
   0.06871719  0.02302026 -0.16114180       0.004
  -0.11452865  0.02302026  0.16114180       0.004
  -0.06871719 -0.02302026  0.20718232       0.004
  -0.06871719  0.16114180 -0.02302026       0.004
  -0.06871719  0.02302026  0.16114180       0.004
   0.11452865  0.02302026 -0.16114180       0.004
  -0.13743438  0.18416206 -0.00000000       0.004
  -0.13743438 -0.00000000  0.18416206       0.004
  -0.09162292  0.13812155 -0.00000000       0.004
   0.09162292 -0.18416206  0.04604052       0.004
   0.09162292  0.04604052 -0.18416206       0.004
  -0.09162292 -0.00000000  0.13812155       0.004
   0.09162292  0.00000000  0.00000000       0.004
   0.00000000  0.09208103  0.09208103       0.004
   0.00000000  0.09208103 -0.09208103       0.004
   0.16034010 -0.06906077 -0.06906077       0.004
  -0.02290573  0.11510129 -0.11510129       0.004
  -0.20615156  0.06906077  0.06906077       0.004
  -0.02290573 -0.11510129  0.11510129       0.004
   0.13743438 -0.04604052 -0.04604052       0.004
   0.13743438 -0.04604052  0.04604052       0.004
   0.13743438  0.04604052  0.04604052       0.004
   0.13743438  0.04604052 -0.04604052       0.004
   0.11452865 -0.02302026 -0.02302026       0.004
   0.11452865 -0.02302026  0.02302026       0.004
   0.11452865  0.02302026  0.02302026       0.004
   0.11452865  0.02302026 -0.02302026       0.004
   0.18324583 -0.09208103 -0.04604052       0.004
  -0.00000000  0.13812155 -0.09208103       0.004
  -0.00000000  0.09208103 -0.13812155       0.004
   0.18324583 -0.04604052 -0.09208103       0.004
   0.16034010 -0.06906077 -0.02302026       0.004
  -0.02290573  0.16114180 -0.11510129       0.004
  -0.02290573 -0.11510129  0.20718232       0.004
   0.16034010  0.02302026 -0.06906077       0.004
   0.02290573  0.11510129 -0.16114180       0.004
   0.20615156 -0.02302026 -0.06906077       0.004
   0.02290573 -0.11510129  0.16114180       0.004
  -0.16034010  0.02302026  0.06906077       0.004
   0.13743438 -0.04604052  0.00000000       0.004
   0.13743438  0.00000000  0.04604052       0.004
   0.13743438  0.04604052 -0.00000000       0.004
   0.13743438 -0.00000000 -0.04604052       0.004
   0.18324583 -0.09208103  0.00000000       0.004
   0.00000000  0.18416206 -0.09208103       0.004
  -0.09162292  0.18416206 -0.00000000       0.004
   0.13743438 -0.00000000 -0.00000000       0.004
   0.18324583 -0.04604052 -0.04604052       0.004
   0.00000000  0.13812155 -0.13812155       0.004
   0.16034010 -0.02302026 -0.02302026       0.004
   0.16034010 -0.02302026  0.02302026       0.004
   0.16034010  0.02302026  0.02302026       0.004
   0.16034010  0.02302026 -0.02302026       0.004
   0.18324583 -0.04604052  0.00000000       0.004
   0.00000000  0.18416206 -0.13812155       0.004
   0.18324583  0.00000000  0.00000000       0.002
 
 k-points in reciprocal lattice and weights: auto                                    
   0.00000000  0.00000000  0.00000000       0.002
   0.12500000  0.00000000  0.00000000       0.004
   0.00000000 -0.12500000  0.00000000       0.004
  -0.12500000 -0.12500000 -0.12500000       0.004
  -0.00000000  0.00000000 -0.12500000       0.004
   0.25000000  0.00000000  0.00000000       0.004
   0.00000000 -0.25000000  0.00000000       0.004
  -0.25000000 -0.25000000 -0.25000000       0.004
  -0.00000000  0.00000000 -0.25000000       0.004
   0.37500000  0.00000000  0.00000000       0.004
   0.00000000 -0.37500000  0.00000000       0.004
  -0.37500000 -0.37500000 -0.37500000       0.004
  -0.00000000  0.00000000 -0.37500000       0.004
   0.50000000  0.00000000  0.00000000       0.002
   0.00000000  0.50000000  0.00000000       0.002
   0.50000000  0.50000000  0.50000000       0.002
   0.00000000 -0.00000000  0.50000000       0.002
   0.12500000  0.12500000  0.00000000       0.004
   0.12500000 -0.00000000  0.12500000       0.004
   0.25000000  0.12500000  0.00000000       0.004
   0.12500000 -0.12500000  0.12500000       0.004
  -0.25000000 -0.25000000 -0.12500000       0.004
  -0.12500000  0.00000000 -0.25000000       0.004
  -0.12500000 -0.12500000  0.12500000       0.004
   0.25000000  0.12500000  0.25000000       0.004
   0.12500000  0.25000000 -0.00000000       0.004
  -0.25000000 -0.00000000 -0.12500000       0.004
   0.37500000  0.12500000  0.00000000       0.004
   0.12500000 -0.25000000  0.12500000       0.004
  -0.37500000 -0.37500000 -0.25000000       0.004
  -0.12500000  0.00000000 -0.37500000       0.004
  -0.12500000 -0.12500000  0.25000000       0.004
   0.37500000  0.25000000  0.37500000       0.004
   0.12500000  0.37500000 -0.00000000       0.004
  -0.37500000 -0.00000000 -0.12500000       0.004
   0.50000000  0.12500000  0.00000000       0.004
   0.12500000 -0.37500000  0.12500000       0.004
   0.50000000  0.50000000 -0.37500000       0.004
  -0.12500000 -0.00000000  0.50000000       0.004
  -0.12500000 -0.12500000  0.37500000       0.004
   0.50000000  0.37500000  0.50000000       0.004
   0.12500000  0.50000000 -0.00000000       0.004
   0.50000000  0.00000000 -0.12500000       0.004
  -0.37500000  0.12500000 -0.00000000       0.004
   0.12500000  0.50000000  0.12500000       0.004
   0.37500000  0.37500000  0.50000000       0.004
  -0.12500000 -0.00000000  0.37500000       0.004
  -0.12500000 -0.12500000  0.50000000       0.004
  -0.37500000  0.50000000 -0.37500000       0.004
   0.12500000 -0.37500000  0.00000000       0.004
   0.37500000  0.00000000 -0.12500000       0.004
  -0.25000000  0.12500000 -0.00000000       0.004
   0.12500000  0.37500000  0.12500000       0.004
   0.25000000  0.25000000  0.37500000       0.004
  -0.12500000 -0.00000000  0.25000000       0.004
  -0.12500000 -0.12500000 -0.37500000       0.004
  -0.25000000 -0.37500000 -0.25000000       0.004
   0.12500000 -0.25000000  0.00000000       0.004
   0.25000000  0.00000000 -0.12500000       0.004
  -0.12500000  0.12500000 -0.00000000       0.004
   0.12500000  0.25000000  0.12500000       0.004
   0.12500000  0.12500000  0.25000000       0.004
  -0.12500000 -0.00000000  0.12500000       0.004
   0.25000000  0.25000000  0.00000000       0.004
   0.25000000 -0.00000000  0.25000000       0.004
   0.37500000  0.25000000  0.00000000       0.004
   0.25000000 -0.12500000  0.25000000       0.004
  -0.37500000 -0.37500000 -0.12500000       0.004
  -0.25000000  0.00000000 -0.37500000       0.004
  -0.25000000 -0.25000000  0.12500000       0.004
   0.37500000  0.12500000  0.37500000       0.004
   0.25000000  0.37500000 -0.00000000       0.004
  -0.37500000 -0.00000000 -0.25000000       0.004
   0.50000000  0.25000000  0.00000000       0.004
   0.25000000 -0.25000000  0.25000000       0.004
   0.50000000  0.50000000 -0.25000000       0.004
  -0.25000000 -0.00000000  0.50000000       0.004
  -0.25000000 -0.25000000  0.25000000       0.004
   0.50000000  0.25000000  0.50000000       0.004
   0.25000000  0.50000000 -0.00000000       0.004
   0.50000000  0.00000000 -0.25000000       0.004
  -0.37500000  0.25000000 -0.00000000       0.004
   0.25000000 -0.37500000  0.25000000       0.004
   0.37500000  0.37500000 -0.37500000       0.004
  -0.25000000 -0.00000000  0.37500000       0.004
  -0.25000000 -0.25000000  0.37500000       0.004
  -0.37500000  0.37500000 -0.37500000       0.004
   0.25000000 -0.37500000  0.00000000       0.004
   0.37500000  0.00000000 -0.25000000       0.004
  -0.25000000  0.25000000 -0.00000000       0.004
   0.25000000  0.50000000  0.25000000       0.004
   0.25000000  0.25000000  0.50000000       0.004
  -0.25000000 -0.00000000  0.25000000       0.004
   0.37500000  0.37500000  0.00000000       0.004
   0.37500000 -0.00000000  0.37500000       0.004
   0.50000000  0.37500000  0.00000000       0.004
   0.37500000 -0.12500000  0.37500000       0.004
   0.50000000  0.50000000 -0.12500000       0.004
  -0.37500000 -0.00000000  0.50000000       0.004
  -0.37500000 -0.37500000  0.12500000       0.004
   0.50000000  0.12500000  0.50000000       0.004
   0.37500000  0.50000000 -0.00000000       0.004
   0.50000000  0.00000000 -0.37500000       0.004
  -0.37500000  0.37500000 -0.00000000       0.004
   0.37500000 -0.25000000  0.37500000       0.004
   0.37500000  0.37500000 -0.25000000       0.004
  -0.37500000 -0.00000000  0.37500000       0.004
   0.50000000  0.50000000  0.00000000       0.002
   0.50000000 -0.00000000  0.50000000       0.002
  -0.00000000  0.12500000  0.12500000       0.004
   0.25000000  0.12500000  0.12500000       0.004
   0.00000000 -0.12500000  0.12500000       0.004
   0.37500000  0.12500000  0.12500000       0.004
   0.00000000 -0.25000000  0.12500000       0.004
  -0.37500000 -0.25000000 -0.25000000       0.004
  -0.00000000  0.12500000 -0.25000000       0.004
   0.50000000  0.12500000  0.12500000       0.004
  -0.00000000 -0.37500000  0.12500000       0.004
   0.50000000 -0.37500000 -0.37500000       0.004
   0.00000000  0.12500000 -0.37500000       0.004
  -0.37500000  0.12500000  0.12500000       0.004
  -0.00000000  0.50000000  0.12500000       0.004
   0.37500000  0.50000000  0.50000000       0.004
   0.00000000  0.12500000  0.50000000       0.004
  -0.25000000  0.12500000  0.12500000       0.004
  -0.00000000  0.37500000  0.12500000       0.004
   0.25000000  0.37500000  0.37500000       0.004
  -0.00000000  0.12500000  0.37500000       0.004
  -0.12500000  0.12500000  0.12500000       0.004
  -0.00000000  0.25000000  0.12500000       0.004
   0.12500000  0.25000000  0.25000000       0.004
   0.00000000  0.12500000  0.25000000       0.004
   0.37500000  0.25000000  0.12500000       0.004
   0.12500000 -0.12500000  0.25000000       0.004
  -0.12500000 -0.25000000  0.12500000       0.004
   0.37500000  0.12500000  0.25000000       0.004
   0.50000000  0.25000000  0.12500000       0.004
   0.12500000 -0.25000000  0.25000000       0.004
   0.50000000 -0.37500000 -0.25000000       0.004
  -0.12500000  0.12500000 -0.37500000       0.004
  -0.12500000 -0.25000000  0.25000000       0.004
   0.50000000  0.25000000  0.37500000       0.004
   0.12500000  0.37500000 -0.12500000       0.004
   0.50000000 -0.12500000 -0.25000000       0.004
  -0.37500000  0.25000000  0.12500000       0.004
   0.12500000 -0.37500000  0.25000000       0.004
   0.37500000  0.50000000 -0.37500000       0.004
  -0.12500000  0.12500000  0.50000000       0.004
  -0.12500000 -0.25000000  0.37500000       0.004
  -0.37500000  0.37500000  0.50000000       0.004
   0.12500000  0.50000000 -0.12500000       0.004
   0.37500000 -0.12500000 -0.25000000       0.004
  -0.25000000  0.25000000  0.12500000       0.004
   0.12500000  0.50000000  0.25000000       0.004
   0.25000000  0.37500000  0.50000000       0.004
  -0.12500000  0.12500000  0.37500000       0.004
  -0.12500000 -0.25000000  0.50000000       0.004
  -0.25000000  0.50000000 -0.37500000       0.004
   0.12500000 -0.37500000 -0.12500000       0.004
   0.25000000 -0.12500000 -0.25000000       0.004
  -0.12500000  0.25000000  0.12500000       0.004
   0.12500000  0.37500000  0.25000000       0.004
   0.12500000  0.25000000  0.37500000       0.004
  -0.12500000  0.12500000  0.25000000       0.004
   0.25000000  0.37500000  0.12500000       0.004
   0.25000000  0.12500000  0.37500000       0.004
  -0.25000000 -0.12500000  0.12500000       0.004
  -0.25000000  0.12500000 -0.12500000       0.004
   0.50000000  0.37500000  0.12500000       0.004
   0.25000000 -0.12500000  0.37500000       0.004
  -0.25000000 -0.37500000  0.12500000       0.004
   0.50000000  0.12500000  0.37500000       0.004
  -0.37500000  0.37500000  0.12500000       0.004
   0.25000000 -0.25000000  0.37500000       0.004
   0.37500000  0.50000000 -0.25000000       0.004
  -0.25000000  0.12500000  0.50000000       0.004
  -0.25000000 -0.37500000  0.25000000       0.004
  -0.37500000  0.25000000  0.50000000       0.004
   0.25000000  0.50000000 -0.12500000       0.004
   0.37500000 -0.12500000 -0.37500000       0.004
  -0.25000000  0.37500000  0.12500000       0.004
   0.25000000 -0.37500000  0.37500000       0.004
   0.25000000  0.37500000 -0.37500000       0.004
  -0.25000000  0.12500000  0.37500000       0.004
   0.25000000  0.50000000  0.12500000       0.004
   0.37500000  0.25000000  0.50000000       0.004
  -0.25000000 -0.12500000  0.25000000       0.004
  -0.37500000  0.12500000 -0.12500000       0.004
  -0.37500000  0.50000000 -0.25000000       0.004
   0.25000000 -0.25000000  0.12500000       0.004
   0.37500000  0.12500000 -0.12500000       0.004
  -0.25000000 -0.12500000  0.50000000       0.004
   0.37500000  0.50000000  0.12500000       0.004
   0.37500000  0.12500000  0.50000000       0.004
  -0.37500000 -0.25000000  0.12500000       0.004
  -0.37500000  0.12500000 -0.25000000       0.004
  -0.37500000  0.50000000  0.12500000       0.004
   0.37500000 -0.12500000  0.50000000       0.004
   0.25000000 -0.37500000  0.12500000       0.004
   0.50000000  0.37500000 -0.37500000       0.004
  -0.25000000 -0.12500000  0.37500000       0.004
   0.50000000  0.12500000 -0.12500000       0.004
   0.37500000 -0.37500000  0.12500000       0.004
   0.50000000  0.25000000 -0.37500000       0.004
  -0.37500000 -0.25000000  0.25000000       0.004
   0.50000000  0.12500000 -0.25000000       0.004
   0.50000000  0.37500000 -0.25000000       0.004
   0.37500000 -0.25000000  0.25000000       0.004
   0.50000000  0.25000000 -0.12500000       0.004
  -0.37500000 -0.12500000  0.37500000       0.004
   0.50000000 -0.37500000  0.12500000       0.004
   0.50000000  0.12500000 -0.37500000       0.004
   0.37500000 -0.25000000  0.12500000       0.004
  -0.37500000  0.37500000 -0.25000000       0.004
  -0.37500000 -0.25000000  0.37500000       0.004
   0.37500000  0.12500000 -0.25000000       0.004
  -0.00000000  0.25000000  0.25000000       0.004
   0.50000000  0.25000000  0.25000000       0.004
   0.00000000 -0.25000000  0.25000000       0.004
  -0.37500000  0.25000000  0.25000000       0.004
   0.00000000 -0.37500000  0.25000000       0.004
   0.37500000 -0.37500000 -0.37500000       0.004
  -0.00000000  0.25000000 -0.37500000       0.004
  -0.25000000  0.25000000  0.25000000       0.004
  -0.00000000  0.50000000  0.25000000       0.004
   0.25000000  0.50000000  0.50000000       0.004
   0.00000000  0.25000000  0.50000000       0.004
  -0.12500000  0.25000000  0.25000000       0.004
   0.00000000  0.37500000  0.25000000       0.004
   0.12500000  0.37500000  0.37500000       0.004
   0.00000000  0.25000000  0.37500000       0.004
  -0.37500000  0.37500000  0.25000000       0.004
   0.12500000 -0.25000000  0.37500000       0.004
  -0.12500000 -0.37500000  0.25000000       0.004
  -0.37500000  0.25000000  0.37500000       0.004
  -0.25000000  0.37500000  0.25000000       0.004
   0.12500000 -0.37500000  0.37500000       0.004
   0.25000000  0.50000000 -0.37500000       0.004
  -0.12500000  0.25000000  0.50000000       0.004
  -0.12500000 -0.37500000  0.37500000       0.004
  -0.25000000  0.37500000  0.50000000       0.004
   0.12500000  0.50000000 -0.25000000       0.004
   0.25000000 -0.25000000 -0.37500000       0.004
  -0.12500000  0.37500000  0.25000000       0.004
   0.12500000  0.50000000  0.37500000       0.004
   0.12500000  0.37500000  0.50000000       0.004
  -0.12500000  0.25000000  0.37500000       0.004
  -0.25000000  0.50000000  0.25000000       0.004
   0.25000000 -0.25000000  0.50000000       0.004
   0.50000000 -0.25000000  0.25000000       0.004
  -0.00000000  0.37500000  0.37500000       0.004
  -0.25000000  0.37500000  0.37500000       0.004
  -0.00000000 -0.37500000  0.37500000       0.004
  -0.12500000  0.37500000  0.37500000       0.004
   0.00000000  0.50000000  0.37500000       0.004
   0.12500000  0.50000000  0.50000000       0.004
   0.00000000  0.37500000  0.50000000       0.004
  -0.12500000  0.50000000  0.37500000       0.004
   0.12500000 -0.37500000  0.50000000       0.004
  -0.00000000  0.50000000  0.50000000       0.002
 
 position of ions in fractional coordinates (direct lattice) 
   0.00000000  0.00000000  0.00000000
   0.25000000  0.25000000  0.25000000
 
 position of ions in cartesian coordinates  (Angst):
   0.00000000  0.00000000  0.00000000
   1.36428750  1.35750000  1.35750000
 


--------------------------------------------------------------------------------------------------------


 k-point   1 :   0.0000 0.0000 0.0000  plane waves:     531
 k-point   2 :   0.1250 0.0000 0.0000  plane waves:     534
 k-point   3 :   0.0000-0.1250 0.0000  plane waves:     534
 k-point   4 :  -0.1250-0.1250-0.1250  plane waves:     534
 k-point   5 :  -0.0000 0.0000-0.1250  plane waves:     534
 k-point   6 :   0.2500 0.0000 0.0000  plane waves:     527
 k-point   7 :   0.0000-0.2500 0.0000  plane waves:     527
 k-point   8 :  -0.2500-0.2500-0.2500  plane waves:     527
 k-point   9 :  -0.0000 0.0000-0.2500  plane waves:     527
 k-point  10 :   0.3750 0.0000 0.0000  plane waves:     524
 k-point  11 :   0.0000-0.3750 0.0000  plane waves:     524
 k-point  12 :  -0.3750-0.3750-0.3750  plane waves:     524
 k-point  13 :  -0.0000 0.0000-0.3750  plane waves:     524
 k-point  14 :   0.5000 0.0000 0.0000  plane waves:     536
 k-point  15 :   0.0000 0.5000 0.0000  plane waves:     536
 k-point  16 :   0.5000 0.5000 0.5000  plane waves:     536
 k-point  17 :   0.0000-0.0000 0.5000  plane waves:     536
 k-point  18 :   0.1250 0.1250 0.0000  plane waves:     532
 k-point  19 :   0.1250-0.0000 0.1250  plane waves:     532
 k-point  20 :   0.2500 0.1250 0.0000  plane waves:     530
 k-point  21 :   0.1250-0.1250 0.1250  plane waves:     530
 k-point  22 :  -0.2500-0.2500-0.1250  plane waves:     530
 k-point  23 :  -0.1250 0.0000-0.2500  plane waves:     530
 k-point  24 :  -0.1250-0.1250 0.1250  plane waves:     530
 k-point  25 :   0.2500 0.1250 0.2500  plane waves:     530
 k-point  26 :   0.1250 0.2500-0.0000  plane waves:     530
 k-point  27 :  -0.2500-0.0000-0.1250  plane waves:     530
 k-point  28 :   0.3750 0.1250 0.0000  plane waves:     522
 k-point  29 :   0.1250-0.2500 0.1250  plane waves:     522
 k-point  30 :  -0.3750-0.3750-0.2500  plane waves:     522
 k-point  31 :  -0.1250 0.0000-0.3750  plane waves:     522
 k-point  32 :  -0.1250-0.1250 0.2500  plane waves:     522
 k-point  33 :   0.3750 0.2500 0.3750  plane waves:     522
 k-point  34 :   0.1250 0.3750-0.0000  plane waves:     522
 k-point  35 :  -0.3750-0.0000-0.1250  plane waves:     522
 k-point  36 :   0.5000 0.1250 0.0000  plane waves:     526
 k-point  37 :   0.1250-0.3750 0.1250  plane waves:     526
 k-point  38 :   0.5000 0.5000-0.3750  plane waves:     526
 k-point  39 :  -0.1250-0.0000 0.5000  plane waves:     526
 k-point  40 :  -0.1250-0.1250 0.3750  plane waves:     526
 k-point  41 :   0.5000 0.3750 0.5000  plane waves:     526
 k-point  42 :   0.1250 0.5000-0.0000  plane waves:     526
 k-point  43 :   0.5000 0.0000-0.1250  plane waves:     526
 k-point  44 :  -0.3750 0.1250-0.0000  plane waves:     525
 k-point  45 :   0.1250 0.5000 0.1250  plane waves:     525
 k-point  46 :   0.3750 0.3750 0.5000  plane waves:     525
 k-point  47 :  -0.1250-0.0000 0.3750  plane waves:     525
 k-point  48 :  -0.1250-0.1250 0.5000  plane waves:     525
 k-point  49 :  -0.3750 0.5000-0.3750  plane waves:     525
 k-point  50 :   0.1250-0.3750 0.0000  plane waves:     525
 k-point  51 :   0.3750 0.0000-0.1250  plane waves:     525
 k-point  52 :  -0.2500 0.1250-0.0000  plane waves:     524
 k-point  53 :   0.1250 0.3750 0.1250  plane waves:     524
 k-point  54 :   0.2500 0.2500 0.3750  plane waves:     524
 k-point  55 :  -0.1250-0.0000 0.2500  plane waves:     524
 k-point  56 :  -0.1250-0.1250-0.3750  plane waves:     524
 k-point  57 :  -0.2500-0.3750-0.2500  plane waves:     524
 k-point  58 :   0.1250-0.2500 0.0000  plane waves:     524
 k-point  59 :   0.2500 0.0000-0.1250  plane waves:     524
 k-point  60 :  -0.1250 0.1250-0.0000  plane waves:     526
 k-point  61 :   0.1250 0.2500 0.1250  plane waves:     526
 k-point  62 :   0.1250 0.1250 0.2500  plane waves:     526
 k-point  63 :  -0.1250-0.0000 0.1250  plane waves:     526
 k-point  64 :   0.2500 0.2500 0.0000  plane waves:     528
 k-point  65 :   0.2500-0.0000 0.2500  plane waves:     528
 k-point  66 :   0.3750 0.2500 0.0000  plane waves:     523
 k-point  67 :   0.2500-0.1250 0.2500  plane waves:     523
 k-point  68 :  -0.3750-0.3750-0.1250  plane waves:     523
 k-point  69 :  -0.2500 0.0000-0.3750  plane waves:     523
 k-point  70 :  -0.2500-0.2500 0.1250  plane waves:     523
 k-point  71 :   0.3750 0.1250 0.3750  plane waves:     523
 k-point  72 :   0.2500 0.3750-0.0000  plane waves:     523
 k-point  73 :  -0.3750-0.0000-0.2500  plane waves:     523
 k-point  74 :   0.5000 0.2500 0.0000  plane waves:     521
 k-point  75 :   0.2500-0.2500 0.2500  plane waves:     521
 k-point  76 :   0.5000 0.5000-0.2500  plane waves:     521
 k-point  77 :  -0.2500-0.0000 0.5000  plane waves:     521
 k-point  78 :  -0.2500-0.2500 0.2500  plane waves:     521
 k-point  79 :   0.5000 0.2500 0.5000  plane waves:     521
 k-point  80 :   0.2500 0.5000-0.0000  plane waves:     521
 k-point  81 :   0.5000 0.0000-0.2500  plane waves:     521
 k-point  82 :  -0.3750 0.2500-0.0000  plane waves:     521
 k-point  83 :   0.2500-0.3750 0.2500  plane waves:     521
 k-point  84 :   0.3750 0.3750-0.3750  plane waves:     521
 k-point  85 :  -0.2500-0.0000 0.3750  plane waves:     521
 k-point  86 :  -0.2500-0.2500 0.3750  plane waves:     521
 k-point  87 :  -0.3750 0.3750-0.3750  plane waves:     521
 k-point  88 :   0.2500-0.3750 0.0000  plane waves:     521
 k-point  89 :   0.3750 0.0000-0.2500  plane waves:     521
 k-point  90 :  -0.2500 0.2500-0.0000  plane waves:     524
 k-point  91 :   0.2500 0.5000 0.2500  plane waves:     524
 k-point  92 :   0.2500 0.2500 0.5000  plane waves:     524
 k-point  93 :  -0.2500-0.0000 0.2500  plane waves:     524
 k-point  94 :   0.3750 0.3750 0.0000  plane waves:     524
 k-point  95 :   0.3750-0.0000 0.3750  plane waves:     524
 k-point  96 :   0.5000 0.3750 0.0000  plane waves:     519
 k-point  97 :   0.3750-0.1250 0.3750  plane waves:     519
 k-point  98 :   0.5000 0.5000-0.1250  plane waves:     519
 k-point  99 :  -0.3750-0.0000 0.5000  plane waves:     519
 k-point 100 :  -0.3750-0.3750 0.1250  plane waves:     519
 k-point 101 :   0.5000 0.1250 0.5000  plane waves:     519
 k-point 102 :   0.3750 0.5000-0.0000  plane waves:     519
 k-point 103 :   0.5000 0.0000-0.3750  plane waves:     519
 k-point 104 :  -0.3750 0.3750-0.0000  plane waves:     515
 k-point 105 :   0.3750-0.2500 0.3750  plane waves:     515
 k-point 106 :   0.3750 0.3750-0.2500  plane waves:     515
 k-point 107 :  -0.3750-0.0000 0.3750  plane waves:     515
 k-point 108 :   0.5000 0.5000 0.0000  plane waves:     524
 k-point 109 :   0.5000-0.0000 0.5000  plane waves:     524
 k-point 110 :  -0.0000 0.1250 0.1250  plane waves:     532
 k-point 111 :   0.2500 0.1250 0.1250  plane waves:     523
 k-point 112 :   0.0000-0.1250 0.1250  plane waves:     523
 k-point 113 :   0.3750 0.1250 0.1250  plane waves:     522
 k-point 114 :   0.0000-0.2500 0.1250  plane waves:     522
 k-point 115 :  -0.3750-0.2500-0.2500  plane waves:     522
 k-point 116 :  -0.0000 0.1250-0.2500  plane waves:     522
 k-point 117 :   0.5000 0.1250 0.1250  plane waves:     523
 k-point 118 :  -0.0000-0.3750 0.1250  plane waves:     523
 k-point 119 :   0.5000-0.3750-0.3750  plane waves:     523
 k-point 120 :   0.0000 0.1250-0.3750  plane waves:     523
 k-point 121 :  -0.3750 0.1250 0.1250  plane waves:     526
 k-point 122 :  -0.0000 0.5000 0.1250  plane waves:     526
 k-point 123 :   0.3750 0.5000 0.5000  plane waves:     526
 k-point 124 :   0.0000 0.1250 0.5000  plane waves:     526
 k-point 125 :  -0.2500 0.1250 0.1250  plane waves:     522
 k-point 126 :  -0.0000 0.3750 0.1250  plane waves:     522
 k-point 127 :   0.2500 0.3750 0.3750  plane waves:     522
 k-point 128 :  -0.0000 0.1250 0.3750  plane waves:     522
 k-point 129 :  -0.1250 0.1250 0.1250  plane waves:     529
 k-point 130 :  -0.0000 0.2500 0.1250  plane waves:     529
 k-point 131 :   0.1250 0.2500 0.2500  plane waves:     529
 k-point 132 :   0.0000 0.1250 0.2500  plane waves:     529
 k-point 133 :   0.3750 0.2500 0.1250  plane waves:     528
 k-point 134 :   0.1250-0.1250 0.2500  plane waves:     528
 k-point 135 :  -0.1250-0.2500 0.1250  plane waves:     528
 k-point 136 :   0.3750 0.1250 0.2500  plane waves:     528
 k-point 137 :   0.5000 0.2500 0.1250  plane waves:     522
 k-point 138 :   0.1250-0.2500 0.2500  plane waves:     522
 k-point 139 :   0.5000-0.3750-0.2500  plane waves:     522
 k-point 140 :  -0.1250 0.1250-0.3750  plane waves:     522
 k-point 141 :  -0.1250-0.2500 0.2500  plane waves:     522
 k-point 142 :   0.5000 0.2500 0.3750  plane waves:     522
 k-point 143 :   0.1250 0.3750-0.1250  plane waves:     522
 k-point 144 :   0.5000-0.1250-0.2500  plane waves:     522
 k-point 145 :  -0.3750 0.2500 0.1250  plane waves:     525
 k-point 146 :   0.1250-0.3750 0.2500  plane waves:     525
 k-point 147 :   0.3750 0.5000-0.3750  plane waves:     525
 k-point 148 :  -0.1250 0.1250 0.5000  plane waves:     525
 k-point 149 :  -0.1250-0.2500 0.3750  plane waves:     525
 k-point 150 :  -0.3750 0.3750 0.5000  plane waves:     525
 k-point 151 :   0.1250 0.5000-0.1250  plane waves:     525
 k-point 152 :   0.3750-0.1250-0.2500  plane waves:     525
 k-point 153 :  -0.2500 0.2500 0.1250  plane waves:     523
 k-point 154 :   0.1250 0.5000 0.2500  plane waves:     523
 k-point 155 :   0.2500 0.3750 0.5000  plane waves:     523
 k-point 156 :  -0.1250 0.1250 0.3750  plane waves:     523
 k-point 157 :  -0.1250-0.2500 0.5000  plane waves:     523
 k-point 158 :  -0.2500 0.5000-0.3750  plane waves:     523
 k-point 159 :   0.1250-0.3750-0.1250  plane waves:     523
 k-point 160 :   0.2500-0.1250-0.2500  plane waves:     523
 k-point 161 :  -0.1250 0.2500 0.1250  plane waves:     526
 k-point 162 :   0.1250 0.3750 0.2500  plane waves:     526
 k-point 163 :   0.1250 0.2500 0.3750  plane waves:     526
 k-point 164 :  -0.1250 0.1250 0.2500  plane waves:     526
 k-point 165 :   0.2500 0.3750 0.1250  plane waves:     522
 k-point 166 :   0.2500 0.1250 0.3750  plane waves:     522
 k-point 167 :  -0.2500-0.1250 0.1250  plane waves:     522
 k-point 168 :  -0.2500 0.1250-0.1250  plane waves:     522
 k-point 169 :   0.5000 0.3750 0.1250  plane waves:     522
 k-point 170 :   0.2500-0.1250 0.3750  plane waves:     522
 k-point 171 :  -0.2500-0.3750 0.1250  plane waves:     522
 k-point 172 :   0.5000 0.1250 0.3750  plane waves:     522
 k-point 173 :  -0.3750 0.3750 0.1250  plane waves:     519
 k-point 174 :   0.2500-0.2500 0.3750  plane waves:     519
 k-point 175 :   0.3750 0.5000-0.2500  plane waves:     519
 k-point 176 :  -0.2500 0.1250 0.5000  plane waves:     519
 k-point 177 :  -0.2500-0.3750 0.2500  plane waves:     519
 k-point 178 :  -0.3750 0.2500 0.5000  plane waves:     519
 k-point 179 :   0.2500 0.5000-0.1250  plane waves:     519
 k-point 180 :   0.3750-0.1250-0.3750  plane waves:     519
 k-point 181 :  -0.2500 0.3750 0.1250  plane waves:     521
 k-point 182 :   0.2500-0.3750 0.3750  plane waves:     521
 k-point 183 :   0.2500 0.3750-0.3750  plane waves:     521
 k-point 184 :  -0.2500 0.1250 0.3750  plane waves:     521
 k-point 185 :   0.2500 0.5000 0.1250  plane waves:     524
 k-point 186 :   0.3750 0.2500 0.5000  plane waves:     524
 k-point 187 :  -0.2500-0.1250 0.2500  plane waves:     524
 k-point 188 :  -0.3750 0.1250-0.1250  plane waves:     524
 k-point 189 :  -0.3750 0.5000-0.2500  plane waves:     524
 k-point 190 :   0.2500-0.2500 0.1250  plane waves:     524
 k-point 191 :   0.3750 0.1250-0.1250  plane waves:     524
 k-point 192 :  -0.2500-0.1250 0.5000  plane waves:     524
 k-point 193 :   0.3750 0.5000 0.1250  plane waves:     522
 k-point 194 :   0.3750 0.1250 0.5000  plane waves:     522
 k-point 195 :  -0.3750-0.2500 0.1250  plane waves:     522
 k-point 196 :  -0.3750 0.1250-0.2500  plane waves:     522
 k-point 197 :  -0.3750 0.5000 0.1250  plane waves:     516
 k-point 198 :   0.3750-0.1250 0.5000  plane waves:     516
 k-point 199 :   0.2500-0.3750 0.1250  plane waves:     524
 k-point 200 :   0.5000 0.3750-0.3750  plane waves:     524
 k-point 201 :  -0.2500-0.1250 0.3750  plane waves:     524
 k-point 202 :   0.5000 0.1250-0.1250  plane waves:     524
 k-point 203 :   0.3750-0.3750 0.1250  plane waves:     518
 k-point 204 :   0.5000 0.2500-0.3750  plane waves:     518
 k-point 205 :  -0.3750-0.2500 0.2500  plane waves:     518
 k-point 206 :   0.5000 0.1250-0.2500  plane waves:     518
 k-point 207 :   0.5000 0.3750-0.2500  plane waves:     518
 k-point 208 :   0.3750-0.2500 0.2500  plane waves:     518
 k-point 209 :   0.5000 0.2500-0.1250  plane waves:     518
 k-point 210 :  -0.3750-0.1250 0.3750  plane waves:     518
 k-point 211 :   0.5000-0.3750 0.1250  plane waves:     512
 k-point 212 :   0.5000 0.1250-0.3750  plane waves:     512
 k-point 213 :   0.3750-0.2500 0.1250  plane waves:     517
 k-point 214 :  -0.3750 0.3750-0.2500  plane waves:     517
 k-point 215 :  -0.3750-0.2500 0.3750  plane waves:     517
 k-point 216 :   0.3750 0.1250-0.2500  plane waves:     517
 k-point 217 :  -0.0000 0.2500 0.2500  plane waves:     528
 k-point 218 :   0.5000 0.2500 0.2500  plane waves:     524
 k-point 219 :   0.0000-0.2500 0.2500  plane waves:     524
 k-point 220 :  -0.3750 0.2500 0.2500  plane waves:     526
 k-point 221 :   0.0000-0.3750 0.2500  plane waves:     526
 k-point 222 :   0.3750-0.3750-0.3750  plane waves:     526
 k-point 223 :  -0.0000 0.2500-0.3750  plane waves:     526
 k-point 224 :  -0.2500 0.2500 0.2500  plane waves:     520
 k-point 225 :  -0.0000 0.5000 0.2500  plane waves:     520
 k-point 226 :   0.2500 0.5000 0.5000  plane waves:     520
 k-point 227 :   0.0000 0.2500 0.5000  plane waves:     520
 k-point 228 :  -0.1250 0.2500 0.2500  plane waves:     522
 k-point 229 :   0.0000 0.3750 0.2500  plane waves:     522
 k-point 230 :   0.1250 0.3750 0.3750  plane waves:     522
 k-point 231 :   0.0000 0.2500 0.3750  plane waves:     522
 k-point 232 :  -0.3750 0.3750 0.2500  plane waves:     517
 k-point 233 :   0.1250-0.2500 0.3750  plane waves:     517
 k-point 234 :  -0.1250-0.3750 0.2500  plane waves:     517
 k-point 235 :  -0.3750 0.2500 0.3750  plane waves:     517
 k-point 236 :  -0.2500 0.3750 0.2500  plane waves:     518
 k-point 237 :   0.1250-0.3750 0.3750  plane waves:     518
 k-point 238 :   0.2500 0.5000-0.3750  plane waves:     518
 k-point 239 :  -0.1250 0.2500 0.5000  plane waves:     518
 k-point 240 :  -0.1250-0.3750 0.3750  plane waves:     518
 k-point 241 :  -0.2500 0.3750 0.5000  plane waves:     518
 k-point 242 :   0.1250 0.5000-0.2500  plane waves:     518
 k-point 243 :   0.2500-0.2500-0.3750  plane waves:     518
 k-point 244 :  -0.1250 0.3750 0.2500  plane waves:     522
 k-point 245 :   0.1250 0.5000 0.3750  plane waves:     522
 k-point 246 :   0.1250 0.3750 0.5000  plane waves:     522
 k-point 247 :  -0.1250 0.2500 0.3750  plane waves:     522
 k-point 248 :  -0.2500 0.5000 0.2500  plane waves:     516
 k-point 249 :   0.2500-0.2500 0.5000  plane waves:     516
 k-point 250 :   0.5000-0.2500 0.2500  plane waves:     516
 k-point 251 :  -0.0000 0.3750 0.3750  plane waves:     520
 k-point 252 :  -0.2500 0.3750 0.3750  plane waves:     516
 k-point 253 :  -0.0000-0.3750 0.3750  plane waves:     516
 k-point 254 :  -0.1250 0.3750 0.3750  plane waves:     517
 k-point 255 :   0.0000 0.5000 0.3750  plane waves:     517
 k-point 256 :   0.1250 0.5000 0.5000  plane waves:     517
 k-point 257 :   0.0000 0.3750 0.5000  plane waves:     517
 k-point 258 :  -0.1250 0.5000 0.3750  plane waves:     514
 k-point 259 :   0.1250-0.3750 0.5000  plane waves:     514
 k-point 260 :  -0.0000 0.5000 0.5000  plane waves:     524

 maximum and minimum number of plane-waves per node :       536      512

 maximum number of plane-waves:       536
 maximum index in each direction: 
   IXMAX=    5   IYMAX=    5   IZMAX=    5
   IXMIN=   -6   IYMIN=   -6   IZMIN=   -6


 serial   3D FFT for wavefunctions
 parallel 3D FFT for charge:
    minimum data exchange during FFTs selected (reduces bandwidth)


 total amount of memory used by VASP MPI-rank0    67246. kBytes
=======================================================================

   base      :      30000. kBytes
   nonl-proj :       8936. kBytes
   fftplans  :       3916. kBytes
   grid      :       6018. kBytes
   one-center:          6. kBytes
   wavefun   :      18370. kBytes
 
     INWAV:  cpu time      0.0000: real time      0.0000
 Broyden mixing: mesh for mixing (old mesh)
   NGX = 11   NGY = 11   NGZ = 11
  (NGX  = 48   NGY  = 48   NGZ  = 48)
  gives a total of   1331 points

 initial charge density was supplied:
 charge density of overlapping atoms calculated
 number of electron       8.0000000 magnetization 
 keeping initial charge density in first step


--------------------------------------------------------------------------------------------------------


 Maximum index for augmentation-charges        11057 (set IRDMAX)


--------------------------------------------------------------------------------------------------------


 First call to EWALD:  gamma=   0.517
 Maximum number of real-space cells 3x 3x 3
 Maximum number of reciprocal cells 3x 3x 3

    FEWALD:  cpu time      0.0014: real time      0.0014


--------------------------------------- Iteration      1(   1)  ---------------------------------------


    POTLOK:  cpu time      0.0471: real time      0.0471
    SETDIJ:  cpu time      0.0034: real time      0.0034
     EDDAV:  cpu time      2.8148: real time      2.8149
       DOS:  cpu time      0.0049: real time      0.0049
    --------------------------------------------
      LOOP:  cpu time      2.8701: real time      2.8702

 eigenvalue-minimisations  :  4184
 total energy-change (2. order) : 0.2587409E+01  (-0.2516131E+03)
 number of electron       8.0000000 magnetization 
 augmentation part        8.0000000 magnetization 

 Free energy of the ion-electron system (eV)
  ---------------------------------------------------
  alpha Z        PSCENC =         3.34741021
  Ewald energy   TEWEN  =      -228.18471811
  -Hartree energ DENC   =       -11.07565083
  -exchange      EXHF   =         0.00000000
  -V(xc)+E(xc)   XCENC  =       -18.62147958
  PAW double counting   =       176.24759923     -141.06103558
  entropy T*S    EENTRO =        -0.00063825
  eigenvalues    EBANDS =        15.80525505
  atomic energy  EATOM  =       206.13066687
  Solvation  Ediel_sol  =         0.00000000
  ---------------------------------------------------
  free energy    TOTEN  =         2.58740901 eV

  energy without entropy =        2.58804726  energy(sigma->0) =        2.58772814


--------------------------------------------------------------------------------------------------------




--------------------------------------- Iteration      1(   2)  ---------------------------------------


     EDDAV:  cpu time      3.8806: real time      3.8808
       DOS:  cpu time      0.0028: real time      0.0027
    --------------------------------------------
      LOOP:  cpu time      3.8834: real time      3.8836

 eigenvalue-minimisations  :  6424
 total energy-change (2. order) :-0.1343693E+02  (-0.1282908E+02)
 number of electron       8.0000000 magnetization 
 augmentation part        8.0000000 magnetization 

 Free energy of the ion-electron system (eV)
  ---------------------------------------------------
  alpha Z        PSCENC =         3.34741021
  Ewald energy   TEWEN  =      -228.18471811
  -Hartree energ DENC   =       -11.07565083
  -exchange      EXHF   =         0.00000000
  -V(xc)+E(xc)   XCENC  =       -18.62147958
  PAW double counting   =       176.24759923     -141.06103558
  entropy T*S    EENTRO =        -0.00000000
  eigenvalues    EBANDS =         2.36768892
  atomic energy  EATOM  =       206.13066687
  Solvation  Ediel_sol  =         0.00000000
  ---------------------------------------------------
  free energy    TOTEN  =       -10.84951887 eV

  energy without entropy =      -10.84951887  energy(sigma->0) =      -10.84951887


--------------------------------------------------------------------------------------------------------




--------------------------------------- Iteration      1(   3)  ---------------------------------------


     EDDAV:  cpu time      3.2622: real time      3.2624
       DOS:  cpu time      0.0028: real time      0.0028
    --------------------------------------------
      LOOP:  cpu time      3.2650: real time      3.2652

 eigenvalue-minimisations  :  5128
 total energy-change (2. order) :-0.1665700E+00  (-0.1665700E+00)
 number of electron       8.0000000 magnetization 
 augmentation part        8.0000000 magnetization 

 Free energy of the ion-electron system (eV)
  ---------------------------------------------------
  alpha Z        PSCENC =         3.34741021
  Ewald energy   TEWEN  =      -228.18471811
  -Hartree energ DENC   =       -11.07565083
  -exchange      EXHF   =         0.00000000
  -V(xc)+E(xc)   XCENC  =       -18.62147958
  PAW double counting   =       176.24759923     -141.06103558
  entropy T*S    EENTRO =        -0.00000000
  eigenvalues    EBANDS =         2.20111891
  atomic energy  EATOM  =       206.13066687
  Solvation  Ediel_sol  =         0.00000000
  ---------------------------------------------------
  free energy    TOTEN  =       -11.01608887 eV

  energy without entropy =      -11.01608887  energy(sigma->0) =      -11.01608887


--------------------------------------------------------------------------------------------------------




--------------------------------------- Iteration      1(   4)  ---------------------------------------


     EDDAV:  cpu time      4.0571: real time      4.0574
       DOS:  cpu time      0.0028: real time      0.0028
    --------------------------------------------
      LOOP:  cpu time      4.0600: real time      4.0602

 eigenvalue-minimisations  :  6776
 total energy-change (2. order) :-0.6618450E-03  (-0.6618446E-03)
 number of electron       8.0000000 magnetization 
 augmentation part        8.0000000 magnetization 

 Free energy of the ion-electron system (eV)
  ---------------------------------------------------
  alpha Z        PSCENC =         3.34741021
  Ewald energy   TEWEN  =      -228.18471811
  -Hartree energ DENC   =       -11.07565083
  -exchange      EXHF   =         0.00000000
  -V(xc)+E(xc)   XCENC  =       -18.62147958
  PAW double counting   =       176.24759923     -141.06103558
  entropy T*S    EENTRO =        -0.00000000
  eigenvalues    EBANDS =         2.20045706
  atomic energy  EATOM  =       206.13066687
  Solvation  Ediel_sol  =         0.00000000
  ---------------------------------------------------
  free energy    TOTEN  =       -11.01675072 eV

  energy without entropy =      -11.01675072  energy(sigma->0) =      -11.01675072


--------------------------------------------------------------------------------------------------------




--------------------------------------- Iteration      1(   5)  ---------------------------------------


     EDDAV:  cpu time      3.3197: real time      3.3198
       DOS:  cpu time      0.0029: real time      0.0029
    CHARGE:  cpu time      0.2336: real time      0.2336
    MIXING:  cpu time      0.0018: real time      0.0018
    --------------------------------------------
      LOOP:  cpu time      3.5581: real time      3.5581

 eigenvalue-minimisations  :  5248
 total energy-change (2. order) :-0.6788289E-06  (-0.6791936E-06)
 number of electron       7.9999999 magnetization 
 augmentation part       -0.4702014 magnetization 

 Broyden mixing:
  rms(total) = 0.49241E+00    rms(broyden)= 0.49241E+00
  rms(prec ) = 0.95311E+00
  weight for this iteration     100.00

 Free energy of the ion-electron system (eV)
  ---------------------------------------------------
  alpha Z        PSCENC =         3.34741021
  Ewald energy   TEWEN  =      -228.18471811
  -Hartree energ DENC   =       -11.07565083
  -exchange      EXHF   =         0.00000000
  -V(xc)+E(xc)   XCENC  =       -18.62147958
  PAW double counting   =       176.24759923     -141.06103558
  entropy T*S    EENTRO =        -0.00000000
  eigenvalues    EBANDS =         2.20045639
  atomic energy  EATOM  =       206.13066687
  Solvation  Ediel_sol  =         0.00000000
  ---------------------------------------------------
  free energy    TOTEN  =       -11.01675140 eV

  energy without entropy =      -11.01675140  energy(sigma->0) =      -11.01675140


--------------------------------------------------------------------------------------------------------




--------------------------------------- Iteration      1(   6)  ---------------------------------------


    POTLOK:  cpu time      0.0442: real time      0.0442
    SETDIJ:  cpu time      0.0034: real time      0.0034
     EDDAV:  cpu time      3.1502: real time      3.1504
       DOS:  cpu time      0.0028: real time      0.0028
    CHARGE:  cpu time      0.2332: real time      0.2332
    MIXING:  cpu time      0.0018: real time      0.0018
    --------------------------------------------
      LOOP:  cpu time      3.4357: real time      3.4359

 eigenvalue-minimisations  :  4888
 total energy-change (2. order) : 0.1230423E+00  (-0.8093647E-02)
 number of electron       7.9999999 magnetization 
 augmentation part       -0.4643826 magnetization 

 Broyden mixing:
  rms(total) = 0.30143E+00    rms(broyden)= 0.30143E+00
  rms(prec ) = 0.56702E+00
  weight for this iteration     100.00

 eigenvalues of (default mixing * dielectric matrix)
  average eigenvalue GAMMA=   2.5689
  2.5689

 Free energy of the ion-electron system (eV)
  ---------------------------------------------------
  alpha Z        PSCENC =         3.34741021
  Ewald energy   TEWEN  =      -228.18471811
  -Hartree energ DENC   =       -12.56801980
  -exchange      EXHF   =         0.00000000
  -V(xc)+E(xc)   XCENC  =       -18.38484477
  PAW double counting   =       383.45550944     -348.37839214
  entropy T*S    EENTRO =        -0.00000000
  eigenvalues    EBANDS =         3.68867916
  atomic energy  EATOM  =       206.13066687
  Solvation  Ediel_sol  =         0.00000000
  ---------------------------------------------------
  free energy    TOTEN  =       -10.89370914 eV

  energy without entropy =      -10.89370914  energy(sigma->0) =      -10.89370914


--------------------------------------------------------------------------------------------------------




--------------------------------------- Iteration      1(   7)  ---------------------------------------


    POTLOK:  cpu time      0.0438: real time      0.0438
    SETDIJ:  cpu time      0.0034: real time      0.0034
     EDDAV:  cpu time      3.2556: real time      3.2559
       DOS:  cpu time      0.0028: real time      0.0028
    CHARGE:  cpu time      0.2332: real time      0.2332
    MIXING:  cpu time      0.0018: real time      0.0018
    --------------------------------------------
      LOOP:  cpu time      3.5407: real time      3.5409

 eigenvalue-minimisations  :  5112
 total energy-change (2. order) : 0.5622730E-01  (-0.1538691E-01)
 number of electron       7.9999999 magnetization 
 augmentation part       -0.4572844 magnetization 

 Broyden mixing:
  rms(total) = 0.19007E-01    rms(broyden)= 0.19007E-01
  rms(prec ) = 0.41660E-01
  weight for this iteration     100.00

 eigenvalues of (default mixing * dielectric matrix)
  average eigenvalue GAMMA=   2.0733
  1.7573  2.3893

 Free energy of the ion-electron system (eV)
  ---------------------------------------------------
  alpha Z        PSCENC =         3.34741021
  Ewald energy   TEWEN  =      -228.18471811
  -Hartree energ DENC   =       -15.00890620
  -exchange      EXHF   =         0.00000000
  -V(xc)+E(xc)   XCENC  =       -17.99046997
  PAW double counting   =       882.03911556     -847.10389048
  entropy T*S    EENTRO =        -0.00000000
  eigenvalues    EBANDS =         5.93331028
  atomic energy  EATOM  =       206.13066687
  Solvation  Ediel_sol  =         0.00000000
  ---------------------------------------------------
  free energy    TOTEN  =       -10.83748184 eV

  energy without entropy =      -10.83748184  energy(sigma->0) =      -10.83748184


--------------------------------------------------------------------------------------------------------




--------------------------------------- Iteration      1(   8)  ---------------------------------------


    POTLOK:  cpu time      0.0439: real time      0.0439
    SETDIJ:  cpu time      0.0034: real time      0.0034
     EDDAV:  cpu time      2.9823: real time      2.9824
       DOS:  cpu time      0.0028: real time      0.0028
    CHARGE:  cpu time      0.2334: real time      0.2334
    MIXING:  cpu time      0.0019: real time      0.0019
    --------------------------------------------
      LOOP:  cpu time      3.2676: real time      3.2677

 eigenvalue-minimisations  :  4536
 total energy-change (2. order) :-0.1070964E-02  (-0.3913006E-03)
 number of electron       7.9999999 magnetization 
 augmentation part       -0.4582598 magnetization 

 Broyden mixing:
  rms(total) = 0.74365E-02    rms(broyden)= 0.74363E-02
  rms(prec ) = 0.13135E-01
  weight for this iteration     100.00

 eigenvalues of (default mixing * dielectric matrix)
  average eigenvalue GAMMA=   2.2504
  2.8203  1.9654  1.9654

 Free energy of the ion-electron system (eV)
  ---------------------------------------------------
  alpha Z        PSCENC =         3.34741021
  Ewald energy   TEWEN  =      -228.18471811
  -Hartree energ DENC   =       -14.93586128
  -exchange      EXHF   =         0.00000000
  -V(xc)+E(xc)   XCENC  =       -17.99054386
  PAW double counting   =       892.95417155     -857.99188939
  entropy T*S    EENTRO =        -0.00000000
  eigenvalues    EBANDS =         5.83221120
  atomic energy  EATOM  =       206.13066687
  Solvation  Ediel_sol  =         0.00000000
  ---------------------------------------------------
  free energy    TOTEN  =       -10.83855281 eV

  energy without entropy =      -10.83855281  energy(sigma->0) =      -10.83855281


--------------------------------------------------------------------------------------------------------




--------------------------------------- Iteration      1(   9)  ---------------------------------------


    POTLOK:  cpu time      0.0438: real time      0.0438
    SETDIJ:  cpu time      0.0034: real time      0.0034
     EDDAV:  cpu time      3.7686: real time      3.7688
       DOS:  cpu time      0.0028: real time      0.0028
    CHARGE:  cpu time      0.2336: real time      0.2336
    MIXING:  cpu time      0.0019: real time      0.0019
    --------------------------------------------
      LOOP:  cpu time      4.0540: real time      4.0542

 eigenvalue-minimisations  :  6168
 total energy-change (2. order) :-0.1915426E-03  (-0.1858646E-04)
 number of electron       7.9999999 magnetization 
 augmentation part       -0.4583729 magnetization 

 Broyden mixing:
  rms(total) = 0.56929E-02    rms(broyden)= 0.56928E-02
  rms(prec ) = 0.65873E-02
  weight for this iteration     100.00

 eigenvalues of (default mixing * dielectric matrix)
  average eigenvalue GAMMA=   2.1281
  0.9568  2.6246  2.6246  2.3062

 Free energy of the ion-electron system (eV)
  ---------------------------------------------------
  alpha Z        PSCENC =         3.34741021
  Ewald energy   TEWEN  =      -228.18471811
  -Hartree energ DENC   =       -14.97880758
  -exchange      EXHF   =         0.00000000
  -V(xc)+E(xc)   XCENC  =       -17.98220408
  PAW double counting   =       895.45149135     -860.48700467
  entropy T*S    EENTRO =        -0.00000000
  eigenvalues    EBANDS =         5.86442166
  atomic energy  EATOM  =       206.13066687
  Solvation  Ediel_sol  =         0.00000000
  ---------------------------------------------------
  free energy    TOTEN  =       -10.83874435 eV

  energy without entropy =      -10.83874435  energy(sigma->0) =      -10.83874435


--------------------------------------------------------------------------------------------------------




--------------------------------------- Iteration      1(  10)  ---------------------------------------


    POTLOK:  cpu time      0.0439: real time      0.0439
    SETDIJ:  cpu time      0.0034: real time      0.0034
     EDDAV:  cpu time      3.0392: real time      3.0395
       DOS:  cpu time      0.0029: real time      0.0029
    CHARGE:  cpu time      0.2338: real time      0.2338
    MIXING:  cpu time      0.0019: real time      0.0019
    --------------------------------------------
      LOOP:  cpu time      3.3250: real time      3.3252

 eigenvalue-minimisations  :  4656
 total energy-change (2. order) :-0.2675417E-04  (-0.3232803E-05)
 number of electron       7.9999999 magnetization 
 augmentation part       -0.4583532 magnetization 

 Broyden mixing:
  rms(total) = 0.10303E-02    rms(broyden)= 0.10303E-02
  rms(prec ) = 0.11073E-02
  weight for this iteration     100.00

 eigenvalues of (default mixing * dielectric matrix)
  average eigenvalue GAMMA=   1.9104
  2.8984  2.4397  2.0694  1.0723  1.0723

 Free energy of the ion-electron system (eV)
  ---------------------------------------------------
  alpha Z        PSCENC =         3.34741021
  Ewald energy   TEWEN  =      -228.18471811
  -Hartree energ DENC   =       -14.98648814
  -exchange      EXHF   =         0.00000000
  -V(xc)+E(xc)   XCENC  =       -17.98189749
  PAW double counting   =       883.59705235     -848.63236726
  entropy T*S    EENTRO =        -0.00000000
  eigenvalues    EBANDS =         5.87157046
  atomic energy  EATOM  =       206.13066687
  Solvation  Ediel_sol  =         0.00000000
  ---------------------------------------------------
  free energy    TOTEN  =       -10.83877110 eV

  energy without entropy =      -10.83877110  energy(sigma->0) =      -10.83877110


--------------------------------------------------------------------------------------------------------




--------------------------------------- Iteration      1(  11)  ---------------------------------------


    POTLOK:  cpu time      0.0439: real time      0.0439
    SETDIJ:  cpu time      0.0034: real time      0.0034
     EDDAV:  cpu time      4.0627: real time      4.0629
       DOS:  cpu time      0.0028: real time      0.0028
    CHARGE:  cpu time      0.2332: real time      0.2332
    MIXING:  cpu time      0.0019: real time      0.0019
    --------------------------------------------
      LOOP:  cpu time      4.3479: real time      4.3481

 eigenvalue-minimisations  :  6776
 total energy-change (2. order) : 0.3404260E-06  (-0.5548094E-07)
 number of electron       7.9999999 magnetization 
 augmentation part       -0.4583703 magnetization 

 Broyden mixing:
  rms(total) = 0.22393E-03    rms(broyden)= 0.22393E-03
  rms(prec ) = 0.43835E-03
  weight for this iteration     100.00

 eigenvalues of (default mixing * dielectric matrix)
  average eigenvalue GAMMA=   2.1490
  3.2209  3.0108  2.4929  2.2484  0.9806  0.9402

 Free energy of the ion-electron system (eV)
  ---------------------------------------------------
  alpha Z        PSCENC =         3.34741021
  Ewald energy   TEWEN  =      -228.18471811
  -Hartree energ DENC   =       -14.98523688
  -exchange      EXHF   =         0.00000000
  -V(xc)+E(xc)   XCENC  =       -17.98191725
  PAW double counting   =       885.18356135     -850.21842921
  entropy T*S    EENTRO =        -0.00000000
  eigenvalues    EBANDS =         5.86989226
  atomic energy  EATOM  =       206.13066687
  Solvation  Ediel_sol  =         0.00000000
  ---------------------------------------------------
  free energy    TOTEN  =       -10.83877076 eV

  energy without entropy =      -10.83877076  energy(sigma->0) =      -10.83877076


--------------------------------------------------------------------------------------------------------




--------------------------------------- Iteration      1(  12)  ---------------------------------------


    POTLOK:  cpu time      0.0438: real time      0.0438
    SETDIJ:  cpu time      0.0034: real time      0.0034
     EDDAV:  cpu time      2.9987: real time      2.9989
       DOS:  cpu time      0.0029: real time      0.0028
    CHARGE:  cpu time      0.2332: real time      0.2332
    MIXING:  cpu time      0.0020: real time      0.0020
    --------------------------------------------
      LOOP:  cpu time      3.2838: real time      3.2841

 eigenvalue-minimisations  :  4576
 total energy-change (2. order) :-0.3187323E-06  (-0.5709138E-07)
 number of electron       7.9999999 magnetization 
 augmentation part       -0.4583594 magnetization 

 Broyden mixing:
  rms(total) = 0.10620E-03    rms(broyden)= 0.10620E-03
  rms(prec ) = 0.10992E-03
  weight for this iteration     100.00

 eigenvalues of (default mixing * dielectric matrix)
  average eigenvalue GAMMA=   1.9127
  3.2390  2.6930  2.4810  2.2412  0.9860  0.9860  0.7625

 Free energy of the ion-electron system (eV)
  ---------------------------------------------------
  alpha Z        PSCENC =         3.34741021
  Ewald energy   TEWEN  =      -228.18471811
  -Hartree energ DENC   =       -14.98680406
  -exchange      EXHF   =         0.00000000
  -V(xc)+E(xc)   XCENC  =       -17.98192138
  PAW double counting   =       885.11082310     -850.14570235
  entropy T*S    EENTRO =        -0.00000000
  eigenvalues    EBANDS =         5.87147464
  atomic energy  EATOM  =       206.13066687
  Solvation  Ediel_sol  =         0.00000000
  ---------------------------------------------------
  free energy    TOTEN  =       -10.83877108 eV

  energy without entropy =      -10.83877108  energy(sigma->0) =      -10.83877108


--------------------------------------------------------------------------------------------------------




--------------------------------------- Iteration      1(  13)  ---------------------------------------


    POTLOK:  cpu time      0.0438: real time      0.0438
    SETDIJ:  cpu time      0.0034: real time      0.0034
     EDDAV:  cpu time      2.4245: real time      2.4246
       DOS:  cpu time      0.0028: real time      0.0028
    --------------------------------------------
      LOOP:  cpu time      2.4746: real time      2.4747

 eigenvalue-minimisations  :  3288
 total energy-change (2. order) :-0.1305949E-07  (-0.2021676E-09)
 number of electron       7.9999999 magnetization 
 augmentation part       -0.4583594 magnetization 

 Free energy of the ion-electron system (eV)
  ---------------------------------------------------
  alpha Z        PSCENC =         3.34741021
  Ewald energy   TEWEN  =      -228.18471811
  -Hartree energ DENC   =       -14.98677000
  -exchange      EXHF   =         0.00000000
  -V(xc)+E(xc)   XCENC  =       -17.98191802
  PAW double counting   =       884.94912569     -849.98401282
  entropy T*S    EENTRO =        -0.00000000
  eigenvalues    EBANDS =         5.87144508
  atomic energy  EATOM  =       206.13066687
  Solvation  Ediel_sol  =         0.00000000
  ---------------------------------------------------
  free energy    TOTEN  =       -10.83877109 eV

  energy without entropy =      -10.83877109  energy(sigma->0) =      -10.83877109


--------------------------------------------------------------------------------------------------------




 average (electrostatic) potential at core
  the test charge radii are     0.9892
  (the norm of the test charge is              1.0000)
       1 -83.2983       2 -83.2983
 
 
 
 E-fermi :   5.9935     XC(G=0):  -9.3904     alpha+bet :-11.9249

 Fermi energy:         5.9934628901

 k-point     1 :       0.0000    0.0000    0.0000
  band No.  band energies     occupation 
      1      -6.1452      2.00000
      2       5.7586      2.00000
      3       5.7940      2.00000
      4       5.7940      2.00000
      5       8.3412      0.00000
      6       8.3412      0.00000
      7       8.3594      0.00000
      8       9.1014      0.00000

 k-point     2 :       0.1250    0.0000    0.0000
  band No.  band energies     occupation 
      1      -5.9419      2.00000
      2       4.1864      2.00000
      3       5.4812      2.00000
      4       5.5089      2.00000
      5       8.2746      0.00000
      6       8.7651      0.00000
      7       8.7746      0.00000
      8      10.4574      0.00000

 k-point     3 :       0.0000   -0.1250    0.0000
  band No.  band energies     occupation 
      1      -5.9419      2.00000
      2       4.1864      2.00000
      3       5.4812      2.00000
      4       5.5089      2.00000
      5       8.2746      0.00000
      6       8.7651      0.00000
      7       8.7746      0.00000
      8      10.4574      0.00000

 k-point     4 :      -0.1250   -0.1250   -0.1250
  band No.  band energies     occupation 
      1      -5.9419      2.00000
      2       4.1864      2.00000
      3       5.4812      2.00000
      4       5.5089      2.00000
      5       8.2746      0.00000
      6       8.7651      0.00000
      7       8.7746      0.00000
      8      10.4574      0.00000

 k-point     5 :      -0.0000    0.0000   -0.1250
  band No.  band energies     occupation 
      1      -5.9419      2.00000
      2       4.1864      2.00000
      3       5.4812      2.00000
      4       5.5089      2.00000
      5       8.2746      0.00000
      6       8.7651      0.00000
      7       8.7746      0.00000
      8      10.4574      0.00000

 k-point     6 :       0.2500    0.0000    0.0000
  band No.  band energies     occupation 
      1      -5.3487      2.00000
      2       1.8659      2.00000
      3       5.0080      2.00000
      4       5.0448      2.00000
      5       7.7986      0.00000
      6       9.2824      0.00000
      7       9.2954      0.00000
      8      12.6673      0.00000

 k-point     7 :       0.0000   -0.2500    0.0000
  band No.  band energies     occupation 
      1      -5.3487      2.00000
      2       1.8659      2.00000
      3       5.0080      2.00000
      4       5.0448      2.00000
      5       7.7986      0.00000
      6       9.2824      0.00000
      7       9.2954      0.00000
      8      12.6673      0.00000

 k-point     8 :      -0.2500   -0.2500   -0.2500
  band No.  band energies     occupation 
      1      -5.3487      2.00000
      2       1.8659      2.00000
      3       5.0080      2.00000
      4       5.0448      2.00000
      5       7.7986      0.00000
      6       9.2824      0.00000
      7       9.2954      0.00000
      8      12.6673      0.00000

 k-point     9 :      -0.0000    0.0000   -0.2500
  band No.  band energies     occupation 
      1      -5.3487      2.00000
      2       1.8659      2.00000
      3       5.0080      2.00000
      4       5.0448      2.00000
      5       7.7986      0.00000
      6       9.2824      0.00000
      7       9.2954      0.00000
      8      12.6673      0.00000

 k-point    10 :       0.3750    0.0000    0.0000
  band No.  band energies     occupation 
      1      -4.4590      2.00000
      2      -0.1461      2.00000
      3       4.6782      2.00000
      4       4.7226      2.00000
      5       7.4349      0.00000
      6       9.2216      0.00000
      7       9.2549      0.00000
      8      13.6582      0.00000

 k-point    11 :       0.0000   -0.3750    0.0000
  band No.  band energies     occupation 
      1      -4.4590      2.00000
      2      -0.1461      2.00000
      3       4.6782      2.00000
      4       4.7226      2.00000
      5       7.4349      0.00000
      6       9.2216      0.00000
      7       9.2549      0.00000
      8      13.6582      0.00000

 k-point    12 :      -0.3750   -0.3750   -0.3750
  band No.  band energies     occupation 
      1      -4.4590      2.00000
      2      -0.1461      2.00000
      3       4.6782      2.00000
      4       4.7226      2.00000
      5       7.4349      0.00000
      6       9.2216      0.00000
      7       9.2549      0.00000
      8      13.6582      0.00000

 k-point    13 :      -0.0000    0.0000   -0.3750
  band No.  band energies     occupation 
      1      -4.4590      2.00000
      2      -0.1461      2.00000
      3       4.6782      2.00000
      4       4.7226      2.00000
      5       7.4349      0.00000
      6       9.2216      0.00000
      7       9.2549      0.00000
      8      13.6582      0.00000

 k-point    14 :       0.5000    0.0000    0.0000
  band No.  band energies     occupation 
      1      -3.8252      2.00000
      2      -1.1633      2.00000
      3       4.5651      2.00000
      4       4.6125      2.00000
      5       7.3061      0.00000
      6       9.1094      0.00000
      7       9.1467      0.00000
      8      13.5068      0.00000

 k-point    15 :       0.0000    0.5000    0.0000
  band No.  band energies     occupation 
      1      -3.8252      2.00000
      2      -1.1633      2.00000
      3       4.5651      2.00000
      4       4.6125      2.00000
      5       7.3061      0.00000
      6       9.1094      0.00000
      7       9.1467      0.00000
      8      13.5068      0.00000

 k-point    16 :       0.5000    0.5000    0.5000
  band No.  band energies     occupation 
      1      -3.8252      2.00000
      2      -1.1633      2.00000
      3       4.5651      2.00000
      4       4.6125      2.00000
      5       7.3061      0.00000
      6       9.1094      0.00000
      7       9.1467      0.00000
      8      13.5068      0.00000

 k-point    17 :       0.0000   -0.0000    0.5000
  band No.  band energies     occupation 
      1      -3.8252      2.00000
      2      -1.1633      2.00000
      3       4.5651      2.00000
      4       4.6125      2.00000
      5       7.3061      0.00000
      6       9.1094      0.00000
      7       9.1467      0.00000
      8      13.5068      0.00000

 k-point    18 :       0.1250    0.1250    0.0000
  band No.  band energies     occupation 
      1      -5.8725      2.00000
      2       4.4564      2.00000
      3       4.9624      2.00000
      4       4.9845      2.00000
      5       7.7886      0.00000
      6       9.4655      0.00000
      7       9.5048      0.00000
      8      10.1450      0.00000

 k-point    19 :       0.1250   -0.0000    0.1250
  band No.  band energies     occupation 
      1      -5.8725      2.00000
      2       4.4564      2.00000
      3       4.9624      2.00000
      4       4.9845      2.00000
      5       7.7886      0.00000
      6       9.4655      0.00000
      7       9.5048      0.00000
      8      10.1450      0.00000

 k-point    20 :       0.2500    0.1250    0.0000
  band No.  band energies     occupation 
      1      -5.4050      2.00000
      2       2.5651      2.00000
      3       4.4611      2.00000
      4       4.5501      2.00000
      5       7.9206      0.00000
      6       9.4781      0.00000
      7      10.2455      0.00000
      8      10.5415      0.00000

 k-point    21 :       0.1250   -0.1250    0.1250
  band No.  band energies     occupation 
      1      -5.4050      2.00000
      2       2.5651      2.00000
      3       4.4611      2.00000
      4       4.5501      2.00000
      5       7.9206      0.00000
      6       9.4781      0.00000
      7      10.2455      0.00000
      8      10.5415      0.00000

 k-point    22 :      -0.2500   -0.2500   -0.1250
  band No.  band energies     occupation 
      1      -5.4050      2.00000
      2       2.5651      2.00000
      3       4.4611      2.00000
      4       4.5501      2.00000
      5       7.9206      0.00000
      6       9.4781      0.00000
      7      10.2455      0.00000
      8      10.5415      0.00000

 k-point    23 :      -0.1250    0.0000   -0.2500
  band No.  band energies     occupation 
      1      -5.4050      2.00000
      2       2.5651      2.00000
      3       4.4611      2.00000
      4       4.5501      2.00000
      5       7.9206      0.00000
      6       9.4781      0.00000
      7      10.2455      0.00000
      8      10.5415      0.00000

 k-point    24 :      -0.1250   -0.1250    0.1250
  band No.  band energies     occupation 
      1      -5.4050      2.00000
      2       2.5651      2.00000
      3       4.4611      2.00000
      4       4.5501      2.00000
      5       7.9206      0.00000
      6       9.4781      0.00000
      7      10.2455      0.00000
      8      10.5415      0.00000

 k-point    25 :       0.2500    0.1250    0.2500
  band No.  band energies     occupation 
      1      -5.4050      2.00000
      2       2.5651      2.00000
      3       4.4611      2.00000
      4       4.5501      2.00000
      5       7.9206      0.00000
      6       9.4781      0.00000
      7      10.2455      0.00000
      8      10.5415      0.00000

 k-point    26 :       0.1250    0.2500   -0.0000
  band No.  band energies     occupation 
      1      -5.4050      2.00000
      2       2.5651      2.00000
      3       4.4611      2.00000
      4       4.5501      2.00000
      5       7.9206      0.00000
      6       9.4781      0.00000
      7      10.2455      0.00000
      8      10.5415      0.00000

 k-point    27 :      -0.2500   -0.0000   -0.1250
  band No.  band energies     occupation 
      1      -5.4050      2.00000
      2       2.5651      2.00000
      3       4.4611      2.00000
      4       4.5501      2.00000
      5       7.9206      0.00000
      6       9.4781      0.00000
      7      10.2455      0.00000
      8      10.5415      0.00000

 k-point    28 :       0.3750    0.1250    0.0000
  band No.  band energies     occupation 
      1      -4.5930      2.00000
      2       0.5107      2.00000
      3       3.9639      2.00000
      4       4.1941      2.00000
      5       8.0174      0.00000
      6       9.4308      0.00000
      7      10.2395      0.00000
      8      11.2365      0.00000

 k-point    29 :       0.1250   -0.2500    0.1250
  band No.  band energies     occupation 
      1      -4.5930      2.00000
      2       0.5107      2.00000
      3       3.9639      2.00000
      4       4.1941      2.00000
      5       8.0174      0.00000
      6       9.4308      0.00000
      7      10.2395      0.00000
      8      11.2365      0.00000

 k-point    30 :      -0.3750   -0.3750   -0.2500
  band No.  band energies     occupation 
      1      -4.5930      2.00000
      2       0.5107      2.00000
      3       3.9639      2.00000
      4       4.1941      2.00000
      5       8.0174      0.00000
      6       9.4308      0.00000
      7      10.2395      0.00000
      8      11.2365      0.00000

 k-point    31 :      -0.1250    0.0000   -0.3750
  band No.  band energies     occupation 
      1      -4.5930      2.00000
      2       0.5107      2.00000
      3       3.9639      2.00000
      4       4.1941      2.00000
      5       8.0174      0.00000
      6       9.4308      0.00000
      7      10.2395      0.00000
      8      11.2365      0.00000

 k-point    32 :      -0.1250   -0.1250    0.2500
  band No.  band energies     occupation 
      1      -4.5930      2.00000
      2       0.5107      2.00000
      3       3.9639      2.00000
      4       4.1941      2.00000
      5       8.0174      0.00000
      6       9.4308      0.00000
      7      10.2395      0.00000
      8      11.2365      0.00000

 k-point    33 :       0.3750    0.2500    0.3750
  band No.  band energies     occupation 
      1      -4.5930      2.00000
      2       0.5107      2.00000
      3       3.9639      2.00000
      4       4.1941      2.00000
      5       8.0174      0.00000
      6       9.4308      0.00000
      7      10.2395      0.00000
      8      11.2365      0.00000

 k-point    34 :       0.1250    0.3750   -0.0000
  band No.  band energies     occupation 
      1      -4.5930      2.00000
      2       0.5107      2.00000
      3       3.9639      2.00000
      4       4.1941      2.00000
      5       8.0174      0.00000
      6       9.4308      0.00000
      7      10.2395      0.00000
      8      11.2365      0.00000

 k-point    35 :      -0.3750   -0.0000   -0.1250
  band No.  band energies     occupation 
      1      -4.5930      2.00000
      2       0.5107      2.00000
      3       3.9639      2.00000
      4       4.1941      2.00000
      5       8.0174      0.00000
      6       9.4308      0.00000
      7      10.2395      0.00000
      8      11.2365      0.00000

 k-point    36 :       0.5000    0.1250    0.0000
  band No.  band energies     occupation 
      1      -3.7372      2.00000
      2      -0.9448      2.00000
      3       3.5226      2.00000
      4       4.2159      2.00000
      5       7.9597      0.00000
      6       9.3109      0.00000
      7       9.8781      0.00000
      8      13.1248      0.00000

 k-point    37 :       0.1250   -0.3750    0.1250
  band No.  band energies     occupation 
      1      -3.7372      2.00000
      2      -0.9448      2.00000
      3       3.5226      2.00000
      4       4.2159      2.00000
      5       7.9597      0.00000
      6       9.3109      0.00000
      7       9.8781      0.00000
      8      13.1248      0.00000

 k-point    38 :       0.5000    0.5000   -0.3750
  band No.  band energies     occupation 
      1      -3.7372      2.00000
      2      -0.9448      2.00000
      3       3.5226      2.00000
      4       4.2159      2.00000
      5       7.9597      0.00000
      6       9.3109      0.00000
      7       9.8781      0.00000
      8      13.1248      0.00000

 k-point    39 :      -0.1250   -0.0000    0.5000
  band No.  band energies     occupation 
      1      -3.7372      2.00000
      2      -0.9448      2.00000
      3       3.5226      2.00000
      4       4.2159      2.00000
      5       7.9597      0.00000
      6       9.3109      0.00000
      7       9.8781      0.00000
      8      13.1248      0.00000

 k-point    40 :      -0.1250   -0.1250    0.3750
  band No.  band energies     occupation 
      1      -3.7372      2.00000
      2      -0.9448      2.00000
      3       3.5226      2.00000
      4       4.2159      2.00000
      5       7.9597      0.00000
      6       9.3109      0.00000
      7       9.8781      0.00000
      8      13.1248      0.00000

 k-point    41 :       0.5000    0.3750    0.5000
  band No.  band energies     occupation 
      1      -3.7372      2.00000
      2      -0.9448      2.00000
      3       3.5226      2.00000
      4       4.2159      2.00000
      5       7.9597      0.00000
      6       9.3109      0.00000
      7       9.8781      0.00000
      8      13.1248      0.00000

 k-point    42 :       0.1250    0.5000   -0.0000
  band No.  band energies     occupation 
      1      -3.7372      2.00000
      2      -0.9448      2.00000
      3       3.5226      2.00000
      4       4.2159      2.00000
      5       7.9597      0.00000
      6       9.3109      0.00000
      7       9.8781      0.00000
      8      13.1248      0.00000

 k-point    43 :       0.5000    0.0000   -0.1250
  band No.  band energies     occupation 
      1      -3.7372      2.00000
      2      -0.9448      2.00000
      3       3.5226      2.00000
      4       4.2159      2.00000
      5       7.9597      0.00000
      6       9.3109      0.00000
      7       9.8781      0.00000
      8      13.1248      0.00000

 k-point    44 :      -0.3750    0.1250   -0.0000
  band No.  band energies     occupation 
      1      -3.9826      2.00000
      2      -0.5731      2.00000
      3       3.3420      2.00000
      4       4.5101      2.00000
      5       8.1224      0.00000
      6       9.4190      0.00000
      7       9.6489      0.00000
      8      13.6863      0.00000

 k-point    45 :       0.1250    0.5000    0.1250
  band No.  band energies     occupation 
      1      -3.9826      2.00000
      2      -0.5731      2.00000
      3       3.3420      2.00000
      4       4.5101      2.00000
      5       8.1224      0.00000
      6       9.4190      0.00000
      7       9.6489      0.00000
      8      13.6863      0.00000

 k-point    46 :       0.3750    0.3750    0.5000
  band No.  band energies     occupation 
      1      -3.9826      2.00000
      2      -0.5731      2.00000
      3       3.3420      2.00000
      4       4.5101      2.00000
      5       8.1224      0.00000
      6       9.4190      0.00000
      7       9.6489      0.00000
      8      13.6863      0.00000

 k-point    47 :      -0.1250   -0.0000    0.3750
  band No.  band energies     occupation 
      1      -3.9826      2.00000
      2      -0.5731      2.00000
      3       3.3420      2.00000
      4       4.5101      2.00000
      5       8.1224      0.00000
      6       9.4190      0.00000
      7       9.6489      0.00000
      8      13.6863      0.00000

 k-point    48 :      -0.1250   -0.1250    0.5000
  band No.  band energies     occupation 
      1      -3.9826      2.00000
      2      -0.5731      2.00000
      3       3.3420      2.00000
      4       4.5101      2.00000
      5       8.1224      0.00000
      6       9.4190      0.00000
      7       9.6489      0.00000
      8      13.6863      0.00000

 k-point    49 :      -0.3750    0.5000   -0.3750
  band No.  band energies     occupation 
      1      -3.9826      2.00000
      2      -0.5731      2.00000
      3       3.3420      2.00000
      4       4.5101      2.00000
      5       8.1224      0.00000
      6       9.4190      0.00000
      7       9.6489      0.00000
      8      13.6863      0.00000

 k-point    50 :       0.1250   -0.3750    0.0000
  band No.  band energies     occupation 
      1      -3.9826      2.00000
      2      -0.5731      2.00000
      3       3.3420      2.00000
      4       4.5101      2.00000
      5       8.1224      0.00000
      6       9.4190      0.00000
      7       9.6489      0.00000
      8      13.6863      0.00000

 k-point    51 :       0.3750    0.0000   -0.1250
  band No.  band energies     occupation 
      1      -3.9826      2.00000
      2      -0.5731      2.00000
      3       3.3420      2.00000
      4       4.5101      2.00000
      5       8.1224      0.00000
      6       9.4190      0.00000
      7       9.6489      0.00000
      8      13.6863      0.00000

 k-point    52 :      -0.2500    0.1250   -0.0000
  band No.  band energies     occupation 
      1      -4.9013      2.00000
      2       1.1712      2.00000
      3       3.4920      2.00000
      4       5.0002      2.00000
      5       8.4811      0.00000
      6       9.4583      0.00000
      7       9.6487      0.00000
      8      12.0727      0.00000

 k-point    53 :       0.1250    0.3750    0.1250
  band No.  band energies     occupation 
      1      -4.9013      2.00000
      2       1.1712      2.00000
      3       3.4920      2.00000
      4       5.0002      2.00000
      5       8.4811      0.00000
      6       9.4583      0.00000
      7       9.6487      0.00000
      8      12.0727      0.00000

 k-point    54 :       0.2500    0.2500    0.3750
  band No.  band energies     occupation 
      1      -4.9013      2.00000
      2       1.1712      2.00000
      3       3.4920      2.00000
      4       5.0002      2.00000
      5       8.4811      0.00000
      6       9.4583      0.00000
      7       9.6487      0.00000
      8      12.0727      0.00000

 k-point    55 :      -0.1250   -0.0000    0.2500
  band No.  band energies     occupation 
      1      -4.9013      2.00000
      2       1.1712      2.00000
      3       3.4920      2.00000
      4       5.0002      2.00000
      5       8.4811      0.00000
      6       9.4583      0.00000
      7       9.6487      0.00000
      8      12.0727      0.00000

 k-point    56 :      -0.1250   -0.1250   -0.3750
  band No.  band energies     occupation 
      1      -4.9013      2.00000
      2       1.1712      2.00000
      3       3.4920      2.00000
      4       5.0002      2.00000
      5       8.4811      0.00000
      6       9.4583      0.00000
      7       9.6487      0.00000
      8      12.0727      0.00000

 k-point    57 :      -0.2500   -0.3750   -0.2500
  band No.  band energies     occupation 
      1      -4.9013      2.00000
      2       1.1712      2.00000
      3       3.4920      2.00000
      4       5.0002      2.00000
      5       8.4811      0.00000
      6       9.4583      0.00000
      7       9.6487      0.00000
      8      12.0727      0.00000

 k-point    58 :       0.1250   -0.2500    0.0000
  band No.  band energies     occupation 
      1      -4.9013      2.00000
      2       1.1712      2.00000
      3       3.4920      2.00000
      4       5.0002      2.00000
      5       8.4811      0.00000
      6       9.4583      0.00000
      7       9.6487      0.00000
      8      12.0727      0.00000

 k-point    59 :       0.2500    0.0000   -0.1250
  band No.  band energies     occupation 
      1      -4.9013      2.00000
      2       1.1712      2.00000
      3       3.4920      2.00000
      4       5.0002      2.00000
      5       8.4811      0.00000
      6       9.4583      0.00000
      7       9.6487      0.00000
      8      12.0727      0.00000

 k-point    60 :      -0.1250    0.1250   -0.0000
  band No.  band energies     occupation 
      1      -5.6077      2.00000
      2       3.1027      2.00000
      3       4.1723      2.00000
      4       5.4812      2.00000
      5       8.8032      0.00000
      6       8.9071      0.00000
      7       9.1517      0.00000
      8      11.3161      0.00000

 k-point    61 :       0.1250    0.2500    0.1250
  band No.  band energies     occupation 
      1      -5.6077      2.00000
      2       3.1027      2.00000
      3       4.1723      2.00000
      4       5.4812      2.00000
      5       8.8032      0.00000
      6       8.9071      0.00000
      7       9.1517      0.00000
      8      11.3161      0.00000

 k-point    62 :       0.1250    0.1250    0.2500
  band No.  band energies     occupation 
      1      -5.6077      2.00000
      2       3.1027      2.00000
      3       4.1723      2.00000
      4       5.4812      2.00000
      5       8.8032      0.00000
      6       8.9071      0.00000
      7       9.1517      0.00000
      8      11.3161      0.00000

 k-point    63 :      -0.1250   -0.0000    0.1250
  band No.  band energies     occupation 
      1      -5.6077      2.00000
      2       3.1027      2.00000
      3       4.1723      2.00000
      4       5.4812      2.00000
      5       8.8032      0.00000
      6       8.9071      0.00000
      7       9.1517      0.00000
      8      11.3161      0.00000

 k-point    64 :       0.2500    0.2500    0.0000
  band No.  band energies     occupation 
      1      -5.0644      2.00000
      2       2.2781      2.00000
      3       3.8871      2.00000
      4       3.8986      2.00000
      5       6.9065      0.00000
      6       8.9212      0.00000
      7      11.4955      0.00000
      8      11.5667      0.00000

 k-point    65 :       0.2500   -0.0000    0.2500
  band No.  band energies     occupation 
      1      -5.0644      2.00000
      2       2.2781      2.00000
      3       3.8871      2.00000
      4       3.8986      2.00000
      5       6.9065      0.00000
      6       8.9212      0.00000
      7      11.4955      0.00000
      8      11.5667      0.00000

 k-point    66 :       0.3750    0.2500    0.0000
  band No.  band energies     occupation 
      1      -4.3560      2.00000
      2       0.8552      2.00000
      3       3.1235      2.00000
      4       3.5747      2.00000
      5       7.1269      0.00000
      6       8.6737      0.00000
      7      11.7642      0.00000
      8      12.0459      0.00000

 k-point    67 :       0.2500   -0.1250    0.2500
  band No.  band energies     occupation 
      1      -4.3560      2.00000
      2       0.8552      2.00000
      3       3.1235      2.00000
      4       3.5747      2.00000
      5       7.1269      0.00000
      6       8.6737      0.00000
      7      11.7642      0.00000
      8      12.0459      0.00000

 k-point    68 :      -0.3750   -0.3750   -0.1250
  band No.  band energies     occupation 
      1      -4.3560      2.00000
      2       0.8552      2.00000
      3       3.1235      2.00000
      4       3.5747      2.00000
      5       7.1269      0.00000
      6       8.6737      0.00000
      7      11.7642      0.00000
      8      12.0459      0.00000

 k-point    69 :      -0.2500    0.0000   -0.3750
  band No.  band energies     occupation 
      1      -4.3560      2.00000
      2       0.8552      2.00000
      3       3.1235      2.00000
      4       3.5747      2.00000
      5       7.1269      0.00000
      6       8.6737      0.00000
      7      11.7642      0.00000
      8      12.0459      0.00000

 k-point    70 :      -0.2500   -0.2500    0.1250
  band No.  band energies     occupation 
      1      -4.3560      2.00000
      2       0.8552      2.00000
      3       3.1235      2.00000
      4       3.5747      2.00000
      5       7.1269      0.00000
      6       8.6737      0.00000
      7      11.7642      0.00000
      8      12.0459      0.00000

 k-point    71 :       0.3750    0.1250    0.3750
  band No.  band energies     occupation 
      1      -4.3560      2.00000
      2       0.8552      2.00000
      3       3.1235      2.00000
      4       3.5747      2.00000
      5       7.1269      0.00000
      6       8.6737      0.00000
      7      11.7642      0.00000
      8      12.0459      0.00000

 k-point    72 :       0.2500    0.3750   -0.0000
  band No.  band energies     occupation 
      1      -4.3560      2.00000
      2       0.8552      2.00000
      3       3.1235      2.00000
      4       3.5747      2.00000
      5       7.1269      0.00000
      6       8.6737      0.00000
      7      11.7642      0.00000
      8      12.0459      0.00000

 k-point    73 :      -0.3750   -0.0000   -0.2500
  band No.  band energies     occupation 
      1      -4.3560      2.00000
      2       0.8552      2.00000
      3       3.1235      2.00000
      4       3.5747      2.00000
      5       7.1269      0.00000
      6       8.6737      0.00000
      7      11.7642      0.00000
      8      12.0459      0.00000

 k-point    74 :       0.5000    0.2500    0.0000
  band No.  band energies     occupation 
      1      -3.4346      2.00000
      2      -0.5836      2.00000
      3       2.2714      2.00000
      4       3.5762      2.00000
      5       7.2975      0.00000
      6      10.2115      0.00000
      7      11.5074      0.00000
      8      11.7017      0.00000

 k-point    75 :       0.2500   -0.2500    0.2500
  band No.  band energies     occupation 
      1      -3.4346      2.00000
      2      -0.5836      2.00000
      3       2.2714      2.00000
      4       3.5762      2.00000
      5       7.2975      0.00000
      6      10.2115      0.00000
      7      11.5074      0.00000
      8      11.7017      0.00000

 k-point    76 :       0.5000    0.5000   -0.2500
  band No.  band energies     occupation 
      1      -3.4346      2.00000
      2      -0.5836      2.00000
      3       2.2714      2.00000
      4       3.5762      2.00000
      5       7.2975      0.00000
      6      10.2115      0.00000
      7      11.5074      0.00000
      8      11.7017      0.00000

 k-point    77 :      -0.2500   -0.0000    0.5000
  band No.  band energies     occupation 
      1      -3.4346      2.00000
      2      -0.5836      2.00000
      3       2.2714      2.00000
      4       3.5762      2.00000
      5       7.2975      0.00000
      6      10.2115      0.00000
      7      11.5074      0.00000
      8      11.7017      0.00000

 k-point    78 :      -0.2500   -0.2500    0.2500
  band No.  band energies     occupation 
      1      -3.4346      2.00000
      2      -0.5836      2.00000
      3       2.2714      2.00000
      4       3.5762      2.00000
      5       7.2975      0.00000
      6      10.2115      0.00000
      7      11.5074      0.00000
      8      11.7017      0.00000

 k-point    79 :       0.5000    0.2500    0.5000
  band No.  band energies     occupation 
      1      -3.4346      2.00000
      2      -0.5836      2.00000
      3       2.2714      2.00000
      4       3.5762      2.00000
      5       7.2975      0.00000
      6      10.2115      0.00000
      7      11.5074      0.00000
      8      11.7017      0.00000

 k-point    80 :       0.2500    0.5000   -0.0000
  band No.  band energies     occupation 
      1      -3.4346      2.00000
      2      -0.5836      2.00000
      3       2.2714      2.00000
      4       3.5762      2.00000
      5       7.2975      0.00000
      6      10.2115      0.00000
      7      11.5074      0.00000
      8      11.7017      0.00000

 k-point    81 :       0.5000    0.0000   -0.2500
  band No.  band energies     occupation 
      1      -3.4346      2.00000
      2      -0.5836      2.00000
      3       2.2714      2.00000
      4       3.5762      2.00000
      5       7.2975      0.00000
      6      10.2115      0.00000
      7      11.5074      0.00000
      8      11.7017      0.00000

 k-point    82 :      -0.3750    0.2500   -0.0000
  band No.  band energies     occupation 
      1      -3.2367      2.00000
      2      -0.8368      2.00000
      3       1.8180      2.00000
      4       3.8921      2.00000
      5       7.6180      0.00000
      6      11.2101      0.00000
      7      11.2908      0.00000
      8      12.7081      0.00000

 k-point    83 :       0.2500   -0.3750    0.2500
  band No.  band energies     occupation 
      1      -3.2367      2.00000
      2      -0.8368      2.00000
      3       1.8180      2.00000
      4       3.8921      2.00000
      5       7.6180      0.00000
      6      11.2101      0.00000
      7      11.2908      0.00000
      8      12.7081      0.00000

 k-point    84 :       0.3750    0.3750   -0.3750
  band No.  band energies     occupation 
      1      -3.2367      2.00000
      2      -0.8368      2.00000
      3       1.8180      2.00000
      4       3.8921      2.00000
      5       7.6180      0.00000
      6      11.2101      0.00000
      7      11.2908      0.00000
      8      12.7081      0.00000

 k-point    85 :      -0.2500   -0.0000    0.3750
  band No.  band energies     occupation 
      1      -3.2367      2.00000
      2      -0.8368      2.00000
      3       1.8180      2.00000
      4       3.8921      2.00000
      5       7.6180      0.00000
      6      11.2101      0.00000
      7      11.2908      0.00000
      8      12.7081      0.00000

 k-point    86 :      -0.2500   -0.2500    0.3750
  band No.  band energies     occupation 
      1      -3.2367      2.00000
      2      -0.8368      2.00000
      3       1.8180      2.00000
      4       3.8921      2.00000
      5       7.6180      0.00000
      6      11.2101      0.00000
      7      11.2908      0.00000
      8      12.7081      0.00000

 k-point    87 :      -0.3750    0.3750   -0.3750
  band No.  band energies     occupation 
      1      -3.2367      2.00000
      2      -0.8368      2.00000
      3       1.8180      2.00000
      4       3.8921      2.00000
      5       7.6180      0.00000
      6      11.2101      0.00000
      7      11.2908      0.00000
      8      12.7081      0.00000

 k-point    88 :       0.2500   -0.3750    0.0000
  band No.  band energies     occupation 
      1      -3.2367      2.00000
      2      -0.8368      2.00000
      3       1.8180      2.00000
      4       3.8921      2.00000
      5       7.6180      0.00000
      6      11.2101      0.00000
      7      11.2908      0.00000
      8      12.7081      0.00000

 k-point    89 :       0.3750    0.0000   -0.2500
  band No.  band energies     occupation 
      1      -3.2367      2.00000
      2      -0.8368      2.00000
      3       1.8180      2.00000
      4       3.8921      2.00000
      5       7.6180      0.00000
      6      11.2101      0.00000
      7      11.2908      0.00000
      8      12.7081      0.00000

 k-point    90 :      -0.2500    0.2500   -0.0000
  band No.  band energies     occupation 
      1      -4.1120      2.00000
      2       0.3186      2.00000
      3       2.0587      2.00000
      4       4.4477      2.00000
      5       8.2178      0.00000
      6      10.5641      0.00000
      7      10.9253      0.00000
      8      11.9119      0.00000

 k-point    91 :       0.2500    0.5000    0.2500
  band No.  band energies     occupation 
      1      -4.1120      2.00000
      2       0.3186      2.00000
      3       2.0587      2.00000
      4       4.4477      2.00000
      5       8.2178      0.00000
      6      10.5641      0.00000
      7      10.9253      0.00000
      8      11.9119      0.00000

 k-point    92 :       0.2500    0.2500    0.5000
  band No.  band energies     occupation 
      1      -4.1120      2.00000
      2       0.3186      2.00000
      3       2.0587      2.00000
      4       4.4477      2.00000
      5       8.2178      0.00000
      6      10.5641      0.00000
      7      10.9253      0.00000
      8      11.9119      0.00000

 k-point    93 :      -0.2500   -0.0000    0.2500
  band No.  band energies     occupation 
      1      -4.1120      2.00000
      2       0.3186      2.00000
      3       2.0587      2.00000
      4       4.4477      2.00000
      5       8.2178      0.00000
      6      10.5641      0.00000
      7      10.9253      0.00000
      8      11.9119      0.00000

 k-point    94 :       0.3750    0.3750    0.0000
  band No.  band energies     occupation 
      1      -3.7538      2.00000
      2       0.0580      2.00000
      3       3.1747      2.00000
      4       3.1796      2.00000
      5       6.3924      0.00000
      6       7.3254      0.00000
      7      13.7569      0.00000
      8      13.8590      0.00000

 k-point    95 :       0.3750   -0.0000    0.3750
  band No.  band energies     occupation 
      1      -3.7538      2.00000
      2       0.0580      2.00000
      3       3.1747      2.00000
      4       3.1796      2.00000
      5       6.3924      0.00000
      6       7.3254      0.00000
      7      13.7569      0.00000
      8      13.8590      0.00000

 k-point    96 :       0.5000    0.3750    0.0000
  band No.  band energies     occupation 
      1      -2.8592      2.00000
      2      -1.0255      2.00000
      3       2.3583      2.00000
      4       3.1005      2.00000
      5       6.6738      0.00000
      6       7.7403      0.00000
      7      14.0061      0.00000
      8      14.1457      0.00000

 k-point    97 :       0.3750   -0.1250    0.3750
  band No.  band energies     occupation 
      1      -2.8592      2.00000
      2      -1.0255      2.00000
      3       2.3583      2.00000
      4       3.1005      2.00000
      5       6.6738      0.00000
      6       7.7403      0.00000
      7      14.0061      0.00000
      8      14.1457      0.00000

 k-point    98 :       0.5000    0.5000   -0.1250
  band No.  band energies     occupation 
      1      -2.8592      2.00000
      2      -1.0255      2.00000
      3       2.3583      2.00000
      4       3.1005      2.00000
      5       6.6738      0.00000
      6       7.7403      0.00000
      7      14.0061      0.00000
      8      14.1457      0.00000

 k-point    99 :      -0.3750   -0.0000    0.5000
  band No.  band energies     occupation 
      1      -2.8592      2.00000
      2      -1.0255      2.00000
      3       2.3583      2.00000
      4       3.1005      2.00000
      5       6.6738      0.00000
      6       7.7403      0.00000
      7      14.0061      0.00000
      8      14.1457      0.00000

 k-point   100 :      -0.3750   -0.3750    0.1250
  band No.  band energies     occupation 
      1      -2.8592      2.00000
      2      -1.0255      2.00000
      3       2.3583      2.00000
      4       3.1005      2.00000
      5       6.6738      0.00000
      6       7.7403      0.00000
      7      14.0061      0.00000
      8      14.1457      0.00000

 k-point   101 :       0.5000    0.1250    0.5000
  band No.  band energies     occupation 
      1      -2.8592      2.00000
      2      -1.0255      2.00000
      3       2.3583      2.00000
      4       3.1005      2.00000
      5       6.6738      0.00000
      6       7.7403      0.00000
      7      14.0061      0.00000
      8      14.1457      0.00000

 k-point   102 :       0.3750    0.5000   -0.0000
  band No.  band energies     occupation 
      1      -2.8592      2.00000
      2      -1.0255      2.00000
      3       2.3583      2.00000
      4       3.1005      2.00000
      5       6.6738      0.00000
      6       7.7403      0.00000
      7      14.0061      0.00000
      8      14.1457      0.00000

 k-point   103 :       0.5000    0.0000   -0.3750
  band No.  band energies     occupation 
      1      -2.8592      2.00000
      2      -1.0255      2.00000
      3       2.3583      2.00000
      4       3.1005      2.00000
      5       6.6738      0.00000
      6       7.7403      0.00000
      7      14.0061      0.00000
      8      14.1457      0.00000

 k-point   104 :      -0.3750    0.3750   -0.0000
  band No.  band energies     occupation 
      1      -2.4285      2.00000
      2      -1.4201      2.00000
      3       1.5055      2.00000
      4       3.3563      2.00000
      5       6.9816      0.00000
      6       9.8893      0.00000
      7      13.2320      0.00000
      8      13.7975      0.00000

 k-point   105 :       0.3750   -0.2500    0.3750
  band No.  band energies     occupation 
      1      -2.4285      2.00000
      2      -1.4201      2.00000
      3       1.5055      2.00000
      4       3.3563      2.00000
      5       6.9816      0.00000
      6       9.8893      0.00000
      7      13.2320      0.00000
      8      13.7975      0.00000

 k-point   106 :       0.3750    0.3750   -0.2500
  band No.  band energies     occupation 
      1      -2.4285      2.00000
      2      -1.4201      2.00000
      3       1.5055      2.00000
      4       3.3563      2.00000
      5       6.9816      0.00000
      6       9.8893      0.00000
      7      13.2320      0.00000
      8      13.7975      0.00000

 k-point   107 :      -0.3750   -0.0000    0.3750
  band No.  band energies     occupation 
      1      -2.4285      2.00000
      2      -1.4201      2.00000
      3       1.5055      2.00000
      4       3.3563      2.00000
      5       6.9816      0.00000
      6       9.8893      0.00000
      7      13.2320      0.00000
      8      13.7975      0.00000

 k-point   108 :       0.5000    0.5000    0.0000
  band No.  band energies     occupation 
      1      -2.0075      2.00000
      2      -2.0075      2.00000
      3       2.9316      2.00000
      4       2.9316      2.00000
      5       6.4904      0.00000
      6       6.4904      0.00000
      7      15.8556      0.00000
      8      15.8556      0.00000

 k-point   109 :       0.5000   -0.0000    0.5000
  band No.  band energies     occupation 
      1      -2.0075      2.00000
      2      -2.0075      2.00000
      3       2.9316      2.00000
      4       2.9316      2.00000
      5       6.4904      0.00000
      6       6.4904      0.00000
      7      15.8556      0.00000
      8      15.8556      0.00000

 k-point   110 :      -0.0000    0.1250    0.1250
  band No.  band energies     occupation 
      1      -5.8749      2.00000
      2       4.4244      2.00000
      3       4.9949      2.00000
      4       4.9949      2.00000
      5       7.8162      0.00000
      6       9.4757      0.00000
      7       9.4757      0.00000
      8      10.1470      0.00000

 k-point   111 :       0.2500    0.1250    0.1250
  band No.  band energies     occupation 
      1      -5.6054      2.00000
      2       3.1010      2.00000
      3       4.1463      2.00000
      4       5.5091      2.00000
      5       8.8319      0.00000
      6       8.9020      0.00000
      7       9.1151      0.00000
      8      11.2993      0.00000

 k-point   112 :       0.0000   -0.1250    0.1250
  band No.  band energies     occupation 
      1      -5.6054      2.00000
      2       3.1010      2.00000
      3       4.1463      2.00000
      4       5.5091      2.00000
      5       8.8319      0.00000
      6       8.9020      0.00000
      7       9.1151      0.00000
      8      11.2993      0.00000

 k-point   113 :       0.3750    0.1250    0.1250
  band No.  band energies     occupation 
      1      -4.8973      2.00000
      2       1.1627      2.00000
      3       3.4639      2.00000
      4       5.0350      2.00000
      5       8.5099      0.00000
      6       9.4637      0.00000
      7       9.6183      0.00000
      8      12.0526      0.00000

 k-point   114 :       0.0000   -0.2500    0.1250
  band No.  band energies     occupation 
      1      -4.8973      2.00000
      2       1.1627      2.00000
      3       3.4639      2.00000
      4       5.0350      2.00000
      5       8.5099      0.00000
      6       9.4637      0.00000
      7       9.6183      0.00000
      8      12.0526      0.00000

 k-point   115 :      -0.3750   -0.2500   -0.2500
  band No.  band energies     occupation 
      1      -4.8973      2.00000
      2       1.1627      2.00000
      3       3.4639      2.00000
      4       5.0350      2.00000
      5       8.5099      0.00000
      6       9.4637      0.00000
      7       9.6183      0.00000
      8      12.0526      0.00000

 k-point   116 :      -0.0000    0.1250   -0.2500
  band No.  band energies     occupation 
      1      -4.8973      2.00000
      2       1.1627      2.00000
      3       3.4639      2.00000
      4       5.0350      2.00000
      5       8.5099      0.00000
      6       9.4637      0.00000
      7       9.6183      0.00000
      8      12.0526      0.00000

 k-point   117 :       0.5000    0.1250    0.1250
  band No.  band energies     occupation 
      1      -3.9790      2.00000
      2      -0.5806      2.00000
      3       3.3087      2.00000
      4       4.5475      2.00000
      5       8.1612      0.00000
      6       9.3772      0.00000
      7       9.6675      0.00000
      8      13.6714      0.00000

 k-point   118 :      -0.0000   -0.3750    0.1250
  band No.  band energies     occupation 
      1      -3.9790      2.00000
      2      -0.5806      2.00000
      3       3.3087      2.00000
      4       4.5475      2.00000
      5       8.1612      0.00000
      6       9.3772      0.00000
      7       9.6675      0.00000
      8      13.6714      0.00000

 k-point   119 :       0.5000   -0.3750   -0.3750
  band No.  band energies     occupation 
      1      -3.9790      2.00000
      2      -0.5806      2.00000
      3       3.3087      2.00000
      4       4.5475      2.00000
      5       8.1612      0.00000
      6       9.3772      0.00000
      7       9.6675      0.00000
      8      13.6714      0.00000

 k-point   120 :       0.0000    0.1250   -0.3750
  band No.  band energies     occupation 
      1      -3.9790      2.00000
      2      -0.5806      2.00000
      3       3.3087      2.00000
      4       4.5475      2.00000
      5       8.1612      0.00000
      6       9.3772      0.00000
      7       9.6675      0.00000
      8      13.6714      0.00000

 k-point   121 :      -0.3750    0.1250    0.1250
  band No.  band energies     occupation 
      1      -3.7411      2.00000
      2      -0.9431      2.00000
      3       3.4878      2.00000
      4       4.2517      2.00000
      5       7.9987      0.00000
      6       9.2613      0.00000
      7       9.9035      0.00000
      8      13.1801      0.00000

 k-point   122 :      -0.0000    0.5000    0.1250
  band No.  band energies     occupation 
      1      -3.7411      2.00000
      2      -0.9431      2.00000
      3       3.4878      2.00000
      4       4.2517      2.00000
      5       7.9987      0.00000
      6       9.2613      0.00000
      7       9.9035      0.00000
      8      13.1801      0.00000

 k-point   123 :       0.3750    0.5000    0.5000
  band No.  band energies     occupation 
      1      -3.7411      2.00000
      2      -0.9431      2.00000
      3       3.4878      2.00000
      4       4.2517      2.00000
      5       7.9987      0.00000
      6       9.2613      0.00000
      7       9.9035      0.00000
      8      13.1801      0.00000

 k-point   124 :       0.0000    0.1250    0.5000
  band No.  band energies     occupation 
      1      -3.7411      2.00000
      2      -0.9431      2.00000
      3       3.4878      2.00000
      4       4.2517      2.00000
      5       7.9987      0.00000
      6       9.2613      0.00000
      7       9.9035      0.00000
      8      13.1801      0.00000

 k-point   125 :      -0.2500    0.1250    0.1250
  band No.  band energies     occupation 
      1      -4.5990      2.00000
      2       0.5145      2.00000
      3       3.9353      2.00000
      4       4.2252      2.00000
      5       8.0508      0.00000
      6       9.3885      0.00000
      7      10.2624      0.00000
      8      11.2728      0.00000

 k-point   126 :      -0.0000    0.3750    0.1250
  band No.  band energies     occupation 
      1      -4.5990      2.00000
      2       0.5145      2.00000
      3       3.9353      2.00000
      4       4.2252      2.00000
      5       8.0508      0.00000
      6       9.3885      0.00000
      7      10.2624      0.00000
      8      11.2728      0.00000

 k-point   127 :       0.2500    0.3750    0.3750
  band No.  band energies     occupation 
      1      -4.5990      2.00000
      2       0.5145      2.00000
      3       3.9353      2.00000
      4       4.2252      2.00000
      5       8.0508      0.00000
      6       9.3885      0.00000
      7      10.2624      0.00000
      8      11.2728      0.00000

 k-point   128 :      -0.0000    0.1250    0.3750
  band No.  band energies     occupation 
      1      -4.5990      2.00000
      2       0.5145      2.00000
      3       3.9353      2.00000
      4       4.2252      2.00000
      5       8.0508      0.00000
      6       9.3885      0.00000
      7      10.2624      0.00000
      8      11.2728      0.00000

 k-point   129 :      -0.1250    0.1250    0.1250
  band No.  band energies     occupation 
      1      -5.4095      2.00000
      2       2.5611      2.00000
      3       4.4888      2.00000
      4       4.5360      2.00000
      5       7.9558      0.00000
      6       9.4708      0.00000
      7      10.2470      0.00000
      8      10.5214      0.00000

 k-point   130 :      -0.0000    0.2500    0.1250
  band No.  band energies     occupation 
      1      -5.4095      2.00000
      2       2.5611      2.00000
      3       4.4888      2.00000
      4       4.5360      2.00000
      5       7.9558      0.00000
      6       9.4708      0.00000
      7      10.2470      0.00000
      8      10.5214      0.00000

 k-point   131 :       0.1250    0.2500    0.2500
  band No.  band energies     occupation 
      1      -5.4095      2.00000
      2       2.5611      2.00000
      3       4.4888      2.00000
      4       4.5360      2.00000
      5       7.9558      0.00000
      6       9.4708      0.00000
      7      10.2470      0.00000
      8      10.5214      0.00000

 k-point   132 :       0.0000    0.1250    0.2500
  band No.  band energies     occupation 
      1      -5.4095      2.00000
      2       2.5611      2.00000
      3       4.4888      2.00000
      4       4.5360      2.00000
      5       7.9558      0.00000
      6       9.4708      0.00000
      7      10.2470      0.00000
      8      10.5214      0.00000

 k-point   133 :       0.3750    0.2500    0.1250
  band No.  band energies     occupation 
      1      -4.8176      2.00000
      2       1.4966      2.00000
      3       3.0667      2.00000
      4       4.3758      2.00000
      5       8.2205      0.00000
      6       9.6876      0.00000
      7      10.0010      0.00000
      8      11.2492      0.00000

 k-point   134 :       0.1250   -0.1250    0.2500
  band No.  band energies     occupation 
      1      -4.8176      2.00000
      2       1.4966      2.00000
      3       3.0667      2.00000
      4       4.3758      2.00000
      5       8.2205      0.00000
      6       9.6876      0.00000
      7      10.0010      0.00000
      8      11.2492      0.00000

 k-point   135 :      -0.1250   -0.2500    0.1250
  band No.  band energies     occupation 
      1      -4.8176      2.00000
      2       1.4966      2.00000
      3       3.0667      2.00000
      4       4.3758      2.00000
      5       8.2205      0.00000
      6       9.6876      0.00000
      7      10.0010      0.00000
      8      11.2492      0.00000

 k-point   136 :       0.3750    0.1250    0.2500
  band No.  band energies     occupation 
      1      -4.8176      2.00000
      2       1.4966      2.00000
      3       3.0667      2.00000
      4       4.3758      2.00000
      5       8.2205      0.00000
      6       9.6876      0.00000
      7      10.0010      0.00000
      8      11.2492      0.00000

 k-point   137 :       0.5000    0.2500    0.1250
  band No.  band energies     occupation 
      1      -3.9327      2.00000
      2      -0.0518      2.00000
      3       2.4617      2.00000
      4       3.8774      2.00000
      5       8.6556      0.00000
      6       9.3706      0.00000
      7      10.7886      0.00000
      8      11.6864      0.00000

 k-point   138 :       0.1250   -0.2500    0.2500
  band No.  band energies     occupation 
      1      -3.9327      2.00000
      2      -0.0518      2.00000
      3       2.4617      2.00000
      4       3.8774      2.00000
      5       8.6556      0.00000
      6       9.3706      0.00000
      7      10.7886      0.00000
      8      11.6864      0.00000

 k-point   139 :       0.5000   -0.3750   -0.2500
  band No.  band energies     occupation 
      1      -3.9327      2.00000
      2      -0.0518      2.00000
      3       2.4617      2.00000
      4       3.8774      2.00000
      5       8.6556      0.00000
      6       9.3706      0.00000
      7      10.7886      0.00000
      8      11.6864      0.00000

 k-point   140 :      -0.1250    0.1250   -0.3750
  band No.  band energies     occupation 
      1      -3.9327      2.00000
      2      -0.0518      2.00000
      3       2.4617      2.00000
      4       3.8774      2.00000
      5       8.6556      0.00000
      6       9.3706      0.00000
      7      10.7886      0.00000
      8      11.6864      0.00000

 k-point   141 :      -0.1250   -0.2500    0.2500
  band No.  band energies     occupation 
      1      -3.9327      2.00000
      2      -0.0518      2.00000
      3       2.4617      2.00000
      4       3.8774      2.00000
      5       8.6556      0.00000
      6       9.3706      0.00000
      7      10.7886      0.00000
      8      11.6864      0.00000

 k-point   142 :       0.5000    0.2500    0.3750
  band No.  band energies     occupation 
      1      -3.9327      2.00000
      2      -0.0518      2.00000
      3       2.4617      2.00000
      4       3.8774      2.00000
      5       8.6556      0.00000
      6       9.3706      0.00000
      7      10.7886      0.00000
      8      11.6864      0.00000

 k-point   143 :       0.1250    0.3750   -0.1250
  band No.  band energies     occupation 
      1      -3.9327      2.00000
      2      -0.0518      2.00000
      3       2.4617      2.00000
      4       3.8774      2.00000
      5       8.6556      0.00000
      6       9.3706      0.00000
      7      10.7886      0.00000
      8      11.6864      0.00000

 k-point   144 :       0.5000   -0.1250   -0.2500
  band No.  band energies     occupation 
      1      -3.9327      2.00000
      2      -0.0518      2.00000
      3       2.4617      2.00000
      4       3.8774      2.00000
      5       8.6556      0.00000
      6       9.3706      0.00000
      7      10.7886      0.00000
      8      11.6864      0.00000

 k-point   145 :      -0.3750    0.2500    0.1250
  band No.  band energies     occupation 
      1      -3.2894      2.00000
      2      -0.9866      2.00000
      3       2.3415      2.00000
      4       3.6385      2.00000
      5       8.8616      0.00000
      6       8.9354      0.00000
      7      11.6639      0.00000
      8      12.9106      0.00000

 k-point   146 :       0.1250   -0.3750    0.2500
  band No.  band energies     occupation 
      1      -3.2894      2.00000
      2      -0.9866      2.00000
      3       2.3415      2.00000
      4       3.6385      2.00000
      5       8.8616      0.00000
      6       8.9354      0.00000
      7      11.6639      0.00000
      8      12.9106      0.00000

 k-point   147 :       0.3750    0.5000   -0.3750
  band No.  band energies     occupation 
      1      -3.2894      2.00000
      2      -0.9866      2.00000
      3       2.3415      2.00000
      4       3.6385      2.00000
      5       8.8616      0.00000
      6       8.9354      0.00000
      7      11.6639      0.00000
      8      12.9106      0.00000

 k-point   148 :      -0.1250    0.1250    0.5000
  band No.  band energies     occupation 
      1      -3.2894      2.00000
      2      -0.9866      2.00000
      3       2.3415      2.00000
      4       3.6385      2.00000
      5       8.8616      0.00000
      6       8.9354      0.00000
      7      11.6639      0.00000
      8      12.9106      0.00000

 k-point   149 :      -0.1250   -0.2500    0.3750
  band No.  band energies     occupation 
      1      -3.2894      2.00000
      2      -0.9866      2.00000
      3       2.3415      2.00000
      4       3.6385      2.00000
      5       8.8616      0.00000
      6       8.9354      0.00000
      7      11.6639      0.00000
      8      12.9106      0.00000

 k-point   150 :      -0.3750    0.3750    0.5000
  band No.  band energies     occupation 
      1      -3.2894      2.00000
      2      -0.9866      2.00000
      3       2.3415      2.00000
      4       3.6385      2.00000
      5       8.8616      0.00000
      6       8.9354      0.00000
      7      11.6639      0.00000
      8      12.9106      0.00000

 k-point   151 :       0.1250    0.5000   -0.1250
  band No.  band energies     occupation 
      1      -3.2894      2.00000
      2      -0.9866      2.00000
      3       2.3415      2.00000
      4       3.6385      2.00000
      5       8.8616      0.00000
      6       8.9354      0.00000
      7      11.6639      0.00000
      8      12.9106      0.00000

 k-point   152 :       0.3750   -0.1250   -0.2500
  band No.  band energies     occupation 
      1      -3.2894      2.00000
      2      -0.9866      2.00000
      3       2.3415      2.00000
      4       3.6385      2.00000
      5       8.8616      0.00000
      6       8.9354      0.00000
      7      11.6639      0.00000
      8      12.9106      0.00000

 k-point   153 :      -0.2500    0.2500    0.1250
  band No.  band energies     occupation 
      1      -3.9427      2.00000
      2      -0.0437      2.00000
      3       2.4841      2.00000
      4       3.8546      2.00000
      5       8.6926      0.00000
      6       9.3330      0.00000
      7      10.8308      0.00000
      8      11.6957      0.00000

 k-point   154 :       0.1250    0.5000    0.2500
  band No.  band energies     occupation 
      1      -3.9427      2.00000
      2      -0.0437      2.00000
      3       2.4841      2.00000
      4       3.8546      2.00000
      5       8.6926      0.00000
      6       9.3330      0.00000
      7      10.8308      0.00000
      8      11.6957      0.00000

 k-point   155 :       0.2500    0.3750    0.5000
  band No.  band energies     occupation 
      1      -3.9427      2.00000
      2      -0.0437      2.00000
      3       2.4841      2.00000
      4       3.8546      2.00000
      5       8.6926      0.00000
      6       9.3330      0.00000
      7      10.8308      0.00000
      8      11.6957      0.00000

 k-point   156 :      -0.1250    0.1250    0.3750
  band No.  band energies     occupation 
      1      -3.9427      2.00000
      2      -0.0437      2.00000
      3       2.4841      2.00000
      4       3.8546      2.00000
      5       8.6926      0.00000
      6       9.3330      0.00000
      7      10.8308      0.00000
      8      11.6957      0.00000

 k-point   157 :      -0.1250   -0.2500    0.5000
  band No.  band energies     occupation 
      1      -3.9427      2.00000
      2      -0.0437      2.00000
      3       2.4841      2.00000
      4       3.8546      2.00000
      5       8.6926      0.00000
      6       9.3330      0.00000
      7      10.8308      0.00000
      8      11.6957      0.00000

 k-point   158 :      -0.2500    0.5000   -0.3750
  band No.  band energies     occupation 
      1      -3.9427      2.00000
      2      -0.0437      2.00000
      3       2.4841      2.00000
      4       3.8546      2.00000
      5       8.6926      0.00000
      6       9.3330      0.00000
      7      10.8308      0.00000
      8      11.6957      0.00000

 k-point   159 :       0.1250   -0.3750   -0.1250
  band No.  band energies     occupation 
      1      -3.9427      2.00000
      2      -0.0437      2.00000
      3       2.4841      2.00000
      4       3.8546      2.00000
      5       8.6926      0.00000
      6       9.3330      0.00000
      7      10.8308      0.00000
      8      11.6957      0.00000

 k-point   160 :       0.2500   -0.1250   -0.2500
  band No.  band energies     occupation 
      1      -3.9427      2.00000
      2      -0.0437      2.00000
      3       2.4841      2.00000
      4       3.8546      2.00000
      5       8.6926      0.00000
      6       9.3330      0.00000
      7      10.8308      0.00000
      8      11.6957      0.00000

 k-point   161 :      -0.1250    0.2500    0.1250
  band No.  band energies     occupation 
      1      -4.8260      2.00000
      2       1.4956      2.00000
      3       3.0991      2.00000
      4       4.3533      2.00000
      5       8.2640      0.00000
      6       9.6882      0.00000
      7       9.9719      0.00000
      8      11.2609      0.00000

 k-point   162 :       0.1250    0.3750    0.2500
  band No.  band energies     occupation 
      1      -4.8260      2.00000
      2       1.4956      2.00000
      3       3.0991      2.00000
      4       4.3533      2.00000
      5       8.2640      0.00000
      6       9.6882      0.00000
      7       9.9719      0.00000
      8      11.2609      0.00000

 k-point   163 :       0.1250    0.2500    0.3750
  band No.  band energies     occupation 
      1      -4.8260      2.00000
      2       1.4956      2.00000
      3       3.0991      2.00000
      4       4.3533      2.00000
      5       8.2640      0.00000
      6       9.6882      0.00000
      7       9.9719      0.00000
      8      11.2609      0.00000

 k-point   164 :      -0.1250    0.1250    0.2500
  band No.  band energies     occupation 
      1      -4.8260      2.00000
      2       1.4956      2.00000
      3       3.0991      2.00000
      4       4.3533      2.00000
      5       8.2640      0.00000
      6       9.6882      0.00000
      7       9.9719      0.00000
      8      11.2609      0.00000

 k-point   165 :       0.2500    0.3750    0.1250
  band No.  band energies     occupation 
      1      -4.8194      2.00000
      2       1.5055      2.00000
      3       3.0865      2.00000
      4       4.3559      2.00000
      5       8.2108      0.00000
      6       9.6403      0.00000
      7       9.9726      0.00000
      8      11.3151      0.00000

 k-point   166 :       0.2500    0.1250    0.3750
  band No.  band energies     occupation 
      1      -4.8194      2.00000
      2       1.5055      2.00000
      3       3.0865      2.00000
      4       4.3559      2.00000
      5       8.2108      0.00000
      6       9.6403      0.00000
      7       9.9726      0.00000
      8      11.3151      0.00000

 k-point   167 :      -0.2500   -0.1250    0.1250
  band No.  band energies     occupation 
      1      -4.8194      2.00000
      2       1.5055      2.00000
      3       3.0865      2.00000
      4       4.3559      2.00000
      5       8.2108      0.00000
      6       9.6403      0.00000
      7       9.9726      0.00000
      8      11.3151      0.00000

 k-point   168 :      -0.2500    0.1250   -0.1250
  band No.  band energies     occupation 
      1      -4.8194      2.00000
      2       1.5055      2.00000
      3       3.0865      2.00000
      4       4.3559      2.00000
      5       8.2108      0.00000
      6       9.6403      0.00000
      7       9.9726      0.00000
      8      11.3151      0.00000

 k-point   169 :       0.5000    0.3750    0.1250
  band No.  band energies     occupation 
      1      -3.5567      2.00000
      2      -0.1689      2.00000
      3       2.4219      2.00000
      4       3.0389      2.00000
      5       7.7228      0.00000
      6       8.4284      0.00000
      7      11.5730      0.00000
      8      13.7156      0.00000

 k-point   170 :       0.2500   -0.1250    0.3750
  band No.  band energies     occupation 
      1      -3.5567      2.00000
      2      -0.1689      2.00000
      3       2.4219      2.00000
      4       3.0389      2.00000
      5       7.7228      0.00000
      6       8.4284      0.00000
      7      11.5730      0.00000
      8      13.7156      0.00000

 k-point   171 :      -0.2500   -0.3750    0.1250
  band No.  band energies     occupation 
      1      -3.5567      2.00000
      2      -0.1689      2.00000
      3       2.4219      2.00000
      4       3.0389      2.00000
      5       7.7228      0.00000
      6       8.4284      0.00000
      7      11.5730      0.00000
      8      13.7156      0.00000

 k-point   172 :       0.5000    0.1250    0.3750
  band No.  band energies     occupation 
      1      -3.5567      2.00000
      2      -0.1689      2.00000
      3       2.4219      2.00000
      4       3.0389      2.00000
      5       7.7228      0.00000
      6       8.4284      0.00000
      7      11.5730      0.00000
      8      13.7156      0.00000

 k-point   173 :      -0.3750    0.3750    0.1250
  band No.  band energies     occupation 
      1      -2.6894      2.00000
      2      -1.1350      2.00000
      3       1.7417      2.00000
      4       2.8289      2.00000
      5       8.1717      0.00000
      6      10.0562      0.00000
      7      11.0927      0.00000
      8      13.2598      0.00000

 k-point   174 :       0.2500   -0.2500    0.3750
  band No.  band energies     occupation 
      1      -2.6894      2.00000
      2      -1.1350      2.00000
      3       1.7417      2.00000
      4       2.8289      2.00000
      5       8.1717      0.00000
      6      10.0562      0.00000
      7      11.0927      0.00000
      8      13.2598      0.00000

 k-point   175 :       0.3750    0.5000   -0.2500
  band No.  band energies     occupation 
      1      -2.6894      2.00000
      2      -1.1350      2.00000
      3       1.7417      2.00000
      4       2.8289      2.00000
      5       8.1717      0.00000
      6      10.0562      0.00000
      7      11.0927      0.00000
      8      13.2598      0.00000

 k-point   176 :      -0.2500    0.1250    0.5000
  band No.  band energies     occupation 
      1      -2.6894      2.00000
      2      -1.1350      2.00000
      3       1.7417      2.00000
      4       2.8289      2.00000
      5       8.1717      0.00000
      6      10.0562      0.00000
      7      11.0927      0.00000
      8      13.2598      0.00000

 k-point   177 :      -0.2500   -0.3750    0.2500
  band No.  band energies     occupation 
      1      -2.6894      2.00000
      2      -1.1350      2.00000
      3       1.7417      2.00000
      4       2.8289      2.00000
      5       8.1717      0.00000
      6      10.0562      0.00000
      7      11.0927      0.00000
      8      13.2598      0.00000

 k-point   178 :      -0.3750    0.2500    0.5000
  band No.  band energies     occupation 
      1      -2.6894      2.00000
      2      -1.1350      2.00000
      3       1.7417      2.00000
      4       2.8289      2.00000
      5       8.1717      0.00000
      6      10.0562      0.00000
      7      11.0927      0.00000
      8      13.2598      0.00000

 k-point   179 :       0.2500    0.5000   -0.1250
  band No.  band energies     occupation 
      1      -2.6894      2.00000
      2      -1.1350      2.00000
      3       1.7417      2.00000
      4       2.8289      2.00000
      5       8.1717      0.00000
      6      10.0562      0.00000
      7      11.0927      0.00000
      8      13.2598      0.00000

 k-point   180 :       0.3750   -0.1250   -0.3750
  band No.  band energies     occupation 
      1      -2.6894      2.00000
      2      -1.1350      2.00000
      3       1.7417      2.00000
      4       2.8289      2.00000
      5       8.1717      0.00000
      6      10.0562      0.00000
      7      11.0927      0.00000
      8      13.2598      0.00000

 k-point   181 :      -0.2500    0.3750    0.1250
  band No.  band energies     occupation 
      1      -3.0470      2.00000
      2      -0.7705      2.00000
      3       1.5876      2.00000
      4       3.1965      2.00000
      5       8.6539      0.00000
      6      10.3680      0.00000
      7      11.0317      0.00000
      8      12.7853      0.00000

 k-point   182 :       0.2500   -0.3750    0.3750
  band No.  band energies     occupation 
      1      -3.0470      2.00000
      2      -0.7705      2.00000
      3       1.5876      2.00000
      4       3.1965      2.00000
      5       8.6539      0.00000
      6      10.3680      0.00000
      7      11.0317      0.00000
      8      12.7853      0.00000

 k-point   183 :       0.2500    0.3750   -0.3750
  band No.  band energies     occupation 
      1      -3.0470      2.00000
      2      -0.7705      2.00000
      3       1.5876      2.00000
      4       3.1965      2.00000
      5       8.6539      0.00000
      6      10.3680      0.00000
      7      11.0317      0.00000
      8      12.7853      0.00000

 k-point   184 :      -0.2500    0.1250    0.3750
  band No.  band energies     occupation 
      1      -3.0470      2.00000
      2      -0.7705      2.00000
      3       1.5876      2.00000
      4       3.1965      2.00000
      5       8.6539      0.00000
      6      10.3680      0.00000
      7      11.0317      0.00000
      8      12.7853      0.00000

 k-point   185 :       0.2500    0.5000    0.1250
  band No.  band energies     occupation 
      1      -3.9350      2.00000
      2      -0.0409      2.00000
      3       2.4851      2.00000
      4       3.8586      2.00000
      5       8.6319      0.00000
      6       9.3011      0.00000
      7      10.7703      0.00000
      8      11.7502      0.00000

 k-point   186 :       0.3750    0.2500    0.5000
  band No.  band energies     occupation 
      1      -3.9350      2.00000
      2      -0.0409      2.00000
      3       2.4851      2.00000
      4       3.8586      2.00000
      5       8.6319      0.00000
      6       9.3011      0.00000
      7      10.7703      0.00000
      8      11.7502      0.00000

 k-point   187 :      -0.2500   -0.1250    0.2500
  band No.  band energies     occupation 
      1      -3.9350      2.00000
      2      -0.0409      2.00000
      3       2.4851      2.00000
      4       3.8586      2.00000
      5       8.6319      0.00000
      6       9.3011      0.00000
      7      10.7703      0.00000
      8      11.7502      0.00000

 k-point   188 :      -0.3750    0.1250   -0.1250
  band No.  band energies     occupation 
      1      -3.9350      2.00000
      2      -0.0409      2.00000
      3       2.4851      2.00000
      4       3.8586      2.00000
      5       8.6319      0.00000
      6       9.3011      0.00000
      7      10.7703      0.00000
      8      11.7502      0.00000

 k-point   189 :      -0.3750    0.5000   -0.2500
  band No.  band energies     occupation 
      1      -3.9350      2.00000
      2      -0.0409      2.00000
      3       2.4851      2.00000
      4       3.8586      2.00000
      5       8.6319      0.00000
      6       9.3011      0.00000
      7      10.7703      0.00000
      8      11.7502      0.00000

 k-point   190 :       0.2500   -0.2500    0.1250
  band No.  band energies     occupation 
      1      -3.9350      2.00000
      2      -0.0409      2.00000
      3       2.4851      2.00000
      4       3.8586      2.00000
      5       8.6319      0.00000
      6       9.3011      0.00000
      7      10.7703      0.00000
      8      11.7502      0.00000

 k-point   191 :       0.3750    0.1250   -0.1250
  band No.  band energies     occupation 
      1      -3.9350      2.00000
      2      -0.0409      2.00000
      3       2.4851      2.00000
      4       3.8586      2.00000
      5       8.6319      0.00000
      6       9.3011      0.00000
      7      10.7703      0.00000
      8      11.7502      0.00000

 k-point   192 :      -0.2500   -0.1250    0.5000
  band No.  band energies     occupation 
      1      -3.9350      2.00000
      2      -0.0409      2.00000
      3       2.4851      2.00000
      4       3.8586      2.00000
      5       8.6319      0.00000
      6       9.3011      0.00000
      7      10.7703      0.00000
      8      11.7502      0.00000

 k-point   193 :       0.3750    0.5000    0.1250
  band No.  band energies     occupation 
      1      -3.5576      2.00000
      2      -0.1627      2.00000
      3       2.4361      2.00000
      4       3.0337      2.00000
      5       7.7089      0.00000
      6       8.4151      0.00000
      7      11.4744      0.00000
      8      13.8094      0.00000

 k-point   194 :       0.3750    0.1250    0.5000
  band No.  band energies     occupation 
      1      -3.5576      2.00000
      2      -0.1627      2.00000
      3       2.4361      2.00000
      4       3.0337      2.00000
      5       7.7089      0.00000
      6       8.4151      0.00000
      7      11.4744      0.00000
      8      13.8094      0.00000

 k-point   195 :      -0.3750   -0.2500    0.1250
  band No.  band energies     occupation 
      1      -3.5576      2.00000
      2      -0.1627      2.00000
      3       2.4361      2.00000
      4       3.0337      2.00000
      5       7.7089      0.00000
      6       8.4151      0.00000
      7      11.4744      0.00000
      8      13.8094      0.00000

 k-point   196 :      -0.3750    0.1250   -0.2500
  band No.  band energies     occupation 
      1      -3.5576      2.00000
      2      -0.1627      2.00000
      3       2.4361      2.00000
      4       3.0337      2.00000
      5       7.7089      0.00000
      6       8.4151      0.00000
      7      11.4744      0.00000
      8      13.8094      0.00000

 k-point   197 :      -0.3750    0.5000    0.1250
  band No.  band energies     occupation 
      1      -1.9333      2.00000
      2      -1.9333      2.00000
      3       2.3732      2.00000
      4       2.3732      2.00000
      5       7.7495      0.00000
      6       7.7495      0.00000
      7      13.6695      0.00000
      8      13.6695      0.00000

 k-point   198 :       0.3750   -0.1250    0.5000
  band No.  band energies     occupation 
      1      -1.9333      2.00000
      2      -1.9333      2.00000
      3       2.3732      2.00000
      4       2.3732      2.00000
      5       7.7495      0.00000
      6       7.7495      0.00000
      7      13.6695      0.00000
      8      13.6695      0.00000

 k-point   199 :       0.2500   -0.3750    0.1250
  band No.  band energies     occupation 
      1      -3.2864      2.00000
      2      -0.9814      2.00000
      3       2.3594      2.00000
      4       3.6291      2.00000
      5       8.7990      0.00000
      6       8.9002      0.00000
      7      11.7262      0.00000
      8      12.8566      0.00000

 k-point   200 :       0.5000    0.3750   -0.3750
  band No.  band energies     occupation 
      1      -3.2864      2.00000
      2      -0.9814      2.00000
      3       2.3594      2.00000
      4       3.6291      2.00000
      5       8.7990      0.00000
      6       8.9002      0.00000
      7      11.7262      0.00000
      8      12.8566      0.00000

 k-point   201 :      -0.2500   -0.1250    0.3750
  band No.  band energies     occupation 
      1      -3.2864      2.00000
      2      -0.9814      2.00000
      3       2.3594      2.00000
      4       3.6291      2.00000
      5       8.7990      0.00000
      6       8.9002      0.00000
      7      11.7262      0.00000
      8      12.8566      0.00000

 k-point   202 :       0.5000    0.1250   -0.1250
  band No.  band energies     occupation 
      1      -3.2864      2.00000
      2      -0.9814      2.00000
      3       2.3594      2.00000
      4       3.6291      2.00000
      5       8.7990      0.00000
      6       8.9002      0.00000
      7      11.7262      0.00000
      8      12.8566      0.00000

 k-point   203 :       0.3750   -0.3750    0.1250
  band No.  band energies     occupation 
      1      -2.6875      2.00000
      2      -1.1283      2.00000
      3       1.7469      2.00000
      4       2.8365      2.00000
      5       8.1444      0.00000
      6      10.0329      0.00000
      7      11.0015      0.00000
      8      13.1634      0.00000

 k-point   204 :       0.5000    0.2500   -0.3750
  band No.  band energies     occupation 
      1      -2.6875      2.00000
      2      -1.1283      2.00000
      3       1.7469      2.00000
      4       2.8365      2.00000
      5       8.1444      0.00000
      6      10.0329      0.00000
      7      11.0015      0.00000
      8      13.1634      0.00000

 k-point   205 :      -0.3750   -0.2500    0.2500
  band No.  band energies     occupation 
      1      -2.6875      2.00000
      2      -1.1283      2.00000
      3       1.7469      2.00000
      4       2.8365      2.00000
      5       8.1444      0.00000
      6      10.0329      0.00000
      7      11.0015      0.00000
      8      13.1634      0.00000

 k-point   206 :       0.5000    0.1250   -0.2500
  band No.  band energies     occupation 
      1      -2.6875      2.00000
      2      -1.1283      2.00000
      3       1.7469      2.00000
      4       2.8365      2.00000
      5       8.1444      0.00000
      6      10.0329      0.00000
      7      11.0015      0.00000
      8      13.1634      0.00000

 k-point   207 :       0.5000    0.3750   -0.2500
  band No.  band energies     occupation 
      1      -2.6875      2.00000
      2      -1.1283      2.00000
      3       1.7469      2.00000
      4       2.8365      2.00000
      5       8.1444      0.00000
      6      10.0329      0.00000
      7      11.0015      0.00000
      8      13.1634      0.00000

 k-point   208 :       0.3750   -0.2500    0.2500
  band No.  band energies     occupation 
      1      -2.6875      2.00000
      2      -1.1283      2.00000
      3       1.7469      2.00000
      4       2.8365      2.00000
      5       8.1444      0.00000
      6      10.0329      0.00000
      7      11.0015      0.00000
      8      13.1634      0.00000

 k-point   209 :       0.5000    0.2500   -0.1250
  band No.  band energies     occupation 
      1      -2.6875      2.00000
      2      -1.1283      2.00000
      3       1.7469      2.00000
      4       2.8365      2.00000
      5       8.1444      0.00000
      6      10.0329      0.00000
      7      11.0015      0.00000
      8      13.1634      0.00000

 k-point   210 :      -0.3750   -0.1250    0.3750
  band No.  band energies     occupation 
      1      -2.6875      2.00000
      2      -1.1283      2.00000
      3       1.7469      2.00000
      4       2.8365      2.00000
      5       8.1444      0.00000
      6      10.0329      0.00000
      7      11.0015      0.00000
      8      13.1634      0.00000

 k-point   211 :       0.5000   -0.3750    0.1250
  band No.  band energies     occupation 
      1      -1.9317      2.00000
      2      -1.9317      2.00000
      3       2.3800      2.00000
      4       2.3800      2.00000
      5       7.7347      0.00000
      6       7.7347      0.00000
      7      13.5601      0.00000
      8      13.5601      0.00000

 k-point   212 :       0.5000    0.1250   -0.3750
  band No.  band energies     occupation 
      1      -1.9317      2.00000
      2      -1.9317      2.00000
      3       2.3800      2.00000
      4       2.3800      2.00000
      5       7.7347      0.00000
      6       7.7347      0.00000
      7      13.5601      0.00000
      8      13.5601      0.00000

 k-point   213 :       0.3750   -0.2500    0.1250
  band No.  band energies     occupation 
      1      -3.0390      2.00000
      2      -0.7655      2.00000
      3       1.5823      2.00000
      4       3.2119      2.00000
      5       8.6169      0.00000
      6      10.2854      0.00000
      7      10.9502      0.00000
      8      12.7698      0.00000

 k-point   214 :      -0.3750    0.3750   -0.2500
  band No.  band energies     occupation 
      1      -3.0390      2.00000
      2      -0.7655      2.00000
      3       1.5823      2.00000
      4       3.2119      2.00000
      5       8.6169      0.00000
      6      10.2854      0.00000
      7      10.9502      0.00000
      8      12.7698      0.00000

 k-point   215 :      -0.3750   -0.2500    0.3750
  band No.  band energies     occupation 
      1      -3.0390      2.00000
      2      -0.7656      2.00000
      3       1.5823      2.00000
      4       3.2119      2.00000
      5       8.6169      0.00000
      6      10.2854      0.00000
      7      10.9502      0.00000
      8      12.7698      0.00000

 k-point   216 :       0.3750    0.1250   -0.2500
  band No.  band energies     occupation 
      1      -3.0390      2.00000
      2      -0.7655      2.00000
      3       1.5823      2.00000
      4       3.2119      2.00000
      5       8.6169      0.00000
      6      10.2854      0.00000
      7      10.9502      0.00000
      8      12.7698      0.00000

 k-point   217 :      -0.0000    0.2500    0.2500
  band No.  band energies     occupation 
      1      -5.0734      2.00000
      2       2.2431      2.00000
      3       3.9223      2.00000
      4       3.9223      2.00000
      5       6.9463      0.00000
      6       8.9151      0.00000
      7      11.5235      0.00000
      8      11.5235      0.00000

 k-point   218 :       0.5000    0.2500    0.2500
  band No.  band energies     occupation 
      1      -4.1058      2.00000
      2       0.3015      2.00000
      3       2.0315      2.00000
      4       4.4870      2.00000
      5       8.2641      0.00000
      6      10.5678      0.00000
      7      10.8818      0.00000
      8      11.9017      0.00000

 k-point   219 :       0.0000   -0.2500    0.2500
  band No.  band energies     occupation 
      1      -4.1058      2.00000
      2       0.3015      2.00000
      3       2.0315      2.00000
      4       4.4870      2.00000
      5       8.2641      0.00000
      6      10.5678      0.00000
      7      10.8818      0.00000
      8      11.9017      0.00000

 k-point   220 :      -0.3750    0.2500    0.2500
  band No.  band energies     occupation 
      1      -3.2349      2.00000
      2      -0.8525      2.00000
      3       1.7921      2.00000
      4       3.9314      2.00000
      5       7.6612      0.00000
      6      11.2206      0.00000
      7      11.2683      0.00000
      8      12.7763      0.00000

 k-point   221 :       0.0000   -0.3750    0.2500
  band No.  band energies     occupation 
      1      -3.2349      2.00000
      2      -0.8525      2.00000
      3       1.7921      2.00000
      4       3.9314      2.00000
      5       7.6612      0.00000
      6      11.2206      0.00000
      7      11.2683      0.00000
      8      12.7763      0.00000

 k-point   222 :       0.3750   -0.3750   -0.3750
  band No.  band energies     occupation 
      1      -3.2349      2.00000
      2      -0.8525      2.00000
      3       1.7921      2.00000
      4       3.9314      2.00000
      5       7.6612      0.00000
      6      11.2206      0.00000
      7      11.2683      0.00000
      8      12.7763      0.00000

 k-point   223 :      -0.0000    0.2500   -0.3750
  band No.  band energies     occupation 
      1      -3.2349      2.00000
      2      -0.8525      2.00000
      3       1.7921      2.00000
      4       3.9314      2.00000
      5       7.6612      0.00000
      6      11.2206      0.00000
      7      11.2683      0.00000
      8      12.7763      0.00000

 k-point   224 :      -0.2500    0.2500    0.2500
  band No.  band energies     occupation 
      1      -3.4472      2.00000
      2      -0.5892      2.00000
      3       2.2534      2.00000
      4       3.6131      2.00000
      5       7.3345      0.00000
      6      10.2695      0.00000
      7      11.4948      0.00000
      8      11.7124      0.00000

 k-point   225 :      -0.0000    0.5000    0.2500
  band No.  band energies     occupation 
      1      -3.4472      2.00000
      2      -0.5892      2.00000
      3       2.2534      2.00000
      4       3.6131      2.00000
      5       7.3345      0.00000
      6      10.2695      0.00000
      7      11.4948      0.00000
      8      11.7124      0.00000

 k-point   226 :       0.2500    0.5000    0.5000
  band No.  band energies     occupation 
      1      -3.4472      2.00000
      2      -0.5892      2.00000
      3       2.2534      2.00000
      4       3.6131      2.00000
      5       7.3345      0.00000
      6      10.2695      0.00000
      7      11.4948      0.00000
      8      11.7124      0.00000

 k-point   227 :       0.0000    0.2500    0.5000
  band No.  band energies     occupation 
      1      -3.4472      2.00000
      2      -0.5892      2.00000
      3       2.2534      2.00000
      4       3.6131      2.00000
      5       7.3345      0.00000
      6      10.2695      0.00000
      7      11.4948      0.00000
      8      11.7124      0.00000

 k-point   228 :      -0.1250    0.2500    0.2500
  band No.  band energies     occupation 
      1      -4.3687      2.00000
      2       0.8362      2.00000
      3       3.1293      2.00000
      4       3.6080      2.00000
      5       7.1671      0.00000
      6       8.6976      0.00000
      7      11.7531      0.00000
      8      12.0515      0.00000

 k-point   229 :       0.0000    0.3750    0.2500
  band No.  band energies     occupation 
      1      -4.3687      2.00000
      2       0.8362      2.00000
      3       3.1293      2.00000
      4       3.6080      2.00000
      5       7.1671      0.00000
      6       8.6976      0.00000
      7      11.7531      0.00000
      8      12.0515      0.00000

 k-point   230 :       0.1250    0.3750    0.3750
  band No.  band energies     occupation 
      1      -4.3687      2.00000
      2       0.8362      2.00000
      3       3.1293      2.00000
      4       3.6080      2.00000
      5       7.1671      0.00000
      6       8.6976      0.00000
      7      11.7531      0.00000
      8      12.0515      0.00000

 k-point   231 :       0.0000    0.2500    0.3750
  band No.  band energies     occupation 
      1      -4.3687      2.00000
      2       0.8362      2.00000
      3       3.1293      2.00000
      4       3.6080      2.00000
      5       7.1671      0.00000
      6       8.6976      0.00000
      7      11.7531      0.00000
      8      12.0515      0.00000

 k-point   232 :      -0.3750    0.3750    0.2500
  band No.  band energies     occupation 
      1      -3.0385      2.00000
      2      -0.7847      2.00000
      3       1.5642      2.00000
      4       3.2298      2.00000
      5       8.6890      0.00000
      6      10.3190      0.00000
      7      10.9907      0.00000
      8      12.8548      0.00000

 k-point   233 :       0.1250   -0.2500    0.3750
  band No.  band energies     occupation 
      1      -3.0385      2.00000
      2      -0.7847      2.00000
      3       1.5642      2.00000
      4       3.2298      2.00000
      5       8.6890      0.00000
      6      10.3190      0.00000
      7      10.9907      0.00000
      8      12.8548      0.00000

 k-point   234 :      -0.1250   -0.3750    0.2500
  band No.  band energies     occupation 
      1      -3.0385      2.00000
      2      -0.7847      2.00000
      3       1.5642      2.00000
      4       3.2298      2.00000
      5       8.6890      0.00000
      6      10.3190      0.00000
      7      10.9907      0.00000
      8      12.8548      0.00000

 k-point   235 :      -0.3750    0.2500    0.3750
  band No.  band energies     occupation 
      1      -3.0385      2.00000
      2      -0.7847      2.00000
      3       1.5642      2.00000
      4       3.2298      2.00000
      5       8.6890      0.00000
      6      10.3190      0.00000
      7      10.9907      0.00000
      8      12.8548      0.00000

 k-point   236 :      -0.2500    0.3750    0.2500
  band No.  band energies     occupation 
      1      -2.7004      2.00000
      2      -1.1437      2.00000
      3       1.7430      2.00000
      4       2.8514      2.00000
      5       8.2094      0.00000
      6      10.1035      0.00000
      7      11.0562      0.00000
      8      13.2047      0.00000

 k-point   237 :       0.1250   -0.3750    0.3750
  band No.  band energies     occupation 
      1      -2.7004      2.00000
      2      -1.1437      2.00000
      3       1.7430      2.00000
      4       2.8514      2.00000
      5       8.2094      0.00000
      6      10.1035      0.00000
      7      11.0562      0.00000
      8      13.2047      0.00000

 k-point   238 :       0.2500    0.5000   -0.3750
  band No.  band energies     occupation 
      1      -2.7004      2.00000
      2      -1.1437      2.00000
      3       1.7430      2.00000
      4       2.8514      2.00000
      5       8.2094      0.00000
      6      10.1035      0.00000
      7      11.0562      0.00000
      8      13.2047      0.00000

 k-point   239 :      -0.1250    0.2500    0.5000
  band No.  band energies     occupation 
      1      -2.7004      2.00000
      2      -1.1437      2.00000
      3       1.7430      2.00000
      4       2.8514      2.00000
      5       8.2094      0.00000
      6      10.1035      0.00000
      7      11.0562      0.00000
      8      13.2047      0.00000

 k-point   240 :      -0.1250   -0.3750    0.3750
  band No.  band energies     occupation 
      1      -2.7004      2.00000
      2      -1.1437      2.00000
      3       1.7430      2.00000
      4       2.8514      2.00000
      5       8.2094      0.00000
      6      10.1035      0.00000
      7      11.0562      0.00000
      8      13.2047      0.00000

 k-point   241 :      -0.2500    0.3750    0.5000
  band No.  band energies     occupation 
      1      -2.7004      2.00000
      2      -1.1437      2.00000
      3       1.7430      2.00000
      4       2.8514      2.00000
      5       8.2094      0.00000
      6      10.1035      0.00000
      7      11.0562      0.00000
      8      13.2047      0.00000

 k-point   242 :       0.1250    0.5000   -0.2500
  band No.  band energies     occupation 
      1      -2.7004      2.00000
      2      -1.1437      2.00000
      3       1.7430      2.00000
      4       2.8514      2.00000
      5       8.2094      0.00000
      6      10.1035      0.00000
      7      11.0562      0.00000
      8      13.2047      0.00000

 k-point   243 :       0.2500   -0.2500   -0.3750
  band No.  band energies     occupation 
      1      -2.7004      2.00000
      2      -1.1437      2.00000
      3       1.7430      2.00000
      4       2.8514      2.00000
      5       8.2094      0.00000
      6      10.1035      0.00000
      7      11.0562      0.00000
      8      13.2047      0.00000

 k-point   244 :      -0.1250    0.3750    0.2500
  band No.  band energies     occupation 
      1      -3.5735      2.00000
      2      -0.1846      2.00000
      3       2.4562      2.00000
      4       3.0432      2.00000
      5       7.7698      0.00000
      6       8.4586      0.00000
      7      11.5315      0.00000
      8      13.7466      0.00000

 k-point   245 :       0.1250    0.5000    0.3750
  band No.  band energies     occupation 
      1      -3.5735      2.00000
      2      -0.1846      2.00000
      3       2.4562      2.00000
      4       3.0432      2.00000
      5       7.7698      0.00000
      6       8.4586      0.00000
      7      11.5315      0.00000
      8      13.7466      0.00000

 k-point   246 :       0.1250    0.3750    0.5000
  band No.  band energies     occupation 
      1      -3.5735      2.00000
      2      -0.1846      2.00000
      3       2.4562      2.00000
      4       3.0432      2.00000
      5       7.7698      0.00000
      6       8.4586      0.00000
      7      11.5315      0.00000
      8      13.7466      0.00000

 k-point   247 :      -0.1250    0.2500    0.3750
  band No.  band energies     occupation 
      1      -3.5735      2.00000
      2      -0.1846      2.00000
      3       2.4562      2.00000
      4       3.0432      2.00000
      5       7.7698      0.00000
      6       8.4586      0.00000
      7      11.5315      0.00000
      8      13.7466      0.00000

 k-point   248 :      -0.2500    0.5000    0.2500
  band No.  band energies     occupation 
      1      -1.8588      2.00000
      2      -1.8588      2.00000
      3       1.9509      2.00000
      4       1.9509      2.00000
      5      10.0733      0.00000
      6      10.0733      0.00000
      7      10.7981      0.00000
      8      10.7981      0.00000

 k-point   249 :       0.2500   -0.2500    0.5000
  band No.  band energies     occupation 
      1      -1.8588      2.00000
      2      -1.8588      2.00000
      3       1.9509      2.00000
      4       1.9509      2.00000
      5      10.0733      0.00000
      6      10.0733      0.00000
      7      10.7981      0.00000
      8      10.7981      0.00000

 k-point   250 :       0.5000   -0.2500    0.2500
  band No.  band energies     occupation 
      1      -1.8486      2.00000
      2      -1.8486      2.00000
      3       1.9528      2.00000
      4       1.9528      2.00000
      5      10.0169      0.00000
      6      10.0169      0.00000
      7      10.7294      0.00000
      8      10.7294      0.00000

 k-point   251 :      -0.0000    0.3750    0.3750
  band No.  band energies     occupation 
      1      -3.7726      2.00000
      2       0.0223      2.00000
      3       3.2127      2.00000
      4       3.2127      2.00000
      5       6.4372      0.00000
      6       7.3467      0.00000
      7      13.8057      0.00000
      8      13.8057      0.00000

 k-point   252 :      -0.2500    0.3750    0.3750
  band No.  band energies     occupation 
      1      -2.4369      2.00000
      2      -1.4463      2.00000
      3       1.5028      2.00000
      4       3.3954      2.00000
      5       7.0234      0.00000
      6       9.9549      0.00000
      7      13.2450      0.00000
      8      13.7576      0.00000

 k-point   253 :      -0.0000   -0.3750    0.3750
  band No.  band energies     occupation 
      1      -2.4369      2.00000
      2      -1.4463      2.00000
      3       1.5028      2.00000
      4       3.3954      2.00000
      5       7.0234      0.00000
      6       9.9549      0.00000
      7      13.2450      0.00000
      8      13.7576      0.00000

 k-point   254 :      -0.1250    0.3750    0.3750
  band No.  band energies     occupation 
      1      -2.8814      2.00000
      2      -1.0534      2.00000
      3       2.3792      2.00000
      4       3.1380      2.00000
      5       6.7143      0.00000
      6       7.7876      0.00000
      7      14.0449      0.00000
      8      14.1107      0.00000

 k-point   255 :       0.0000    0.5000    0.3750
  band No.  band energies     occupation 
      1      -2.8814      2.00000
      2      -1.0534      2.00000
      3       2.3792      2.00000
      4       3.1380      2.00000
      5       6.7143      0.00000
      6       7.7876      0.00000
      7      14.0449      0.00000
      8      14.1107      0.00000

 k-point   256 :       0.1250    0.5000    0.5000
  band No.  band energies     occupation 
      1      -2.8814      2.00000
      2      -1.0534      2.00000
      3       2.3792      2.00000
      4       3.1380      2.00000
      5       6.7143      0.00000
      6       7.7876      0.00000
      7      14.0449      0.00000
      8      14.1107      0.00000

 k-point   257 :       0.0000    0.3750    0.5000
  band No.  band energies     occupation 
      1      -2.8814      2.00000
      2      -1.0534      2.00000
      3       2.3792      2.00000
      4       3.1380      2.00000
      5       6.7143      0.00000
      6       7.7876      0.00000
      7      14.0449      0.00000
      8      14.1107      0.00000

 k-point   258 :      -0.1250    0.5000    0.3750
  band No.  band energies     occupation 
      1      -1.9554      2.00000
      2      -1.9554      2.00000
      3       2.3998      2.00000
      4       2.3998      2.00000
      5       7.7932      0.00000
      6       7.7932      0.00000
      7      13.6161      0.00000
      8      13.6161      0.00000

 k-point   259 :       0.1250   -0.3750    0.5000
  band No.  band energies     occupation 
      1      -1.9554      2.00000
      2      -1.9554      2.00000
      3       2.3998      2.00000
      4       2.3998      2.00000
      5       7.7932      0.00000
      6       7.7932      0.00000
      7      13.6161      0.00000
      8      13.6161      0.00000

 k-point   260 :      -0.0000    0.5000    0.5000
  band No.  band energies     occupation 
      1      -2.0367      2.00000
      2      -2.0367      2.00000
      3       2.9693      2.00000
      4       2.9693      2.00000
      5       6.5300      0.00000
      6       6.5300      0.00000
      7      15.8671      0.00000
      8      15.8671      0.00000


--------------------------------------------------------------------------------------------------------


 soft charge-density along one line, spin component           1
         0         1         2         3         4         5         6         7         8         9
 total charge-density along one line
 
 pseudopotential strength for first ion, spin component:           1
 18.419  25.698   0.000   0.000   0.000   0.000   0.000   0.000
 25.698  35.857   0.000   0.000   0.000   0.000   0.000   0.000
  0.000   0.000   4.179  -0.000  -0.000   7.787  -0.000  -0.000
  0.000   0.000  -0.000   4.179  -0.000  -0.000   7.787  -0.000
  0.000   0.000  -0.000  -0.000   4.179  -0.000  -0.000   7.787
  0.000   0.000   7.787  -0.000  -0.000  14.522  -0.000  -0.000
  0.000   0.000  -0.000   7.787  -0.000  -0.000  14.522  -0.000
  0.000   0.000  -0.000  -0.000   7.787  -0.000  -0.000  14.522
 total augmentation occupancy for first ion, spin component:           1
  5.697  -2.155   0.000   0.000   0.000  -0.000  -0.000  -0.000
 -2.155   0.929  -0.000  -0.000  -0.000   0.000   0.000   0.000
  0.000  -0.000   3.037   0.000   0.000  -0.695  -0.000  -0.000
  0.000  -0.000   0.000   3.037   0.000  -0.000  -0.695  -0.000
  0.000  -0.000   0.000   0.000   3.047  -0.000  -0.000  -0.699
 -0.000   0.000  -0.695  -0.000  -0.000   0.168   0.000   0.000
 -0.000   0.000  -0.000  -0.695  -0.000   0.000   0.168   0.000
 -0.000   0.000  -0.000  -0.000  -0.699   0.000   0.000   0.169


------------------------ aborting loop because EDIFF is reached ----------------------------------------


    CHARGE:  cpu time      0.2334: real time      0.2335
    FORLOC:  cpu time      0.0028: real time      0.0028
    FORNL :  cpu time      0.1324: real time      0.1324
    STRESS:  cpu time      0.7294: real time      0.7295
    FORCOR:  cpu time      0.0467: real time      0.0467
    FORHAR:  cpu time      0.0098: real time      0.0098
    MIXING:  cpu time      0.0020: real time      0.0020
    OFIELD:  cpu time      0.0000: real time      0.0000

  FORCE on cell =-STRESS in cart. coord.  units (eV):
  Direction    XX          YY          ZZ          XY          YZ          ZX
  --------------------------------------------------------------------------------------
  Alpha Z     3.34741     3.34741     3.34741
  Ewald     -75.71376   -76.23553   -76.23553     0.00000     0.00000    -0.00000
  Hartree     5.05620     4.96526     4.96526     0.00000    -0.00000     0.00000
  E(xc)     -25.34771   -25.34698   -25.34698    -0.00000    -0.00000    -0.00000
  Local     -29.75440   -29.10886   -29.10886     0.00001     0.00001     0.00001
  n-local    77.82008    77.74245    77.74245     0.00000     0.00000     0.00000
  augment   -11.64249   -11.64241   -11.64241    -0.00001    -0.00001    -0.00001
  Kinetic    56.51034    56.67664    56.67664    -0.00000     0.00000    -0.00000
  Fock        0.00000     0.00000     0.00000     0.00000     0.00000     0.00000
  -------------------------------------------------------------------------------------
  Total       0.27568     0.39796     0.39796    -0.00000     0.00000     0.00000
  in kB      10.98017    15.85060    15.85060    -0.00008     0.00006     0.00000
  external pressure =       14.23 kB  Pullay stress =        0.00 kB


 VOLUME and BASIS-vectors are now :
 -----------------------------------------------------------------------------
  energy-cutoff  :      320.00
  volume of cell :       40.23
      direct lattice vectors                 reciprocal lattice vectors
     0.000000000  2.715000000  2.715000000    -0.183245833  0.184162063  0.184162063
     2.728575000  0.000000000  2.715000000     0.183245833 -0.184162063  0.184162063
     2.728575000  2.715000000  0.000000000     0.183245833  0.184162063 -0.184162063

  length of vectors
     3.839589822  3.849200765  3.849200765     0.318449943  0.318449943  0.318449943


 FORCES acting on ions
    electron-ion (+dipol)            ewald-force                    non-local-force                 convergence-correction
 -----------------------------------------------------------------------------------------------
   -.324E-06 0.988E-06 0.529E-05   -.941E-14 0.664E-14 -.714E-14   0.305E-06 -.436E-06 -.323E-05   0.180E-06 -.379E-06 -.188E-05
   0.158E-05 -.231E-05 -.684E-05   0.922E-14 -.632E-14 0.673E-14   -.132E-05 0.135E-05 0.459E-05   -.438E-06 0.761E-06 0.212E-05
 -----------------------------------------------------------------------------------------------
   0.125E-05 -.132E-05 -.155E-05   -.187E-15 0.315E-15 -.410E-15   -.102E-05 0.915E-06 0.136E-05   -.258E-06 0.382E-06 0.237E-06
 
 
 POSITION                                       TOTAL-FORCE (eV/Angst)
 -----------------------------------------------------------------------------------
      0.00000      0.00000      0.00000         0.000000      0.000000      0.000000
      1.36429      1.35750      1.35750        -0.000000     -0.000000     -0.000000
 -----------------------------------------------------------------------------------
    total drift:                               -0.000000     -0.000000      0.000000


--------------------------------------------------------------------------------------------------------



  FREE ENERGIE OF THE ION-ELECTRON SYSTEM (eV)
  ---------------------------------------------------
  free  energy   TOTEN  =       -10.83877109 eV

  energy  without entropy=      -10.83877109  energy(sigma->0) =      -10.83877109
 


--------------------------------------------------------------------------------------------------------


    POTLOK:  cpu time      0.0473: real time      0.0473


--------------------------------------------------------------------------------------------------------


 writing wavefunctions
     LOOP+:  cpu time     46.7212: real time     46.7811
    4ORBIT:  cpu time      0.0000: real time      0.0000

 total amount of memory used by VASP MPI-rank0    67246. kBytes
=======================================================================

   base      :      30000. kBytes
   nonl-proj :       8936. kBytes
   fftplans  :       3916. kBytes
   grid      :       6018. kBytes
   one-center:          6. kBytes
   wavefun   :      18370. kBytes
 
  
  
 General timing and accounting informations for this job:
 ========================================================
  
                  Total CPU time used (sec):       47.286
                            User time (sec):       47.114
                          System time (sec):        0.172
                         Elapsed time (sec):       47.640
  
                   Maximum memory used (kb):      134856.
                   Average memory used (kb):          N/A
  
                          Minor page faults:        27162
                          Major page faults:            3
                 Voluntary context switches:         1158
