<?xml version="1.0" encoding="ISO-8859-1"?>
<modeling>
 <generator>
  <i name="program" type="string">vasp </i>
  <i name="version" type="string">6.3.0  </i>
  <i name="subversion" type="string">20Jan22 (build Mar 29 2022 17:59:55) complex                          parallel </i>
  <i name="platform" type="string">IFC91_ompi </i>
  <i name="date" type="string">2026 07 23 </i>
  <i name="time" type="string">12:34:36 </i>
 </generator>
 <incar>
  <i type="int" name="ISTART">     0</i>
  <i type="string" name="PREC">Accurate</i>
  <i type="int" name="ICHARG">    11</i>
  <i type="int" name="ISYM">     0</i>
  <i name="ENCUT">    320.00000000</i>
  <i type="int" name="ISMEAR">     0</i>
  <i name="SIGMA">      0.05000000</i>
  <i type="int" name="LORBIT">    11</i>
  <i type="string" name="GGA">PE</i>
 </incar>
 <primitive_cell>
  <structure name="primitive_cell" >
   <crystal>
    <varray name="basis" >
     <v>       0.00000000       2.71500000       2.71500000 </v>
     <v>       2.72857500       0.00000000       2.71500000 </v>
     <v>       2.72857500       2.71500000       0.00000000 </v>
    </varray>
    <i name="volume">     40.22588051 </i>
    <varray name="rec_basis" >
     <v>      -0.18324583       0.18416206       0.18416206 </v>
     <v>       0.18324583      -0.18416206       0.18416206 </v>
     <v>       0.18324583       0.18416206      -0.18416206 </v>
    </varray>
   </crystal>
   <varray name="positions" >
    <v>       0.00000000       0.00000000       0.00000000 </v>
    <v>       0.25000000       0.25000000       0.25000000 </v>
   </varray>
  </structure>
  <varray name="primitive_index" >
   <v type="int" >        1 </v>
   <v type="int" >        2 </v>
  </varray>
 </primitive_cell>
 <kpoints>
  <generation param="listgenerated">
   <i name="divisions" type="int">      40 </i>
   <v>       0.00000000       0.50000000       0.50000000 </v>
   <v>       0.00000000       0.00000000       0.00000000 </v>
   <v>       0.50000000       0.00000000       0.50000000 </v>
  </generation>
  <varray name="kpointlist" >
   <v>       0.00000000       0.50000000       0.50000000 </v>
   <v>       0.00000000       0.48717949       0.48717949 </v>
   <v>       0.00000000       0.47435897       0.47435897 </v>
   <v>       0.00000000       0.46153846       0.46153846 </v>
   <v>       0.00000000       0.44871795       0.44871795 </v>
   <v>       0.00000000       0.43589744       0.43589744 </v>
   <v>       0.00000000       0.42307692       0.42307692 </v>
   <v>       0.00000000       0.41025641       0.41025641 </v>
   <v>       0.00000000       0.39743590       0.39743590 </v>
   <v>       0.00000000       0.38461538       0.38461538 </v>
   <v>       0.00000000       0.37179487       0.37179487 </v>
   <v>       0.00000000       0.35897436       0.35897436 </v>
   <v>       0.00000000       0.34615385       0.34615385 </v>
   <v>       0.00000000       0.33333333       0.33333333 </v>
   <v>       0.00000000       0.32051282       0.32051282 </v>
   <v>       0.00000000       0.30769231       0.30769231 </v>
   <v>       0.00000000       0.29487179       0.29487179 </v>
   <v>       0.00000000       0.28205128       0.28205128 </v>
   <v>       0.00000000       0.26923077       0.26923077 </v>
   <v>       0.00000000       0.25641026       0.25641026 </v>
   <v>       0.00000000       0.24358974       0.24358974 </v>
   <v>       0.00000000       0.23076923       0.23076923 </v>
   <v>       0.00000000       0.21794872       0.21794872 </v>
   <v>       0.00000000       0.20512821       0.20512821 </v>
   <v>       0.00000000       0.19230769       0.19230769 </v>
   <v>       0.00000000       0.17948718       0.17948718 </v>
   <v>       0.00000000       0.16666667       0.16666667 </v>
   <v>       0.00000000       0.15384615       0.15384615 </v>
   <v>       0.00000000       0.14102564       0.14102564 </v>
   <v>       0.00000000       0.12820513       0.12820513 </v>
   <v>       0.00000000       0.11538462       0.11538462 </v>
   <v>       0.00000000       0.10256410       0.10256410 </v>
   <v>       0.00000000       0.08974359       0.08974359 </v>
   <v>       0.00000000       0.07692308       0.07692308 </v>
   <v>       0.00000000       0.06410256       0.06410256 </v>
   <v>       0.00000000       0.05128205       0.05128205 </v>
   <v>       0.00000000       0.03846154       0.03846154 </v>
   <v>       0.00000000       0.02564103       0.02564103 </v>
   <v>       0.00000000       0.01282051       0.01282051 </v>
   <v>       0.00000000       0.00000000       0.00000000 </v>
   <v>       0.00000000       0.00000000       0.00000000 </v>
   <v>       0.01282051       0.00000000       0.01282051 </v>
   <v>       0.02564103       0.00000000       0.02564103 </v>
   <v>       0.03846154       0.00000000       0.03846154 </v>
   <v>       0.05128205       0.00000000       0.05128205 </v>
   <v>       0.06410256       0.00000000       0.06410256 </v>
   <v>       0.07692308       0.00000000       0.07692308 </v>
   <v>       0.08974359       0.00000000       0.08974359 </v>
   <v>       0.10256410       0.00000000       0.10256410 </v>
   <v>       0.11538462       0.00000000       0.11538462 </v>
   <v>       0.12820513       0.00000000       0.12820513 </v>
   <v>       0.14102564       0.00000000       0.14102564 </v>
   <v>       0.15384615       0.00000000       0.15384615 </v>
   <v>       0.16666667       0.00000000       0.16666667 </v>
   <v>       0.17948718       0.00000000       0.17948718 </v>
   <v>       0.19230769       0.00000000       0.19230769 </v>
   <v>       0.20512821       0.00000000       0.20512821 </v>
   <v>       0.21794872       0.00000000       0.21794872 </v>
   <v>       0.23076923       0.00000000       0.23076923 </v>
   <v>       0.24358974       0.00000000       0.24358974 </v>
   <v>       0.25641026       0.00000000       0.25641026 </v>
   <v>       0.26923077       0.00000000       0.26923077 </v>
   <v>       0.28205128       0.00000000       0.28205128 </v>
   <v>       0.29487179       0.00000000       0.29487179 </v>
   <v>       0.30769231       0.00000000       0.30769231 </v>
   <v>       0.32051282       0.00000000       0.32051282 </v>
   <v>       0.33333333       0.00000000       0.33333333 </v>
   <v>       0.34615385       0.00000000       0.34615385 </v>
   <v>       0.35897436       0.00000000       0.35897436 </v>
   <v>       0.37179487       0.00000000       0.37179487 </v>
   <v>       0.38461538       0.00000000       0.38461538 </v>
   <v>       0.39743590       0.00000000       0.39743590 </v>
   <v>       0.41025641       0.00000000       0.41025641 </v>
   <v>       0.42307692       0.00000000       0.42307692 </v>
   <v>       0.43589744       0.00000000       0.43589744 </v>
   <v>       0.44871795       0.00000000       0.44871795 </v>
   <v>       0.46153846       0.00000000       0.46153846 </v>
   <v>       0.47435897       0.00000000       0.47435897 </v>
   <v>       0.48717949       0.00000000       0.48717949 </v>
   <v>       0.50000000       0.00000000       0.50000000 </v>
  </varray>
  <varray name="weights" >
   <v>       0.01250000 </v>
   <v>       0.01250000 </v>
   <v>       0.01250000 </v>
   <v>       0.01250000 </v>
   <v>       0.01250000 </v>
   <v>       0.01250000 </v>
   <v>       0.01250000 </v>
   <v>       0.01250000 </v>
   <v>       0.01250000 </v>
   <v>       0.01250000 </v>
   <v>       0.01250000 </v>
   <v>       0.01250000 </v>
   <v>       0.01250000 </v>
   <v>       0.01250000 </v>
   <v>       0.01250000 </v>
   <v>       0.01250000 </v>
   <v>       0.01250000 </v>
   <v>       0.01250000 </v>
   <v>       0.01250000 </v>
   <v>       0.01250000 </v>
   <v>       0.01250000 </v>
   <v>       0.01250000 </v>
   <v>       0.01250000 </v>
   <v>       0.01250000 </v>
   <v>       0.01250000 </v>
   <v>       0.01250000 </v>
   <v>       0.01250000 </v>
   <v>       0.01250000 </v>
   <v>       0.01250000 </v>
   <v>       0.01250000 </v>
   <v>       0.01250000 </v>
   <v>       0.01250000 </v>
   <v>       0.01250000 </v>
   <v>       0.01250000 </v>
   <v>       0.01250000 </v>
   <v>       0.01250000 </v>
   <v>       0.01250000 </v>
   <v>       0.01250000 </v>
   <v>       0.01250000 </v>
   <v>       0.01250000 </v>
   <v>       0.01250000 </v>
   <v>       0.01250000 </v>
   <v>       0.01250000 </v>
   <v>       0.01250000 </v>
   <v>       0.01250000 </v>
   <v>       0.01250000 </v>
   <v>       0.01250000 </v>
   <v>       0.01250000 </v>
   <v>       0.01250000 </v>
   <v>       0.01250000 </v>
   <v>       0.01250000 </v>
   <v>       0.01250000 </v>
   <v>       0.01250000 </v>
   <v>       0.01250000 </v>
   <v>       0.01250000 </v>
   <v>       0.01250000 </v>
   <v>       0.01250000 </v>
   <v>       0.01250000 </v>
   <v>       0.01250000 </v>
   <v>       0.01250000 </v>
   <v>       0.01250000 </v>
   <v>       0.01250000 </v>
   <v>       0.01250000 </v>
   <v>       0.01250000 </v>
   <v>       0.01250000 </v>
   <v>       0.01250000 </v>
   <v>       0.01250000 </v>
   <v>       0.01250000 </v>
   <v>       0.01250000 </v>
   <v>       0.01250000 </v>
   <v>       0.01250000 </v>
   <v>       0.01250000 </v>
   <v>       0.01250000 </v>
   <v>       0.01250000 </v>
   <v>       0.01250000 </v>
   <v>       0.01250000 </v>
   <v>       0.01250000 </v>
   <v>       0.01250000 </v>
   <v>       0.01250000 </v>
   <v>       0.01250000 </v>
  </varray>
  <kpoints_labels>
   <i name="X_par" type="int">       1 </i>
   <i name="\Gamma" type="int">       2 </i>
   <i name="\Gamma" type="int">       3 </i>
   <i name="X_perp" type="int">       4 </i>
  </kpoints_labels>
 </kpoints>
 <parameters>
  <separator name="general" >
   <i type="string" name="SYSTEM">unknown system</i>
   <i type="logical" name="LCOMPAT"> F  </i>
  </separator>
  <separator name="electronic" >
   <i type="string" name="PREC">accura</i>
   <i name="ENMAX">    320.00000000</i>
   <i name="ENAUG">    322.06900000</i>
   <i name="EDIFF">      0.00010000</i>
   <i type="int" name="IALGO">    38</i>
   <i type="int" name="IWAVPR">    10</i>
   <i type="int" name="NBANDS">     8</i>
   <i type="int" name="NBANDSLOW">    -1</i>
   <i type="int" name="NBANDSHIGH">    -1</i>
   <i name="NELECT">      8.00000000</i>
   <i type="int" name="TURBO">     0</i>
   <i type="int" name="IRESTART">     0</i>
   <i type="int" name="NREBOOT">     0</i>
   <i type="int" name="NMIN">     0</i>
   <i name="EREF">      0.00000000</i>
   <separator name="electronic smearing" >
    <i type="int" name="ISMEAR">     0</i>
    <i name="SIGMA">      0.05000000</i>
    <i name="KSPACING">      0.50000000</i>
    <i type="logical" name="KGAMMA"> T  </i>
    <i type="logical" name="KBLOWUP"> T  </i>
   </separator>
   <separator name="electronic projectors" >
    <i type="logical" name="LREAL"> F  </i>
    <v name="ROPT">      0.00000000</v>
    <i type="int" name="LMAXPAW">  -100</i>
    <i type="int" name="LMAXMIX">     2</i>
    <i type="logical" name="NLSPLINE"> F  </i>
   </separator>
   <separator name="electronic startup" >
    <i type="int" name="ISTART">     0</i>
    <i type="int" name="ICHARG">    11</i>
    <i type="int" name="INIWAV">     1</i>
   </separator>
   <separator name="electronic spin" >
    <i type="int" name="ISPIN">     1</i>
    <i type="logical" name="LNONCOLLINEAR"> F  </i>
    <v name="MAGMOM">      1.00000000      1.00000000</v>
    <i name="NUPDOWN">     -1.00000000</i>
    <i type="logical" name="LSORBIT"> F  </i>
    <v name="SAXIS">      0.00000000      0.00000000      1.00000000</v>
    <i type="logical" name="LSPIRAL"> F  </i>
    <v name="QSPIRAL">      0.00000000      0.00000000      0.00000000</v>
    <i type="logical" name="LZEROZ"> F  </i>
   </separator>
   <separator name="electronic exchange-correlation" >
    <i type="logical" name="LASPH"> F  </i>
    <i type="logical" name="LMETAGGA"> F  </i>
   </separator>
   <separator name="electronic convergence" >
    <i type="int" name="NELM">    60</i>
    <i type="int" name="NELMDL">    -5</i>
    <i type="int" name="NELMIN">     2</i>
    <i name="ENINI">    320.00000000</i>
    <separator name="electronic convergence detail" >
     <i type="logical" name="LDIAG"> T  </i>
     <i type="logical" name="LSUBROT"> F  </i>
     <i name="WEIMIN">      0.00000000</i>
     <i name="EBREAK">      0.00000313</i>
     <i name="DEPER">      0.30000000</i>
     <i type="int" name="NRMM">     4</i>
     <i name="TIME">      0.40000000</i>
    </separator>
   </separator>
   <separator name="electronic mixer" >
    <i name="AMIX">      0.40000000</i>
    <i name="BMIX">      1.00000000</i>
    <i name="AMIN">      0.10000000</i>
    <i name="AMIX_MAG">      1.60000000</i>
    <i name="BMIX_MAG">      1.00000000</i>
    <separator name="electronic mixer details" >
     <i type="int" name="IMIX">     4</i>
     <i type="logical" name="MIXFIRST"> F  </i>
     <i type="int" name="MAXMIX">   -45</i>
     <i name="WC">    100.00000000</i>
     <i type="int" name="INIMIX">     1</i>
     <i type="int" name="MIXPRE">     1</i>
     <i type="int" name="MREMOVE">     5</i>
    </separator>
   </separator>
   <separator name="electronic dipolcorrection" >
    <i type="logical" name="LDIPOL"> F  </i>
    <i type="logical" name="LMONO"> F  </i>
    <i type="int" name="IDIPOL">     0</i>
    <i name="EPSILON">      1.00000000</i>
    <v name="DIPOL">   -100.00000000   -100.00000000   -100.00000000</v>
    <i name="EFIELD">      0.00000000</i>
   </separator>
  </separator>
  <separator name="grids" >
   <i type="int" name="NGX">    24</i>
   <i type="int" name="NGY">    24</i>
   <i type="int" name="NGZ">    24</i>
   <i type="int" name="NGXF">    48</i>
   <i type="int" name="NGYF">    48</i>
   <i type="int" name="NGZF">    48</i>
   <i type="logical" name="ADDGRID"> F  </i>
  </separator>
  <separator name="ionic" >
   <i type="int" name="NSW">     0</i>
   <i type="int" name="IBRION">    -1</i>
   <i type="int" name="MDALGO">     0</i>
   <i type="int" name="ISIF">     2</i>
   <i name="PSTRESS">      0.00000000</i>
   <i name="EDIFFG">      0.00100000</i>
   <i type="int" name="NFREE">     0</i>
   <i name="POTIM">      0.50000000</i>
   <i name="SMASS">     -3.00000000</i>
   <i name="SCALEE">      1.00000000</i>
  </separator>
  <separator name="ionic md" >
   <i name="TEBEG">      0.00010000</i>
   <i name="TEEND">      0.00010000</i>
   <i type="int" name="NBLOCK">     1</i>
   <i type="int" name="KBLOCK">     1</i>
   <i type="int" name="NPACO">   256</i>
   <i name="APACO">     10.00000000</i>
  </separator>
  <separator name="symmetry" >
   <i type="int" name="ISYM">     0</i>
   <i name="SYMPREC">      0.00001000</i>
  </separator>
  <separator name="dos" >
   <i type="int" name="LORBIT">    11</i>
   <v name="RWIGS">     -1.00000000</v>
   <i type="int" name="NEDOS">   301</i>
   <i name="EMIN">     10.00000000</i>
   <i name="EMAX">    -10.00000000</i>
   <i name="EFERMI">      0.00000000</i>
  </separator>
  <separator name="writing" >
   <i type="int" name="NWRITE">     2</i>
   <i type="logical" name="LWAVE"> T  </i>
   <i type="logical" name="LDOWNSAMPLE"> F  </i>
   <i type="logical" name="LCHARG"> T  </i>
   <i type="logical" name="LPARD"> F  </i>
   <i type="logical" name="LVTOT"> F  </i>
   <i type="logical" name="LVHAR"> F  </i>
   <i type="logical" name="LELF"> F  </i>
   <i type="logical" name="LOPTICS"> F  </i>
   <v name="STM">      0.00000000      0.00000000      0.00000000      0.00000000      0.00000000      0.00000000      0.00000000</v>
  </separator>
  <separator name="performance" >
   <i type="int" name="NPAR">     1</i>
   <i type="int" name="NSIM">     4</i>
   <i type="int" name="NBLK">    -1</i>
   <i type="logical" name="LPLANE"> T  </i>
   <i type="logical" name="LSCALAPACK"> T  </i>
   <i type="logical" name="LSCAAWARE"> F  </i>
   <i type="logical" name="LSCALU"> F  </i>
   <i type="logical" name="LASYNC"> F  </i>
   <i type="logical" name="LORBITALREAL"> F  </i>
  </separator>
  <separator name="miscellaneous" >
   <i type="int" name="IDIOT">     3</i>
   <i type="int" name="PHON_NSTRUCT">    -1</i>
   <i type="logical" name="LMUSIC"> F  </i>
   <v name="POMASS">     28.08500000</v>
   <v name="DARWINR">      0.00000000</v>
   <v name="DARWINV">      1.00000000</v>
   <i type="logical" name="LCORR"> T  </i>
  </separator>
  <i type="logical" name="GGA_COMPAT"> T  </i>
  <i type="logical" name="LBERRY"> F  </i>
  <i type="int" name="ICORELEVEL">     0</i>
  <i type="logical" name="LDAU"> F  </i>
  <i type="int" name="I_CONSTRAINED_M">     0</i>
  <separator name="electronic exchange-correlation" >
   <i type="string" name="GGA">PE</i>
   <i type="int" name="VOSKOWN">     0</i>
   <i type="logical" name="LHFCALC"> F  </i>
   <i type="string" name="PRECFOCK"></i>
   <i type="logical" name="LSYMGRAD"> F  </i>
   <i type="logical" name="LHFONE"> F  </i>
   <i type="logical" name="LRHFCALC"> F  </i>
   <i type="logical" name="LTHOMAS"> F  </i>
   <i type="logical" name="LMODELHF"> F  </i>
   <i type="logical" name="LFOCKACE"> F  </i>
   <i name="ENCUT4O">     -1.00000000</i>
   <i type="int" name="EXXOEP">     0</i>
   <i type="int" name="FOURORBIT">     0</i>
   <i name="AEXX">      0.00000000</i>
   <i name="HFALPHA">      0.00000000</i>
   <i name="MCALPHA">      0.00000000</i>
   <i name="ALDAX">      1.00000000</i>
   <i name="AGGAX">      1.00000000</i>
   <i name="ALDAC">      1.00000000</i>
   <i name="AGGAC">      1.00000000</i>
   <i type="int" name="NKREDX">     1</i>
   <i type="int" name="NKREDY">     1</i>
   <i type="int" name="NKREDZ">     1</i>
   <i type="logical" name="SHIFTRED"> F  </i>
   <i type="logical" name="ODDONLY"> F  </i>
   <i type="logical" name="EVENONLY"> F  </i>
   <i type="int" name="LMAXFOCK">     0</i>
   <i type="int" name="NMAXFOCKAE">     0</i>
   <i type="logical" name="LFOCKAEDFT"> F  </i>
   <i name="HFSCREEN">      0.00000000</i>
   <i name="HFSCREENC">      0.00000000</i>
   <i type="int" name="NBANDSGWLOW">     0</i>
  </separator>
  <separator name="vdW DFT" >
   <i type="logical" name="LUSE_VDW"> F  </i>
   <i name="Zab_VDW">     -0.84910000</i>
   <i name="PARAM1">      0.12340000</i>
   <i name="PARAM2">      1.00000000</i>
   <i name="PARAM3">      0.00000000</i>
  </separator>
  <separator name="model GW" >
   <i type="int" name="MODEL_GW">     0</i>
   <i name="MODEL_EPS0">     12.06776415</i>
   <i name="MODEL_ALPHA">      1.00000000</i>
  </separator>
  <separator name="linear response parameters" >
   <i type="logical" name="LEPSILON"> F  </i>
   <i type="logical" name="LRPA"> F  </i>
   <i type="logical" name="LNABLA"> F  </i>
   <i type="logical" name="LVEL"> F  </i>
   <i name="CSHIFT">      0.10000000</i>
   <i name="OMEGAMAX">     -1.00000000</i>
   <i name="DEG_THRESHOLD">      0.00200000</i>
   <i name="RTIME">     -0.10000000</i>
   <i name="WPLASMAI">      0.00000000</i>
   <v name="DFIELD">      0.00000000      0.00000000      0.00000000</v>
   <v name="WPLASMA">      0.00000000      0.00000000      0.00000000      0.00000000      0.00000000      0.00000000      0.00000000      0.00000000      0.00000000</v>
  </separator>
  <separator name="orbital magnetization" >
   <i type="logical" name="NUCIND"> F  </i>
   <v name="MAGPOS">      0.00000000      0.00000000      0.00000000</v>
   <i type="logical" name="LNICSALL"> T  </i>
   <i type="logical" name="ORBITALMAG"> F  </i>
   <i type="logical" name="LMAGBLOCH"> F  </i>
   <i type="logical" name="LCHIMAG"> F  </i>
   <i type="logical" name="LGAUGE"> T  </i>
   <i type="int" name="MAGATOM">     0</i>
   <v name="MAGDIPOL">      0.00000000      0.00000000      0.00000000</v>
   <v name="AVECCONST">      0.00000000      0.00000000      0.00000000</v>
  </separator>
  <separator name="response functions" >
   <i type="logical" name="LFINITE_TEMPERATURE"> F  </i>
   <i type="logical" name="LADDER"> F  </i>
   <i type="logical" name="LRPAFORCE"> F  </i>
   <i type="logical" name="LFXC"> F  </i>
   <i type="logical" name="LHARTREE"> T  </i>
   <i type="int" name="IBSE">     0</i>
   <v type="int" name="KPOINT">    -1     0     0     0</v>
   <i type="logical" name="LTCTC"> F  </i>
   <i type="logical" name="LTCTE"> F  </i>
   <i type="logical" name="LTETE"> F  </i>
   <i type="logical" name="LTRIPLET"> F  </i>
   <i type="logical" name="LFXCEPS"> F  </i>
   <i type="logical" name="LFXHEG"> F  </i>
   <i type="int" name="NATURALO">     2</i>
   <i type="logical" name="LHOLEGF"> F  </i>
   <i type="logical" name="L2ORDER"> F  </i>
   <i type="logical" name="LDMP1"> F  </i>
   <i type="logical" name="LMP2LT"> F  </i>
   <i type="logical" name="LSMP2LT"> F  </i>
   <i type="logical" name="LGWLF"> F  </i>
   <i name="ENCUTGW">     -2.00000000</i>
   <i name="ENCUTGWSOFT">     -2.00000000</i>
   <i name="ENCUTLF">     -1.00000000</i>
   <i type="logical" name="LESF_SPLINES"> F  </i>
   <i type="int" name="LMAXMP2">    -1</i>
   <i name="SCISSOR">      0.00000000</i>
   <i type="int" name="NOMEGA">     0</i>
   <i type="int" name="NOMEGAR">     0</i>
   <i type="int" name="NBANDSGW">    -1</i>
   <i type="int" name="NBANDSO">    -1</i>
   <i type="int" name="NBANDSV">    -1</i>
   <i type="int" name="NELMGW">     1</i>
   <i type="int" name="NELMHF">     1</i>
   <i type="int" name="DIM">     3</i>
   <i type="int" name="IESPILON">     4</i>
   <i type="int" name="ANTIRES">     0</i>
   <i name="OMEGAMAX">    -30.00000000</i>
   <i name="OMEGAMIN">    -30.00000000</i>
   <i name="OMEGATL">   -200.00000000</i>
   <i type="int" name="OMEGAGRID">     0</i>
   <i name="CSHIFT">     -0.10000000</i>
   <i type="logical" name="LSELFENERGY"> F  </i>
   <i type="logical" name="LSPECTRAL"> F  </i>
   <i type="logical" name="LSPECTRALGW"> F  </i>
   <i type="logical" name="LSINGLES"> F  </i>
   <i type="logical" name="LFERMIGW"> F  </i>
   <i type="logical" name="ODDONLYGW"> F  </i>
   <i type="logical" name="EVENONLYGW"> F  </i>
   <i type="int" name="NKREDLFX">     1</i>
   <i type="int" name="NKREDLFY">     1</i>
   <i type="int" name="NKREDLFZ">     1</i>
   <i type="int" name="MAXMEM">  2800</i>
   <i type="int" name="TELESCOPE">     0</i>
   <i type="int" name="NTAUPAR">    -1</i>
   <i type="int" name="NOMEGAPAR">    -1</i>
   <i name="DAMP_NEWTON">      0.80000001</i>
   <i name="LAMBDA">      1.00000000</i>
  </separator>
  <separator name="External order field" >
   <i name="OFIELD_KAPPA">      0.00000000</i>
   <v name="OFIELD_K">      0.00000000      0.00000000      0.00000000</v>
   <i name="OFIELD_Q6_NEAR">      0.00000000</i>
   <i name="OFIELD_Q6_FAR">      0.00000000</i>
   <i name="OFIELD_A">      0.00000000</i>
  </separator>
  <separator name="optional k-points parameters" >
   <i type="int" name="KPOINTS_OPT_MODE">     1</i>
   <i type="logical" name="LKPOINTS_OPT"> F  </i>
  </separator>
 </parameters>
 <atominfo>
  <atoms>       2 </atoms>
  <types>       1 </types>
  <array name="atoms" >
   <dimension dim="1">ion</dimension>
   <field type="string">element</field>
   <field type="int">atomtype</field>
   <set>
    <rc><c>Si</c><c>   1</c></rc>
    <rc><c>Si</c><c>   1</c></rc>
   </set>
  </array>
  <array name="atomtypes" >
   <dimension dim="1">type</dimension>
   <field type="int">atomspertype</field>
   <field type="string">element</field>
   <field>mass</field>
   <field>valence</field>
   <field type="string">pseudopotential</field>
   <set>
    <rc><c>   2</c><c>Si</c><c>     28.08500000</c><c>      4.00000000</c><c>  PAW_PBE Si 05Jan2001                  </c></rc>
   </set>
  </array>
 </atominfo>
 <structure name="initialpos" >
  <crystal>
   <varray name="basis" >
    <v>       0.00000000       2.71500000       2.71500000 </v>
    <v>       2.72857500       0.00000000       2.71500000 </v>
    <v>       2.72857500       2.71500000       0.00000000 </v>
   </varray>
   <i name="volume">     40.22588051 </i>
   <varray name="rec_basis" >
    <v>      -0.18324583       0.18416206       0.18416206 </v>
    <v>       0.18324583      -0.18416206       0.18416206 </v>
    <v>       0.18324583       0.18416206      -0.18416206 </v>
   </varray>
  </crystal>
  <varray name="positions" >
   <v>       0.00000000       0.00000000       0.00000000 </v>
   <v>       0.25000000       0.25000000       0.25000000 </v>
  </varray>
 </structure>
 <calculation>
  <scstep>
   <time name="dav">    0.87    0.87</time>
   <time name="total">    0.92    0.92</time>
   <energy>
    <i name="alphaZ">      3.34741021 </i>
    <i name="ewald">   -228.18471811 </i>
    <i name="hartreedc">    -14.98675309 </i>
    <i name="XCdc">    -17.98191546 </i>
    <i name="pawpsdc">    884.99141836 </i>
    <i name="pawaedc">   -850.02630443 </i>
    <i name="eentropy">     -0.00059057 </i>
    <i name="bandstr">     25.70462823 </i>
    <i name="atom">    206.13066687 </i>
    <i name="e_fr_energy">      8.99384202 </i>
    <i name="e_wo_entrp">      8.99443259 </i>
    <i name="e_0_energy">      8.99413730 </i>
   </energy>
  </scstep>
  <scstep>
   <time name="dav">    1.31    1.31</time>
   <time name="total">    1.31    1.31</time>
   <energy>
    <i name="e_fr_energy">     -5.13143832 </i>
    <i name="e_wo_entrp">     -5.13143832 </i>
    <i name="e_0_energy">     -5.13143832 </i>
   </energy>
  </scstep>
  <scstep>
   <time name="dav">    1.05    1.05</time>
   <time name="total">    1.05    1.05</time>
   <energy>
    <i name="e_fr_energy">     -5.30493884 </i>
    <i name="e_wo_entrp">     -5.30493884 </i>
    <i name="e_0_energy">     -5.30493884 </i>
   </energy>
  </scstep>
  <scstep>
   <time name="dav">    1.22    1.22</time>
   <time name="total">    1.22    1.22</time>
   <energy>
    <i name="e_fr_energy">     -5.30557697 </i>
    <i name="e_wo_entrp">     -5.30557697 </i>
    <i name="e_0_energy">     -5.30557697 </i>
   </energy>
  </scstep>
  <scstep>
   <time name="dav">    1.03    1.03</time>
   <time name="total">    1.04    1.04</time>
   <energy>
    <i name="e_fr_energy">     -5.30557834 </i>
    <i name="e_wo_entrp">     -5.30557834 </i>
    <i name="e_0_energy">     -5.30557834 </i>
   </energy>
  </scstep>
  <scstep>
   <time name="dav">    0.97    0.98</time>
   <time name="total">    0.98    0.98</time>
   <energy>
    <i name="alphaZ">      3.34741021 </i>
    <i name="ewald">   -228.18471811 </i>
    <i name="hartreedc">    -14.98675309 </i>
    <i name="XCdc">    -17.98191546 </i>
    <i name="pawpsdc">    884.99141836 </i>
    <i name="pawaedc">   -850.02630443 </i>
    <i name="eentropy">     -0.00000000 </i>
    <i name="bandstr">     11.40461728 </i>
    <i name="atom">    206.13066687 </i>
    <i name="e_fr_energy">     -5.30557837 </i>
    <i name="e_wo_entrp">     -5.30557837 </i>
    <i name="e_0_energy">     -5.30557837 </i>
   </energy>
  </scstep>
  <structure>
   <crystal>
    <varray name="basis" >
     <v>       0.00000000       2.71500000       2.71500000 </v>
     <v>       2.72857500       0.00000000       2.71500000 </v>
     <v>       2.72857500       2.71500000       0.00000000 </v>
    </varray>
    <i name="volume">     40.22588051 </i>
    <varray name="rec_basis" >
     <v>      -0.18324583       0.18416206       0.18416206 </v>
     <v>       0.18324583      -0.18416206       0.18416206 </v>
     <v>       0.18324583       0.18416206      -0.18416206 </v>
    </varray>
   </crystal>
   <varray name="positions" >
    <v>       0.00000000       0.00000000       0.00000000 </v>
    <v>       0.25000000       0.25000000       0.25000000 </v>
   </varray>
  </structure>
  <varray name="forces" >
   <v>      -0.00000234       0.00000068       0.00000073 </v>
   <v>       0.00000234      -0.00000068      -0.00000073 </v>
  </varray>
  <varray name="stress" >
   <v>     228.42318472      -0.00001651      -0.00002084 </v>
   <v>      -0.00001642     233.32785796       0.00016490 </v>
   <v>      -0.00002073       0.00016483     331.59495152 </v>
  </varray>
  <energy>
   <i name="e_fr_energy">     -5.30557837 </i>
   <i name="e_wo_entrp">     -5.30557837 </i>
   <i name="e_0_energy">     -5.30557837 </i>
  </energy>
  <time name="totalsc">    7.11    7.11</time>
  <eigenvalues>
   <array>
    <dimension dim="1">band</dimension>
    <dimension dim="2">kpoint</dimension>
    <dimension dim="3">spin</dimension>
    <field>eigene</field>
    <field>occ</field>
    <set>
     <set comment="spin 1">
      <set comment="kpoint 1">
       <r>   -2.0367    1.0000 </r>
       <r>   -2.0367    1.0000 </r>
       <r>    2.9693    1.0000 </r>
       <r>    2.9693    1.0000 </r>
       <r>    6.5300    0.0000 </r>
       <r>    6.5300    0.0000 </r>
       <r>   15.8674    0.0000 </r>
       <r>   15.8687    0.0000 </r>
      </set>
      <set comment="kpoint 2">
       <r>   -2.2320    1.0000 </r>
       <r>   -1.8380    1.0000 </r>
       <r>    2.9719    1.0000 </r>
       <r>    2.9719    1.0000 </r>
       <r>    6.4889    0.0000 </r>
       <r>    6.5789    0.0000 </r>
       <r>   15.7968    0.0000 </r>
       <r>   15.7993    0.0000 </r>
      </set>
      <set comment="kpoint 3">
       <r>   -2.4236    1.0000 </r>
       <r>   -1.6360    1.0000 </r>
       <r>    2.9796    1.0000 </r>
       <r>    2.9796    1.0000 </r>
       <r>    6.4553    0.0000 </r>
       <r>    6.6355    0.0000 </r>
       <r>   15.6286    0.0000 </r>
       <r>   15.6291    0.0000 </r>
      </set>
      <set comment="kpoint 4">
       <r>   -2.6115    1.0000 </r>
       <r>   -1.4309    1.0000 </r>
       <r>    2.9925    1.0000 </r>
       <r>    2.9925    1.0000 </r>
       <r>    6.4291    0.0000 </r>
       <r>    6.6999    0.0000 </r>
       <r>   15.4176    0.0000 </r>
       <r>   15.4176    0.0000 </r>
      </set>
      <set comment="kpoint 5">
       <r>   -2.7955    1.0000 </r>
       <r>   -1.2228    1.0000 </r>
       <r>    3.0105    1.0000 </r>
       <r>    3.0105    1.0000 </r>
       <r>    6.4103    0.0000 </r>
       <r>    6.7726    0.0000 </r>
       <r>   15.1896    0.0000 </r>
       <r>   15.1896    0.0000 </r>
      </set>
      <set comment="kpoint 6">
       <r>   -2.9756    1.0000 </r>
       <r>   -1.0119    1.0000 </r>
       <r>    3.0336    1.0000 </r>
       <r>    3.0336    1.0000 </r>
       <r>    6.3986    0.0000 </r>
       <r>    6.8531    0.0000 </r>
       <r>   14.9530    0.0000 </r>
       <r>   14.9530    0.0000 </r>
      </set>
      <set comment="kpoint 7">
       <r>   -3.1515    1.0000 </r>
       <r>   -0.7984    1.0000 </r>
       <r>    3.0618    1.0000 </r>
       <r>    3.0618    1.0000 </r>
       <r>    6.3940    0.0000 </r>
       <r>    6.9416    0.0000 </r>
       <r>   14.7116    0.0000 </r>
       <r>   14.7116    0.0000 </r>
      </set>
      <set comment="kpoint 8">
       <r>   -3.3232    1.0000 </r>
       <r>   -0.5825    1.0000 </r>
       <r>    3.0951    1.0000 </r>
       <r>    3.0951    1.0000 </r>
       <r>    6.3961    0.0000 </r>
       <r>    7.0381    0.0000 </r>
       <r>   14.4700    0.0000 </r>
       <r>   14.4700    0.0000 </r>
      </set>
      <set comment="kpoint 9">
       <r>   -3.4905    1.0000 </r>
       <r>   -0.3643    1.0000 </r>
       <r>    3.1335    1.0000 </r>
       <r>    3.1336    1.0000 </r>
       <r>    6.4053    0.0000 </r>
       <r>    7.1432    0.0000 </r>
       <r>   14.2284    0.0000 </r>
       <r>   14.2284    0.0000 </r>
      </set>
      <set comment="kpoint 10">
       <r>   -3.6534    1.0000 </r>
       <r>   -0.1441    1.0000 </r>
       <r>    3.1769    1.0000 </r>
       <r>    3.1769    1.0000 </r>
       <r>    6.4211    0.0000 </r>
       <r>    7.2563    0.0000 </r>
       <r>   13.9864    0.0000 </r>
       <r>   13.9864    0.0000 </r>
      </set>
      <set comment="kpoint 11">
       <r>   -3.8118    1.0000 </r>
       <r>    0.0780    1.0000 </r>
       <r>    3.2252    1.0000 </r>
       <r>    3.2252    1.0000 </r>
       <r>    6.4434    0.0000 </r>
       <r>    7.3779    0.0000 </r>
       <r>   13.7456    0.0000 </r>
       <r>   13.7456    0.0000 </r>
      </set>
      <set comment="kpoint 12">
       <r>   -3.9654    1.0000 </r>
       <r>    0.3017    1.0000 </r>
       <r>    3.2785    1.0000 </r>
       <r>    3.2785    1.0000 </r>
       <r>    6.4721    0.0000 </r>
       <r>    7.5077    0.0000 </r>
       <r>   13.5057    0.0000 </r>
       <r>   13.5057    0.0000 </r>
      </set>
      <set comment="kpoint 13">
       <r>   -4.1143    1.0000 </r>
       <r>    0.5269    1.0000 </r>
       <r>    3.3368    1.0000 </r>
       <r>    3.3368    1.0000 </r>
       <r>    6.5077    0.0000 </r>
       <r>    7.6458    0.0000 </r>
       <r>   13.2679    0.0000 </r>
       <r>   13.2679    0.0000 </r>
      </set>
      <set comment="kpoint 14">
       <r>   -4.2585    1.0000 </r>
       <r>    0.7534    1.0000 </r>
       <r>    3.3998    1.0000 </r>
       <r>    3.3998    1.0000 </r>
       <r>    6.5486    0.0000 </r>
       <r>    7.7919    0.0000 </r>
       <r>   13.0305    0.0000 </r>
       <r>   13.0305    0.0000 </r>
      </set>
      <set comment="kpoint 15">
       <r>   -4.3978    1.0000 </r>
       <r>    0.9810    1.0000 </r>
       <r>    3.4677    1.0000 </r>
       <r>    3.4677    1.0000 </r>
       <r>    6.5953    0.0000 </r>
       <r>    7.9458    0.0000 </r>
       <r>   12.7944    0.0000 </r>
       <r>   12.7945    0.0000 </r>
      </set>
      <set comment="kpoint 16">
       <r>   -4.5321    1.0000 </r>
       <r>    1.2095    1.0000 </r>
       <r>    3.5402    1.0000 </r>
       <r>    3.5402    1.0000 </r>
       <r>    6.6477    0.0000 </r>
       <r>    8.1073    0.0000 </r>
       <r>   12.5599    0.0000 </r>
       <r>   12.5599    0.0000 </r>
      </set>
      <set comment="kpoint 17">
       <r>   -4.6613    1.0000 </r>
       <r>    1.4386    1.0000 </r>
       <r>    3.6174    1.0000 </r>
       <r>    3.6174    1.0000 </r>
       <r>    6.7055    0.0000 </r>
       <r>    8.2761    0.0000 </r>
       <r>   12.3269    0.0000 </r>
       <r>   12.3269    0.0000 </r>
      </set>
      <set comment="kpoint 18">
       <r>   -4.7856    1.0000 </r>
       <r>    1.6682    1.0000 </r>
       <r>    3.6990    1.0000 </r>
       <r>    3.6990    1.0000 </r>
       <r>    6.7680    0.0000 </r>
       <r>    8.4514    0.0000 </r>
       <r>   12.0937    0.0000 </r>
       <r>   12.0937    0.0000 </r>
      </set>
      <set comment="kpoint 19">
       <r>   -4.9046    1.0000 </r>
       <r>    1.8981    1.0000 </r>
       <r>    3.7851    1.0000 </r>
       <r>    3.7851    1.0000 </r>
       <r>    6.8359    0.0000 </r>
       <r>    8.6331    0.0000 </r>
       <r>   11.8642    0.0000 </r>
       <r>   11.8642    0.0000 </r>
      </set>
      <set comment="kpoint 20">
       <r>   -5.0185    1.0000 </r>
       <r>    2.1281    1.0000 </r>
       <r>    3.8755    1.0000 </r>
       <r>    3.8755    1.0000 </r>
       <r>    6.9084    0.0000 </r>
       <r>    8.8201    0.0000 </r>
       <r>   11.6365    0.0000 </r>
       <r>   11.6365    0.0000 </r>
      </set>
      <set comment="kpoint 21">
       <r>   -5.1270    1.0000 </r>
       <r>    2.3580    1.0000 </r>
       <r>    3.9701    1.0000 </r>
       <r>    3.9701    1.0000 </r>
       <r>    6.9853    0.0000 </r>
       <r>    9.0110    0.0000 </r>
       <r>   11.4110    0.0000 </r>
       <r>   11.4110    0.0000 </r>
      </set>
      <set comment="kpoint 22">
       <r>   -5.2303    1.0000 </r>
       <r>    2.5875    1.0000 </r>
       <r>    4.0686    1.0000 </r>
       <r>    4.0686    1.0000 </r>
       <r>    7.0661    0.0000 </r>
       <r>    9.2042    0.0000 </r>
       <r>   11.1877    0.0000 </r>
       <r>   11.1877    0.0000 </r>
      </set>
      <set comment="kpoint 23">
       <r>   -5.3282    1.0000 </r>
       <r>    2.8165    1.0000 </r>
       <r>    4.1709    1.0000 </r>
       <r>    4.1709    1.0000 </r>
       <r>    7.1504    0.0000 </r>
       <r>    9.3972    0.0000 </r>
       <r>   10.9669    0.0000 </r>
       <r>   10.9669    0.0000 </r>
      </set>
      <set comment="kpoint 24">
       <r>   -5.4208    1.0000 </r>
       <r>    3.0447    1.0000 </r>
       <r>    4.2768    1.0000 </r>
       <r>    4.2768    1.0000 </r>
       <r>    7.2381    0.0000 </r>
       <r>    9.5865    0.0000 </r>
       <r>   10.7493    0.0000 </r>
       <r>   10.7493    0.0000 </r>
      </set>
      <set comment="kpoint 25">
       <r>   -5.5079    1.0000 </r>
       <r>    3.2715    1.0000 </r>
       <r>    4.3858    1.0000 </r>
       <r>    4.3858    1.0000 </r>
       <r>    7.3282    0.0000 </r>
       <r>    9.7665    0.0000 </r>
       <r>   10.5342    0.0000 </r>
       <r>   10.5342    0.0000 </r>
      </set>
      <set comment="kpoint 26">
       <r>   -5.5895    1.0000 </r>
       <r>    3.4969    1.0000 </r>
       <r>    4.4979    1.0000 </r>
       <r>    4.4979    1.0000 </r>
       <r>    7.4202    0.0000 </r>
       <r>    9.9294    0.0000 </r>
       <r>   10.3228    0.0000 </r>
       <r>   10.3228    0.0000 </r>
      </set>
      <set comment="kpoint 27">
       <r>   -5.6657    1.0000 </r>
       <r>    3.7202    1.0000 </r>
       <r>    4.6124    1.0000 </r>
       <r>    4.6124    1.0000 </r>
       <r>    7.5136    0.0000 </r>
       <r>   10.0637    0.0000 </r>
       <r>   10.1153    0.0000 </r>
       <r>   10.1153    0.0000 </r>
      </set>
      <set comment="kpoint 28">
       <r>   -5.7363    1.0000 </r>
       <r>    3.9410    1.0000 </r>
       <r>    4.7289    1.0000 </r>
       <r>    4.7289    1.0000 </r>
       <r>    7.6075    0.0000 </r>
       <r>    9.9123    0.0000 </r>
       <r>    9.9123    0.0000 </r>
       <r>   10.1549    0.0000 </r>
      </set>
      <set comment="kpoint 29">
       <r>   -5.8014    1.0000 </r>
       <r>    4.1587    1.0000 </r>
       <r>    4.8467    1.0000 </r>
       <r>    4.8467    1.0000 </r>
       <r>    7.7010    0.0000 </r>
       <r>    9.7139    0.0000 </r>
       <r>    9.7139    0.0000 </r>
       <r>   10.1902    0.0000 </r>
      </set>
      <set comment="kpoint 30">
       <r>   -5.8609    1.0000 </r>
       <r>    4.3719    1.0000 </r>
       <r>    4.9653    1.0000 </r>
       <r>    4.9653    1.0000 </r>
       <r>    7.7934    0.0000 </r>
       <r>    9.5225    0.0000 </r>
       <r>    9.5225    0.0000 </r>
       <r>   10.1629    0.0000 </r>
      </set>
      <set comment="kpoint 31">
       <r>   -5.9148    1.0000 </r>
       <r>    4.5797    1.0000 </r>
       <r>    5.0834    1.0000 </r>
       <r>    5.0834    1.0000 </r>
       <r>    7.8834    0.0000 </r>
       <r>    9.3380    0.0000 </r>
       <r>    9.3380    0.0000 </r>
       <r>   10.0813    0.0000 </r>
      </set>
      <set comment="kpoint 32">
       <r>   -5.9630    1.0000 </r>
       <r>    4.7806    1.0000 </r>
       <r>    5.1998    1.0000 </r>
       <r>    5.1998    1.0000 </r>
       <r>    7.9697    0.0000 </r>
       <r>    9.1618    0.0000 </r>
       <r>    9.1618    0.0000 </r>
       <r>    9.9614    0.0000 </r>
      </set>
      <set comment="kpoint 33">
       <r>   -6.0057    1.0000 </r>
       <r>    4.9725    1.0000 </r>
       <r>    5.3131    1.0000 </r>
       <r>    5.3131    1.0000 </r>
       <r>    8.0511    0.0000 </r>
       <r>    8.9957    0.0000 </r>
       <r>    8.9957    0.0000 </r>
       <r>    9.8196    0.0000 </r>
      </set>
      <set comment="kpoint 34">
       <r>   -6.0427    1.0000 </r>
       <r>    5.1529    1.0000 </r>
       <r>    5.4213    1.0000 </r>
       <r>    5.4213    1.0000 </r>
       <r>    8.1260    0.0000 </r>
       <r>    8.8416    0.0000 </r>
       <r>    8.8416    0.0000 </r>
       <r>    9.6695    0.0000 </r>
      </set>
      <set comment="kpoint 35">
       <r>   -6.0740    1.0000 </r>
       <r>    5.3184    1.0000 </r>
       <r>    5.5218    1.0000 </r>
       <r>    5.5218    1.0000 </r>
       <r>    8.1930    0.0000 </r>
       <r>    8.7022    0.0000 </r>
       <r>    8.7022    0.0000 </r>
       <r>    9.5218    0.0000 </r>
      </set>
      <set comment="kpoint 36">
       <r>   -6.0996    1.0000 </r>
       <r>    5.4648    1.0000 </r>
       <r>    5.6116    1.0000 </r>
       <r>    5.6116    1.0000 </r>
       <r>    8.2504    0.0000 </r>
       <r>    8.5804    0.0000 </r>
       <r>    8.5804    0.0000 </r>
       <r>    9.3854    0.0000 </r>
      </set>
      <set comment="kpoint 37">
       <r>   -6.1196    1.0000 </r>
       <r>    5.5873    1.0000 </r>
       <r>    5.6873    1.0000 </r>
       <r>    5.6873    1.0000 </r>
       <r>    8.2970    0.0000 </r>
       <r>    8.4799    0.0000 </r>
       <r>    8.4799    0.0000 </r>
       <r>    9.2684    0.0000 </r>
      </set>
      <set comment="kpoint 38">
       <r>   -6.1338    1.0000 </r>
       <r>    5.6803    1.0000 </r>
       <r>    5.7451    1.0000 </r>
       <r>    5.7451    1.0000 </r>
       <r>    8.3313    0.0000 </r>
       <r>    8.4043    0.0000 </r>
       <r>    8.4043    0.0000 </r>
       <r>    9.1781    0.0000 </r>
      </set>
      <set comment="kpoint 39">
       <r>   -6.1424    1.0000 </r>
       <r>    5.7387    1.0000 </r>
       <r>    5.7815    1.0000 </r>
       <r>    5.7815    1.0000 </r>
       <r>    8.3523    0.0000 </r>
       <r>    8.3572    0.0000 </r>
       <r>    8.3572    0.0000 </r>
       <r>    9.1210    0.0000 </r>
      </set>
      <set comment="kpoint 40">
       <r>   -6.1452    1.0000 </r>
       <r>    5.7586    1.0000 </r>
       <r>    5.7940    1.0000 </r>
       <r>    5.7940    1.0000 </r>
       <r>    8.3412    0.0000 </r>
       <r>    8.3412    0.0000 </r>
       <r>    8.3594    0.0000 </r>
       <r>    9.1014    0.0000 </r>
      </set>
      <set comment="kpoint 41">
       <r>   -6.1452    1.0000 </r>
       <r>    5.7586    1.0000 </r>
       <r>    5.7940    1.0000 </r>
       <r>    5.7940    1.0000 </r>
       <r>    8.3412    0.0000 </r>
       <r>    8.3412    0.0000 </r>
       <r>    8.3594    0.0000 </r>
       <r>    9.1014    0.0000 </r>
      </set>
      <set comment="kpoint 42">
       <r>   -6.1423    1.0000 </r>
       <r>    5.7463    1.0000 </r>
       <r>    5.7739    1.0000 </r>
       <r>    5.7813    1.0000 </r>
       <r>    8.3340    0.0000 </r>
       <r>    8.3570    0.0000 </r>
       <r>    8.3756    0.0000 </r>
       <r>    9.1210    0.0000 </r>
      </set>
      <set comment="kpoint 43">
       <r>   -6.1337    1.0000 </r>
       <r>    5.7102    1.0000 </r>
       <r>    5.7151    1.0000 </r>
       <r>    5.7444    1.0000 </r>
       <r>    8.3126    0.0000 </r>
       <r>    8.4035    0.0000 </r>
       <r>    8.4232    0.0000 </r>
       <r>    9.1784    0.0000 </r>
      </set>
      <set comment="kpoint 44">
       <r>   -6.1193    1.0000 </r>
       <r>    5.6216    1.0000 </r>
       <r>    5.6529    1.0000 </r>
       <r>    5.6858    1.0000 </r>
       <r>    8.2776    0.0000 </r>
       <r>    8.4783    0.0000 </r>
       <r>    8.4996    0.0000 </r>
       <r>    9.2689    0.0000 </r>
      </set>
      <set comment="kpoint 45">
       <r>   -6.0992    1.0000 </r>
       <r>    5.4986    1.0000 </r>
       <r>    5.5777    1.0000 </r>
       <r>    5.6091    1.0000 </r>
       <r>    8.2302    0.0000 </r>
       <r>    8.5778    0.0000 </r>
       <r>    8.6012    0.0000 </r>
       <r>    9.3860    0.0000 </r>
      </set>
      <set comment="kpoint 46">
       <r>   -6.0733    1.0000 </r>
       <r>    5.3516    1.0000 </r>
       <r>    5.4883    1.0000 </r>
       <r>    5.5181    1.0000 </r>
       <r>    8.1717    0.0000 </r>
       <r>    8.6984    0.0000 </r>
       <r>    8.7242    0.0000 </r>
       <r>    9.5223    0.0000 </r>
      </set>
      <set comment="kpoint 47">
       <r>   -6.0418    1.0000 </r>
       <r>    5.1856    1.0000 </r>
       <r>    5.3882    1.0000 </r>
       <r>    5.4163    1.0000 </r>
       <r>    8.1035    0.0000 </r>
       <r>    8.8366    0.0000 </r>
       <r>    8.8650    0.0000 </r>
       <r>    9.6696    0.0000 </r>
      </set>
      <set comment="kpoint 48">
       <r>   -6.0045    1.0000 </r>
       <r>    5.0049    1.0000 </r>
       <r>    5.2804    1.0000 </r>
       <r>    5.3068    1.0000 </r>
       <r>    8.0273    0.0000 </r>
       <r>    8.9893    0.0000 </r>
       <r>    9.0205    0.0000 </r>
       <r>    9.8191    0.0000 </r>
      </set>
      <set comment="kpoint 49">
       <r>   -5.9615    1.0000 </r>
       <r>    4.8127    1.0000 </r>
       <r>    5.1673    1.0000 </r>
       <r>    5.1921    1.0000 </r>
       <r>    7.9446    0.0000 </r>
       <r>    9.1540    0.0000 </r>
       <r>    9.1882    0.0000 </r>
       <r>    9.9600    0.0000 </r>
      </set>
      <set comment="kpoint 50">
       <r>   -5.9128    1.0000 </r>
       <r>    4.6117    1.0000 </r>
       <r>    5.0509    1.0000 </r>
       <r>    5.0741    1.0000 </r>
       <r>    7.8568    0.0000 </r>
       <r>    9.3288    0.0000 </r>
       <r>    9.3659    0.0000 </r>
       <r>   10.0792    0.0000 </r>
      </set>
      <set comment="kpoint 51">
       <r>   -5.8584    1.0000 </r>
       <r>    4.4039    1.0000 </r>
       <r>    4.9328    1.0000 </r>
       <r>    4.9545    1.0000 </r>
       <r>    7.7654    0.0000 </r>
       <r>    9.5119    0.0000 </r>
       <r>    9.5520    0.0000 </r>
       <r>   10.1611    0.0000 </r>
      </set>
      <set comment="kpoint 52">
       <r>   -5.7984    1.0000 </r>
       <r>    4.1908    1.0000 </r>
       <r>    4.8143    1.0000 </r>
       <r>    4.8347    1.0000 </r>
       <r>    7.6718    0.0000 </r>
       <r>    9.7028    0.0000 </r>
       <r>    9.7460    0.0000 </r>
       <r>   10.1904    0.0000 </r>
      </set>
      <set comment="kpoint 53">
       <r>   -5.7328    1.0000 </r>
       <r>    3.9735    1.0000 </r>
       <r>    4.6962    1.0000 </r>
       <r>    4.7153    1.0000 </r>
       <r>    7.5767    0.0000 </r>
       <r>    9.8987    0.0000 </r>
       <r>    9.9450    0.0000 </r>
       <r>   10.1591    0.0000 </r>
      </set>
      <set comment="kpoint 54">
       <r>   -5.6615    1.0000 </r>
       <r>    3.7530    1.0000 </r>
       <r>    4.5794    1.0000 </r>
       <r>    4.5973    1.0000 </r>
       <r>    7.4814    0.0000 </r>
       <r>   10.0717    0.0000 </r>
       <r>   10.1000    0.0000 </r>
       <r>   10.1495    0.0000 </r>
      </set>
      <set comment="kpoint 55">
       <r>   -5.5847    1.0000 </r>
       <r>    3.5298    1.0000 </r>
       <r>    4.4646    1.0000 </r>
       <r>    4.4814    1.0000 </r>
       <r>    7.3867    0.0000 </r>
       <r>    9.9388    0.0000 </r>
       <r>   10.3057    0.0000 </r>
       <r>   10.3584    0.0000 </r>
      </set>
      <set comment="kpoint 56">
       <r>   -5.5024    1.0000 </r>
       <r>    3.3048    1.0000 </r>
       <r>    4.3524    1.0000 </r>
       <r>    4.3681    1.0000 </r>
       <r>    7.2934    0.0000 </r>
       <r>    9.7775    0.0000 </r>
       <r>   10.5155    0.0000 </r>
       <r>   10.5715    0.0000 </r>
      </set>
      <set comment="kpoint 57">
       <r>   -5.4146    1.0000 </r>
       <r>    3.0783    1.0000 </r>
       <r>    4.2430    1.0000 </r>
       <r>    4.2576    1.0000 </r>
       <r>    7.2021    0.0000 </r>
       <r>    9.5978    0.0000 </r>
       <r>   10.7285    0.0000 </r>
       <r>   10.7879    0.0000 </r>
      </set>
      <set comment="kpoint 58">
       <r>   -5.3213    1.0000 </r>
       <r>    2.8506    1.0000 </r>
       <r>    4.1367    1.0000 </r>
       <r>    4.1504    1.0000 </r>
       <r>    7.1135    0.0000 </r>
       <r>    9.4079    0.0000 </r>
       <r>   10.9446    0.0000 </r>
       <r>   11.0073    0.0000 </r>
      </set>
      <set comment="kpoint 59">
       <r>   -5.2226    1.0000 </r>
       <r>    2.6220    1.0000 </r>
       <r>    4.0340    1.0000 </r>
       <r>    4.0468    1.0000 </r>
       <r>    7.0278    0.0000 </r>
       <r>    9.2134    0.0000 </r>
       <r>   11.1629    0.0000 </r>
       <r>   11.2290    0.0000 </r>
      </set>
      <set comment="kpoint 60">
       <r>   -5.1184    1.0000 </r>
       <r>    2.3928    1.0000 </r>
       <r>    3.9351    1.0000 </r>
       <r>    3.9470    1.0000 </r>
       <r>    6.9459    0.0000 </r>
       <r>    9.0182    0.0000 </r>
       <r>   11.3841    0.0000 </r>
       <r>   11.4536    0.0000 </r>
      </set>
      <set comment="kpoint 61">
       <r>   -5.0090    1.0000 </r>
       <r>    2.1633    1.0000 </r>
       <r>    3.8402    1.0000 </r>
       <r>    3.8513    1.0000 </r>
       <r>    6.8682    0.0000 </r>
       <r>    8.8249    0.0000 </r>
       <r>   11.6075    0.0000 </r>
       <r>   11.6804    0.0000 </r>
      </set>
      <set comment="kpoint 62">
       <r>   -4.8942    1.0000 </r>
       <r>    1.9336    1.0000 </r>
       <r>    3.7494    1.0000 </r>
       <r>    3.7597    1.0000 </r>
       <r>    6.7948    0.0000 </r>
       <r>    8.6352    0.0000 </r>
       <r>   11.8329    0.0000 </r>
       <r>   11.9093    0.0000 </r>
      </set>
      <set comment="kpoint 63">
       <r>   -4.7742    1.0000 </r>
       <r>    1.7040    1.0000 </r>
       <r>    3.6630    1.0000 </r>
       <r>    3.6726    1.0000 </r>
       <r>    6.7263    0.0000 </r>
       <r>    8.4507    0.0000 </r>
       <r>   12.0609    0.0000 </r>
       <r>   12.1406    0.0000 </r>
      </set>
      <set comment="kpoint 64">
       <r>   -4.6490    1.0000 </r>
       <r>    1.4746    1.0000 </r>
       <r>    3.5810    1.0000 </r>
       <r>    3.5899    1.0000 </r>
       <r>    6.6627    0.0000 </r>
       <r>    8.2722    0.0000 </r>
       <r>   12.2902    0.0000 </r>
       <r>   12.3741    0.0000 </r>
      </set>
      <set comment="kpoint 65">
       <r>   -4.5188    1.0000 </r>
       <r>    1.2457    1.0000 </r>
       <r>    3.5035    1.0000 </r>
       <r>    3.5117    1.0000 </r>
       <r>    6.6045    0.0000 </r>
       <r>    8.1007    0.0000 </r>
       <r>   12.5210    0.0000 </r>
       <r>   12.6082    0.0000 </r>
      </set>
      <set comment="kpoint 66">
       <r>   -4.3834    1.0000 </r>
       <r>    1.0173    1.0000 </r>
       <r>    3.4306    1.0000 </r>
       <r>    3.4382    1.0000 </r>
       <r>    6.5516    0.0000 </r>
       <r>    7.9362    0.0000 </r>
       <r>   12.7544    0.0000 </r>
       <r>   12.8440    0.0000 </r>
      </set>
      <set comment="kpoint 67">
       <r>   -4.2431    1.0000 </r>
       <r>    0.7897    1.0000 </r>
       <r>    3.3625    1.0000 </r>
       <r>    3.3694    1.0000 </r>
       <r>    6.5045    0.0000 </r>
       <r>    7.7794    0.0000 </r>
       <r>   12.9883    0.0000 </r>
       <r>   13.0811    0.0000 </r>
      </set>
      <set comment="kpoint 68">
       <r>   -4.0979    1.0000 </r>
       <r>    0.5631    1.0000 </r>
       <r>    3.2992    1.0000 </r>
       <r>    3.3055    1.0000 </r>
       <r>    6.4629    0.0000 </r>
       <r>    7.6304    0.0000 </r>
       <r>   13.2231    0.0000 </r>
       <r>   13.3191    0.0000 </r>
      </set>
      <set comment="kpoint 69">
       <r>   -3.9479    1.0000 </r>
       <r>    0.3377    1.0000 </r>
       <r>    3.2407    1.0000 </r>
       <r>    3.2464    1.0000 </r>
       <r>    6.4273    0.0000 </r>
       <r>    7.4896    0.0000 </r>
       <r>   13.4593    0.0000 </r>
       <r>   13.5580    0.0000 </r>
      </set>
      <set comment="kpoint 70">
       <r>   -3.7932    1.0000 </r>
       <r>    0.1137    1.0000 </r>
       <r>    3.1872    1.0000 </r>
       <r>    3.1924    1.0000 </r>
       <r>    6.3986    0.0000 </r>
       <r>    7.3572    0.0000 </r>
       <r>   13.6972    0.0000 </r>
       <r>   13.7987    0.0000 </r>
      </set>
      <set comment="kpoint 71">
       <r>   -3.6338    1.0000 </r>
       <r>   -0.1087    1.0000 </r>
       <r>    3.1387    1.0000 </r>
       <r>    3.1433    1.0000 </r>
       <r>    6.3762    0.0000 </r>
       <r>    7.2331    0.0000 </r>
       <r>   13.9363    0.0000 </r>
       <r>   14.0403    0.0000 </r>
      </set>
      <set comment="kpoint 72">
       <r>   -3.4697    1.0000 </r>
       <r>   -0.3293    1.0000 </r>
       <r>    3.0953    1.0000 </r>
       <r>    3.0993    1.0000 </r>
       <r>    6.3607    0.0000 </r>
       <r>    7.1177    0.0000 </r>
       <r>   14.1766    0.0000 </r>
       <r>   14.2825    0.0000 </r>
      </set>
      <set comment="kpoint 73">
       <r>   -3.3013    1.0000 </r>
       <r>   -0.5480    1.0000 </r>
       <r>    3.0568    1.0000 </r>
       <r>    3.0603    1.0000 </r>
       <r>    6.3518    0.0000 </r>
       <r>    7.0105    0.0000 </r>
       <r>   14.4170    0.0000 </r>
       <r>   14.5251    0.0000 </r>
      </set>
      <set comment="kpoint 74">
       <r>   -3.1285    1.0000 </r>
       <r>   -0.7644    1.0000 </r>
       <r>    3.0234    1.0000 </r>
       <r>    3.0264    1.0000 </r>
       <r>    6.3498    0.0000 </r>
       <r>    6.9116    0.0000 </r>
       <r>   14.6574    0.0000 </r>
       <r>   14.7679    0.0000 </r>
      </set>
      <set comment="kpoint 75">
       <r>   -2.9515    1.0000 </r>
       <r>   -0.9786    1.0000 </r>
       <r>    2.9952    1.0000 </r>
       <r>    2.9977    1.0000 </r>
       <r>    6.3549    0.0000 </r>
       <r>    6.8211    0.0000 </r>
       <r>   14.8978    0.0000 </r>
       <r>   15.0079    0.0000 </r>
      </set>
      <set comment="kpoint 76">
       <r>   -2.7704    1.0000 </r>
       <r>   -1.1902    1.0000 </r>
       <r>    2.9722    1.0000 </r>
       <r>    2.9742    1.0000 </r>
       <r>    6.3671    0.0000 </r>
       <r>    6.7388    0.0000 </r>
       <r>   15.1342    0.0000 </r>
       <r>   15.2428    0.0000 </r>
      </set>
      <set comment="kpoint 77">
       <r>   -2.5853    1.0000 </r>
       <r>   -1.3990    1.0000 </r>
       <r>    2.9543    1.0000 </r>
       <r>    2.9557    1.0000 </r>
       <r>    6.3866    0.0000 </r>
       <r>    6.6646    0.0000 </r>
       <r>   15.3632    0.0000 </r>
       <r>   15.4680    0.0000 </r>
      </set>
      <set comment="kpoint 78">
       <r>   -2.3964    1.0000 </r>
       <r>   -1.6050    1.0000 </r>
       <r>    2.9415    1.0000 </r>
       <r>    2.9425    1.0000 </r>
       <r>    6.4136    0.0000 </r>
       <r>    6.5985    0.0000 </r>
       <r>   15.5781    0.0000 </r>
       <r>   15.6701    0.0000 </r>
      </set>
      <set comment="kpoint 79">
       <r>   -2.2037    1.0000 </r>
       <r>   -1.8079    1.0000 </r>
       <r>    2.9340    1.0000 </r>
       <r>    2.9345    1.0000 </r>
       <r>    6.4482    0.0000 </r>
       <r>    6.5405    0.0000 </r>
       <r>   15.7577    0.0000 </r>
       <r>   15.8192    0.0000 </r>
      </set>
      <set comment="kpoint 80">
       <r>   -2.0075    1.0000 </r>
       <r>   -2.0075    1.0000 </r>
       <r>    2.9316    1.0000 </r>
       <r>    2.9316    1.0000 </r>
       <r>    6.4904    0.0000 </r>
       <r>    6.4904    0.0000 </r>
       <r>   15.8559    0.0000 </r>
       <r>   15.8595    0.0000 </r>
      </set>
     </set>
    </set>
   </array>
  </eigenvalues>
  <separator name="orbital magnetization" >
   <v name="MAGDIPOLOUT">      0.00000000      0.00000000      0.00000000</v>
  </separator>
  <dos>
   <i name="efermi">      6.07757791 </i>
   <total>
    <array>
     <dimension dim="1">gridpoints</dimension>
     <dimension dim="2">spin</dimension>
     <field>energy</field>
     <field>total</field>
     <field>integrated</field>
     <set>
      <set comment="spin 1">
       <r>    -7.2459     0.0000     0.0000 </r>
       <r>    -7.1652     0.0000     0.0000 </r>
       <r>    -7.0845     0.0000     0.0000 </r>
       <r>    -7.0037     0.0000     0.0000 </r>
       <r>    -6.9230     0.0000     0.0000 </r>
       <r>    -6.8423     0.0000     0.0000 </r>
       <r>    -6.7616     0.0000     0.0000 </r>
       <r>    -6.6809     0.0000     0.0000 </r>
       <r>    -6.6001     0.0000     0.0000 </r>
       <r>    -6.5194     0.0000     0.0000 </r>
       <r>    -6.4387     0.0000     0.0000 </r>
       <r>    -6.3580     0.0000     0.0000 </r>
       <r>    -6.2773     0.0001     0.0000 </r>
       <r>    -6.1966     0.1184     0.0096 </r>
       <r>    -6.1158     1.9016     0.1631 </r>
       <r>    -6.0351     2.0751     0.3306 </r>
       <r>    -5.9544     1.2529     0.4317 </r>
       <r>    -5.8737     0.9884     0.5115 </r>
       <r>    -5.7930     0.8471     0.5799 </r>
       <r>    -5.7123     0.7537     0.6407 </r>
       <r>    -5.6315     0.6858     0.6960 </r>
       <r>    -5.5508     0.6347     0.7473 </r>
       <r>    -5.4701     0.5961     0.7954 </r>
       <r>    -5.3894     0.5658     0.8411 </r>
       <r>    -5.3087     0.5345     0.8842 </r>
       <r>    -5.2279     0.4939     0.9241 </r>
       <r>    -5.1472     0.4655     0.9616 </r>
       <r>    -5.0665     0.4827     1.0006 </r>
       <r>    -4.9858     0.4823     1.0395 </r>
       <r>    -4.9051     0.3999     1.0718 </r>
       <r>    -4.8244     0.4045     1.1045 </r>
       <r>    -4.7436     0.4719     1.1426 </r>
       <r>    -4.6629     0.3488     1.1707 </r>
       <r>    -4.5822     0.3853     1.2018 </r>
       <r>    -4.5015     0.4409     1.2374 </r>
       <r>    -4.4208     0.2798     1.2600 </r>
       <r>    -4.3401     0.4500     1.2963 </r>
       <r>    -4.2593     0.2977     1.3203 </r>
       <r>    -4.1786     0.3674     1.3500 </r>
       <r>    -4.0979     0.3654     1.3795 </r>
       <r>    -4.0172     0.2797     1.4021 </r>
       <r>    -3.9365     0.4146     1.4355 </r>
       <r>    -3.8557     0.2225     1.4535 </r>
       <r>    -3.7750     0.4359     1.4887 </r>
       <r>    -3.6943     0.1911     1.5041 </r>
       <r>    -3.6136     0.4404     1.5397 </r>
       <r>    -3.5329     0.1746     1.5538 </r>
       <r>    -3.4522     0.4341     1.5888 </r>
       <r>    -3.3714     0.1720     1.6027 </r>
       <r>    -3.2907     0.4124     1.6360 </r>
       <r>    -3.2100     0.1907     1.6513 </r>
       <r>    -3.1293     0.3631     1.6807 </r>
       <r>    -3.0486     0.2424     1.7002 </r>
       <r>    -2.9679     0.2786     1.7227 </r>
       <r>    -2.8871     0.3272     1.7491 </r>
       <r>    -2.8064     0.1761     1.7633 </r>
       <r>    -2.7257     0.4150     1.7968 </r>
       <r>    -2.6450     0.1065     1.8054 </r>
       <r>    -2.5643     0.4386     1.8408 </r>
       <r>    -2.4835     0.1289     1.8512 </r>
       <r>    -2.4028     0.3406     1.8787 </r>
       <r>    -2.3221     0.2591     1.8996 </r>
       <r>    -2.2414     0.1711     1.9135 </r>
       <r>    -2.1607     0.4115     1.9467 </r>
       <r>    -2.0800     0.1222     1.9565 </r>
       <r>    -1.9992     0.8159     2.0224 </r>
       <r>    -1.9185     0.3419     2.0500 </r>
       <r>    -1.8378     0.2173     2.0675 </r>
       <r>    -1.7571     0.3756     2.0978 </r>
       <r>    -1.6764     0.0727     2.1037 </r>
       <r>    -1.5957     0.4117     2.1369 </r>
       <r>    -1.5149     0.1628     2.1501 </r>
       <r>    -1.4342     0.1918     2.1656 </r>
       <r>    -1.3535     0.3915     2.1972 </r>
       <r>    -1.2728     0.0623     2.2022 </r>
       <r>    -1.1921     0.3711     2.2322 </r>
       <r>    -1.1113     0.2176     2.2497 </r>
       <r>    -1.0306     0.1177     2.2592 </r>
       <r>    -0.9499     0.4283     2.2938 </r>
       <r>    -0.8692     0.0841     2.3006 </r>
       <r>    -0.7885     0.2590     2.3215 </r>
       <r>    -0.7078     0.3349     2.3485 </r>
       <r>    -0.6270     0.0545     2.3529 </r>
       <r>    -0.5463     0.3868     2.3841 </r>
       <r>    -0.4656     0.1940     2.3998 </r>
       <r>    -0.3849     0.1073     2.4085 </r>
       <r>    -0.3042     0.4270     2.4429 </r>
       <r>    -0.2234     0.0913     2.4503 </r>
       <r>    -0.1427     0.2081     2.4671 </r>
       <r>    -0.0620     0.3757     2.4974 </r>
       <r>     0.0187     0.0476     2.5013 </r>
       <r>     0.0994     0.3161     2.5268 </r>
       <r>     0.1801     0.2779     2.5492 </r>
       <r>     0.2609     0.0528     2.5535 </r>
       <r>     0.3416     0.3948     2.5853 </r>
       <r>     0.4223     0.1794     2.5998 </r>
       <r>     0.5030     0.0932     2.6073 </r>
       <r>     0.5837     0.4249     2.6416 </r>
       <r>     0.6644     0.1048     2.6501 </r>
       <r>     0.7452     0.1571     2.6628 </r>
       <r>     0.8259     0.4074     2.6957 </r>
       <r>     0.9066     0.0593     2.7005 </r>
       <r>     0.9873     0.2325     2.7192 </r>
       <r>     1.0680     0.3558     2.7479 </r>
       <r>     1.1488     0.0398     2.7511 </r>
       <r>     1.2295     0.3071     2.7759 </r>
       <r>     1.3102     0.2870     2.7991 </r>
       <r>     1.3909     0.0414     2.8024 </r>
       <r>     1.4716     0.3697     2.8323 </r>
       <r>     1.5523     0.2152     2.8496 </r>
       <r>     1.6331     0.0609     2.8546 </r>
       <r>     1.7138     0.4112     2.8878 </r>
       <r>     1.7945     0.1505     2.8999 </r>
       <r>     1.8752     0.0965     2.9077 </r>
       <r>     1.9559     0.4265     2.9421 </r>
       <r>     2.0366     0.0986     2.9501 </r>
       <r>     2.1174     0.1469     2.9619 </r>
       <r>     2.1981     0.4137     2.9953 </r>
       <r>     2.2788     0.0617     3.0003 </r>
       <r>     2.3595     0.2098     3.0173 </r>
       <r>     2.4402     0.3747     3.0475 </r>
       <r>     2.5210     0.0408     3.0508 </r>
       <r>     2.6017     0.2806     3.0734 </r>
       <r>     2.6824     0.3143     3.0988 </r>
       <r>     2.7631     0.0370     3.1018 </r>
       <r>     2.8438     0.3604     3.1309 </r>
       <r>     2.9245     1.2929     3.2353 </r>
       <r>     3.0053     4.8212     3.6244 </r>
       <r>     3.0860     4.0668     3.9527 </r>
       <r>     3.1667     2.5983     4.1624 </r>
       <r>     3.2474     2.0805     4.3303 </r>
       <r>     3.3281     2.1575     4.5045 </r>
       <r>     3.4088     1.6503     4.6377 </r>
       <r>     3.4896     1.5927     4.7663 </r>
       <r>     3.5703     1.7307     4.9060 </r>
       <r>     3.6510     1.2994     5.0108 </r>
       <r>     3.7317     1.4537     5.1282 </r>
       <r>     3.8124     1.4566     5.2458 </r>
       <r>     3.8932     1.1383     5.3376 </r>
       <r>     3.9739     1.4289     5.4530 </r>
       <r>     4.0546     1.1973     5.5496 </r>
       <r>     4.1353     1.0511     5.6345 </r>
       <r>     4.2160     1.3978     5.7473 </r>
       <r>     4.2967     1.0667     5.8334 </r>
       <r>     4.3775     1.1261     5.9243 </r>
       <r>     4.4582     1.1944     6.0207 </r>
       <r>     4.5389     0.9950     6.1010 </r>
       <r>     4.6196     1.3033     6.2062 </r>
       <r>     4.7003     0.9431     6.2823 </r>
       <r>     4.7810     1.0898     6.3703 </r>
       <r>     4.8618     1.2832     6.4739 </r>
       <r>     4.9425     0.8574     6.5431 </r>
       <r>     5.0232     1.2843     6.6468 </r>
       <r>     5.1039     1.0663     6.7328 </r>
       <r>     5.1846     1.1654     6.8269 </r>
       <r>     5.2654     1.0942     6.9152 </r>
       <r>     5.3461     1.3226     7.0220 </r>
       <r>     5.4268     1.2141     7.1200 </r>
       <r>     5.5075     1.3889     7.2321 </r>
       <r>     5.5882     1.4737     7.3510 </r>
       <r>     5.6689     1.8559     7.5008 </r>
       <r>     5.7497     2.9022     7.7351 </r>
       <r>     5.8304     2.9750     7.9752 </r>
       <r>     5.9111     0.3062     7.9999 </r>
       <r>     5.9918     0.0007     8.0000 </r>
       <r>     6.0725     0.0000     8.0000 </r>
       <r>     6.1533     0.0000     8.0000 </r>
       <r>     6.2340     0.0005     8.0000 </r>
       <r>     6.3147     0.2217     8.0179 </r>
       <r>     6.3954     2.6914     8.2352 </r>
       <r>     6.4761     3.8313     8.5444 </r>
       <r>     6.5568     2.7818     8.7690 </r>
       <r>     6.6376     1.9185     8.9238 </r>
       <r>     6.7183     1.5733     9.0508 </r>
       <r>     6.7990     1.4027     9.1640 </r>
       <r>     6.8797     1.2814     9.2675 </r>
       <r>     6.9604     1.1973     9.3641 </r>
       <r>     7.0411     1.1271     9.4551 </r>
       <r>     7.1219     1.0411     9.5391 </r>
       <r>     7.2026     1.0004     9.6199 </r>
       <r>     7.2833     1.0239     9.7025 </r>
       <r>     7.3640     0.9168     9.7765 </r>
       <r>     7.4447     0.9053     9.8496 </r>
       <r>     7.5255     0.9791     9.9286 </r>
       <r>     7.6062     0.7871     9.9922 </r>
       <r>     7.6869     0.9763    10.0710 </r>
       <r>     7.7676     0.7763    10.1336 </r>
       <r>     7.8483     0.9547    10.2107 </r>
       <r>     7.9290     0.8203    10.2769 </r>
       <r>     8.0098     0.9760    10.3557 </r>
       <r>     8.0905     0.8769    10.4265 </r>
       <r>     8.1712     1.1093    10.5160 </r>
       <r>     8.2519     1.0867    10.6037 </r>
       <r>     8.3326     2.6359    10.8165 </r>
       <r>     8.4133     3.5128    11.1001 </r>
       <r>     8.4941     1.9146    11.2546 </r>
       <r>     8.5748     1.0681    11.3408 </r>
       <r>     8.6555     1.2500    11.4417 </r>
       <r>     8.7362     1.0847    11.5293 </r>
       <r>     8.8169     0.7931    11.5933 </r>
       <r>     8.8977     1.2120    11.6911 </r>
       <r>     8.9784     0.5522    11.7357 </r>
       <r>     9.0591     1.3773    11.8469 </r>
       <r>     9.1398     1.4079    11.9605 </r>
       <r>     9.2205     2.0032    12.1222 </r>
       <r>     9.3012     1.0271    12.2051 </r>
       <r>     9.3820     1.4462    12.3218 </r>
       <r>     9.4627     1.0133    12.4036 </r>
       <r>     9.5434     1.2833    12.5072 </r>
       <r>     9.6241     1.0941    12.5955 </r>
       <r>     9.7048     1.0410    12.6796 </r>
       <r>     9.7855     1.3217    12.7862 </r>
       <r>     9.8663     0.8692    12.8564 </r>
       <r>     9.9470     1.4969    12.9772 </r>
       <r>    10.0277     1.0116    13.0589 </r>
       <r>    10.1084     1.5020    13.1801 </r>
       <r>    10.1891     2.1018    13.3498 </r>
       <r>    10.2699     0.7052    13.4067 </r>
       <r>    10.3506     0.8086    13.4720 </r>
       <r>    10.4313     0.3444    13.4998 </r>
       <r>    10.5120     0.3242    13.5259 </r>
       <r>    10.5927     0.7979    13.5903 </r>
       <r>    10.6734     0.1476    13.6022 </r>
       <r>    10.7542     0.6053    13.6511 </r>
       <r>    10.8349     0.5724    13.6973 </r>
       <r>    10.9156     0.1441    13.7089 </r>
       <r>    10.9963     0.7876    13.7725 </r>
       <r>    11.0770     0.3353    13.7996 </r>
       <r>    11.1577     0.2721    13.8215 </r>
       <r>    11.2385     0.7981    13.8860 </r>
       <r>    11.3192     0.1854    13.9009 </r>
       <r>    11.3999     0.4503    13.9373 </r>
       <r>    11.4806     0.6921    13.9931 </r>
       <r>    11.5613     0.1248    14.0032 </r>
       <r>    11.6421     0.6103    14.0525 </r>
       <r>    11.7228     0.5486    14.0968 </r>
       <r>    11.8035     0.1300    14.1072 </r>
       <r>    11.8842     0.7139    14.1649 </r>
       <r>    11.9649     0.4170    14.1985 </r>
       <r>    12.0456     0.1764    14.2128 </r>
       <r>    12.1264     0.7571    14.2739 </r>
       <r>    12.2071     0.3169    14.2995 </r>
       <r>    12.2878     0.2387    14.3187 </r>
       <r>    12.3685     0.7544    14.3796 </r>
       <r>    12.4492     0.2542    14.4001 </r>
       <r>    12.5300     0.3113    14.4253 </r>
       <r>    12.6107     0.7312    14.4843 </r>
       <r>    12.6914     0.2043    14.5008 </r>
       <r>    12.7721     0.3744    14.5310 </r>
       <r>    12.8528     0.6989    14.5874 </r>
       <r>    12.9335     0.1747    14.6015 </r>
       <r>    13.0143     0.4285    14.6361 </r>
       <r>    13.0950     0.6625    14.6896 </r>
       <r>    13.1757     0.1585    14.7024 </r>
       <r>    13.2564     0.4692    14.7403 </r>
       <r>    13.3371     0.6300    14.7911 </r>
       <r>    13.4178     0.1507    14.8033 </r>
       <r>    13.4986     0.5024    14.8438 </r>
       <r>    13.5793     0.5997    14.8922 </r>
       <r>    13.6600     0.1457    14.9040 </r>
       <r>    13.7407     0.5181    14.9458 </r>
       <r>    13.8214     0.5811    14.9927 </r>
       <r>    13.9022     0.1467    15.0046 </r>
       <r>    13.9829     0.5254    15.0470 </r>
       <r>    14.0636     0.5692    15.0929 </r>
       <r>    14.1443     0.1485    15.1049 </r>
       <r>    14.2250     0.5247    15.1473 </r>
       <r>    14.3057     0.5655    15.1929 </r>
       <r>    14.3865     0.1531    15.2053 </r>
       <r>    14.4672     0.5261    15.2477 </r>
       <r>    14.5479     0.5589    15.2928 </r>
       <r>    14.6286     0.1584    15.3056 </r>
       <r>    14.7093     0.5268    15.3481 </r>
       <r>    14.7900     0.5521    15.3927 </r>
       <r>    14.8708     0.1647    15.4060 </r>
       <r>    14.9515     0.5316    15.4489 </r>
       <r>    15.0322     0.5495    15.4933 </r>
       <r>    15.1129     0.1770    15.5076 </r>
       <r>    15.1936     0.5651    15.5532 </r>
       <r>    15.2744     0.5191    15.5951 </r>
       <r>    15.3551     0.2114    15.6121 </r>
       <r>    15.4358     0.6405    15.6638 </r>
       <r>    15.5165     0.4332    15.6988 </r>
       <r>    15.5972     0.3544    15.7274 </r>
       <r>    15.6779     0.7237    15.7858 </r>
       <r>    15.7587     0.4296    15.8205 </r>
       <r>    15.8394     1.1349    15.9121 </r>
       <r>    15.9201     1.0201    15.9945 </r>
       <r>    16.0008     0.0687    16.0000 </r>
       <r>    16.0815     0.0001    16.0000 </r>
       <r>    16.1622     0.0000    16.0000 </r>
       <r>    16.2430     0.0000    16.0000 </r>
       <r>    16.3237     0.0000    16.0000 </r>
       <r>    16.4044     0.0000    16.0000 </r>
       <r>    16.4851     0.0000    16.0000 </r>
       <r>    16.5658     0.0000    16.0000 </r>
       <r>    16.6466     0.0000    16.0000 </r>
       <r>    16.7273     0.0000    16.0000 </r>
       <r>    16.8080     0.0000    16.0000 </r>
       <r>    16.8887     0.0000    16.0000 </r>
       <r>    16.9694     0.0000    16.0000 </r>
      </set>
     </set>
    </array>
   </total>
   <partial>
    <array>
     <dimension dim="1">gridpoints</dimension>
     <dimension dim="2">spin</dimension>
     <dimension dim="3">ion</dimension>
     <field>energy</field>
     <field>    s</field>
     <field>   py</field>
     <field>   pz</field>
     <field>   px</field>
     <field>  dxy</field>
     <field>  dyz</field>
     <field>  dz2</field>
     <field>  dxz</field>
     <field>x2-y2</field>
     <set>
      <set comment="ion 1">
       <set comment="spin 1">
        <r>    -7.2459     0.0000     0.0000     0.0000     0.0000     0.0000     0.0000     0.0000     0.0000     0.0000 </r>
        <r>    -7.1652     0.0000     0.0000     0.0000     0.0000     0.0000     0.0000     0.0000     0.0000     0.0000 </r>
        <r>    -7.0845     0.0000     0.0000     0.0000     0.0000     0.0000     0.0000     0.0000     0.0000     0.0000 </r>
        <r>    -7.0037     0.0000     0.0000     0.0000     0.0000     0.0000     0.0000     0.0000     0.0000     0.0000 </r>
        <r>    -6.9230     0.0000     0.0000     0.0000     0.0000     0.0000     0.0000     0.0000     0.0000     0.0000 </r>
        <r>    -6.8423     0.0000     0.0000     0.0000     0.0000     0.0000     0.0000     0.0000     0.0000     0.0000 </r>
        <r>    -6.7616     0.0000     0.0000     0.0000     0.0000     0.0000     0.0000     0.0000     0.0000     0.0000 </r>
        <r>    -6.6809     0.0000     0.0000     0.0000     0.0000     0.0000     0.0000     0.0000     0.0000     0.0000 </r>
        <r>    -6.6001     0.0000     0.0000     0.0000     0.0000     0.0000     0.0000     0.0000     0.0000     0.0000 </r>
        <r>    -6.5194     0.0000     0.0000     0.0000     0.0000     0.0000     0.0000     0.0000     0.0000     0.0000 </r>
        <r>    -6.4387     0.0000     0.0000     0.0000     0.0000     0.0000     0.0000     0.0000     0.0000     0.0000 </r>
        <r>    -6.3580     0.0000     0.0000     0.0000     0.0000     0.0000     0.0000     0.0000     0.0000     0.0000 </r>
        <r>    -6.2773     0.0000     0.0000     0.0000     0.0000     0.0000     0.0000     0.0000     0.0000     0.0000 </r>
        <r>    -6.1966     0.0252     0.0000     0.0000     0.0000     0.0000     0.0000     0.0000     0.0000     0.0000 </r>
        <r>    -6.1158     0.4051     0.0002     0.0000     0.0002     0.0000     0.0000     0.0000     0.0000     0.0000 </r>
        <r>    -6.0351     0.4416     0.0006     0.0000     0.0006     0.0000     0.0000     0.0000     0.0000     0.0000 </r>
        <r>    -5.9544     0.2660     0.0010     0.0000     0.0010     0.0000     0.0000     0.0000     0.0000     0.0000 </r>
        <r>    -5.8737     0.2094     0.0012     0.0000     0.0012     0.0000     0.0000     0.0000     0.0000     0.0000 </r>
        <r>    -5.7930     0.1791     0.0014     0.0000     0.0014     0.0000     0.0000     0.0000     0.0000     0.0000 </r>
        <r>    -5.7123     0.1591     0.0016     0.0000     0.0016     0.0000     0.0000     0.0000     0.0000     0.0000 </r>
        <r>    -5.6315     0.1445     0.0018     0.0000     0.0018     0.0000     0.0000     0.0000     0.0000     0.0000 </r>
        <r>    -5.5508     0.1335     0.0019     0.0000     0.0019     0.0000     0.0000     0.0000     0.0000     0.0000 </r>
        <r>    -5.4701     0.1251     0.0021     0.0000     0.0021     0.0000     0.0000     0.0000     0.0000     0.0000 </r>
        <r>    -5.3894     0.1185     0.0022     0.0000     0.0022     0.0000     0.0000     0.0000     0.0000     0.0000 </r>
        <r>    -5.3087     0.1117     0.0023     0.0000     0.0024     0.0000     0.0000     0.0000     0.0000     0.0000 </r>
        <r>    -5.2279     0.1030     0.0024     0.0000     0.0024     0.0000     0.0000     0.0000     0.0000     0.0000 </r>
        <r>    -5.1472     0.0970     0.0024     0.0000     0.0024     0.0000     0.0000     0.0000     0.0000     0.0000 </r>
        <r>    -5.0665     0.1003     0.0028     0.0000     0.0027     0.0000     0.0000     0.0000     0.0000     0.0000 </r>
        <r>    -4.9858     0.1000     0.0029     0.0000     0.0030     0.0000     0.0000     0.0000     0.0000     0.0000 </r>
        <r>    -4.9051     0.0828     0.0026     0.0000     0.0027     0.0000     0.0000     0.0000     0.0000     0.0000 </r>
        <r>    -4.8244     0.0836     0.0029     0.0000     0.0027     0.0000     0.0000     0.0000     0.0000     0.0000 </r>
        <r>    -4.7436     0.0973     0.0035     0.0000     0.0035     0.0000     0.0000     0.0000     0.0000     0.0000 </r>
        <r>    -4.6629     0.0718     0.0026     0.0000     0.0029     0.0000     0.0000     0.0000     0.0000     0.0000 </r>
        <r>    -4.5822     0.0792     0.0034     0.0000     0.0030     0.0000     0.0000     0.0000     0.0000     0.0000 </r>
        <r>    -4.5015     0.0904     0.0037     0.0000     0.0041     0.0000     0.0000     0.0000     0.0000     0.0000 </r>
        <r>    -4.4208     0.0573     0.0026     0.0000     0.0026     0.0000     0.0000     0.0000     0.0000     0.0000 </r>
        <r>    -4.3401     0.0920     0.0045     0.0000     0.0042     0.0000     0.0000     0.0000     0.0000     0.0000 </r>
        <r>    -4.2593     0.0607     0.0027     0.0000     0.0034     0.0000     0.0000     0.0000     0.0000     0.0000 </r>
        <r>    -4.1786     0.0749     0.0042     0.0000     0.0034     0.0000     0.0000     0.0000     0.0000     0.0000 </r>
        <r>    -4.0979     0.0742     0.0036     0.0000     0.0045     0.0000     0.0000     0.0000     0.0000     0.0000 </r>
        <r>    -4.0172     0.0568     0.0036     0.0000     0.0027     0.0000     0.0000     0.0000     0.0000     0.0000 </r>
        <r>    -3.9365     0.0839     0.0045     0.0000     0.0054     0.0000     0.0000     0.0000     0.0000     0.0000 </r>
        <r>    -3.8557     0.0450     0.0030     0.0000     0.0024     0.0000     0.0000     0.0000     0.0000     0.0000 </r>
        <r>    -3.7750     0.0879     0.0053     0.0000     0.0059     0.0000     0.0000     0.0000     0.0000     0.0000 </r>
        <r>    -3.6943     0.0385     0.0028     0.0000     0.0022     0.0000     0.0000     0.0000     0.0000     0.0000 </r>
        <r>    -3.6136     0.0885     0.0057     0.0000     0.0063     0.0000     0.0000     0.0000     0.0000     0.0000 </r>
        <r>    -3.5329     0.0351     0.0027     0.0000     0.0021     0.0000     0.0000     0.0000     0.0000     0.0000 </r>
        <r>    -3.4522     0.0869     0.0059     0.0000     0.0067     0.0000     0.0000     0.0000     0.0000     0.0000 </r>
        <r>    -3.3714     0.0344     0.0030     0.0000     0.0021     0.0000     0.0000     0.0000     0.0000     0.0000 </r>
        <r>    -3.2907     0.0823     0.0057     0.0000     0.0071     0.0000     0.0000     0.0000     0.0000     0.0000 </r>
        <r>    -3.2100     0.0380     0.0037     0.0000     0.0022     0.0000     0.0000     0.0000     0.0000     0.0000 </r>
        <r>    -3.1293     0.0721     0.0049     0.0000     0.0070     0.0000     0.0000     0.0000     0.0000     0.0000 </r>
        <r>    -3.0486     0.0482     0.0051     0.0000     0.0029     0.0000     0.0000     0.0000     0.0000     0.0000 </r>
        <r>    -2.9679     0.0551     0.0036     0.0000     0.0061     0.0000     0.0000     0.0000     0.0000     0.0000 </r>
        <r>    -2.8871     0.0647     0.0070     0.0000     0.0045     0.0000     0.0000     0.0000     0.0000     0.0000 </r>
        <r>    -2.8064     0.0347     0.0021     0.0000     0.0043     0.0000     0.0000     0.0000     0.0000     0.0000 </r>
        <r>    -2.7257     0.0818     0.0085     0.0000     0.0068     0.0000     0.0000     0.0000     0.0000     0.0000 </r>
        <r>    -2.6450     0.0209     0.0017     0.0000     0.0023     0.0000     0.0000     0.0000     0.0000     0.0000 </r>
        <r>    -2.5643     0.0860     0.0082     0.0000     0.0089     0.0000     0.0000     0.0000     0.0000     0.0000 </r>
        <r>    -2.4835     0.0253     0.0034     0.0000     0.0017     0.0000     0.0000     0.0000     0.0000     0.0000 </r>
        <r>    -2.4028     0.0665     0.0054     0.0000     0.0086     0.0000     0.0000     0.0000     0.0000     0.0000 </r>
        <r>    -2.3221     0.0506     0.0070     0.0000     0.0036     0.0000     0.0000     0.0000     0.0000     0.0000 </r>
        <r>    -2.2414     0.0332     0.0021     0.0000     0.0052     0.0000     0.0000     0.0000     0.0000     0.0000 </r>
        <r>    -2.1607     0.0800     0.0099     0.0000     0.0078     0.0000     0.0000     0.0000     0.0000     0.0000 </r>
        <r>    -2.0800     0.0237     0.0021     0.0000     0.0034     0.0000     0.0000     0.0000     0.0000     0.0000 </r>
        <r>    -1.9992     0.1576     0.0160     0.0000     0.0209     0.0000     0.0000     0.0000     0.0000     0.0000 </r>
        <r>    -1.9185     0.0661     0.0113     0.0000     0.0042     0.0000     0.0000     0.0000     0.0000     0.0000 </r>
        <r>    -1.8378     0.0417     0.0031     0.0000     0.0072     0.0000     0.0000     0.0000     0.0000     0.0000 </r>
        <r>    -1.7571     0.0722     0.0107     0.0000     0.0072     0.0000     0.0000     0.0000     0.0000     0.0000 </r>
        <r>    -1.6764     0.0139     0.0014     0.0000     0.0021     0.0000     0.0000     0.0000     0.0000     0.0000 </r>
        <r>    -1.5957     0.0787     0.0090     0.0000     0.0115     0.0000     0.0000     0.0000     0.0000     0.0000 </r>
        <r>    -1.5149     0.0312     0.0060     0.0000     0.0021     0.0000     0.0000     0.0000     0.0000     0.0000 </r>
        <r>    -1.4342     0.0364     0.0027     0.0000     0.0073     0.0000     0.0000     0.0000     0.0000     0.0000 </r>
        <r>    -1.3535     0.0744     0.0120     0.0000     0.0085     0.0000     0.0000     0.0000     0.0000     0.0000 </r>
        <r>    -1.2728     0.0118     0.0018     0.0000     0.0016     0.0000     0.0000     0.0000     0.0000     0.0000 </r>
        <r>    -1.1921     0.0701     0.0079     0.0000     0.0123     0.0000     0.0000     0.0000     0.0000     0.0000 </r>
        <r>    -1.1113     0.0411     0.0086     0.0000     0.0033     0.0000     0.0000     0.0000     0.0000     0.0000 </r>
        <r>    -1.0306     0.0221     0.0015     0.0000     0.0052     0.0000     0.0000     0.0000     0.0000     0.0000 </r>
        <r>    -0.9499     0.0804     0.0127     0.0000     0.0117     0.0000     0.0000     0.0000     0.0000     0.0000 </r>
        <r>    -0.8692     0.0158     0.0037     0.0000     0.0011     0.0000     0.0000     0.0000     0.0000     0.0000 </r>
        <r>    -0.7885     0.0482     0.0046     0.0000     0.0109     0.0000     0.0000     0.0000     0.0000     0.0000 </r>
        <r>    -0.7078     0.0625     0.0128     0.0000     0.0071     0.0000     0.0000     0.0000     0.0000     0.0000 </r>
        <r>    -0.6270     0.0101     0.0012     0.0000     0.0021     0.0000     0.0000     0.0000     0.0000     0.0000 </r>
        <r>    -0.5463     0.0715     0.0097     0.0000     0.0143     0.0000     0.0000     0.0000     0.0000     0.0000 </r>
        <r>    -0.4656     0.0359     0.0091     0.0000     0.0030     0.0000     0.0000     0.0000     0.0000     0.0000 </r>
        <r>    -0.3849     0.0197     0.0013     0.0000     0.0056     0.0000     0.0000     0.0000     0.0000     0.0000 </r>
        <r>    -0.3042     0.0783     0.0141     0.0000     0.0135     0.0000     0.0000     0.0000     0.0000     0.0000 </r>
        <r>    -0.2234     0.0168     0.0048     0.0000     0.0011     0.0000     0.0000     0.0000     0.0000     0.0000 </r>
        <r>    -0.1427     0.0378     0.0035     0.0000     0.0105     0.0000     0.0000     0.0000     0.0000     0.0000 </r>
        <r>    -0.0620     0.0684     0.0154     0.0000     0.0099     0.0000     0.0000     0.0000     0.0000     0.0000 </r>
        <r>     0.0187     0.0086     0.0020     0.0000     0.0012     0.0000     0.0000     0.0000     0.0000     0.0000 </r>
        <r>     0.0994     0.0569     0.0073     0.0000     0.0148     0.0000     0.0000     0.0000     0.0000     0.0000 </r>
        <r>     0.1801     0.0501     0.0136     0.0000     0.0059     0.0000     0.0000     0.0000     0.0000     0.0000 </r>
        <r>     0.2609     0.0094     0.0010     0.0000     0.0028     0.0000     0.0000     0.0000     0.0000     0.0000 </r>
        <r>     0.3416     0.0704     0.0119     0.0000     0.0168     0.0000     0.0000     0.0000     0.0000     0.0000 </r>
        <r>     0.4223     0.0320     0.0101     0.0000     0.0030     0.0000     0.0000     0.0000     0.0000     0.0000 </r>
        <r>     0.5030     0.0164     0.0012     0.0000     0.0058     0.0000     0.0000     0.0000     0.0000     0.0000 </r>
        <r>     0.5837     0.0750     0.0158     0.0000     0.0163     0.0000     0.0000     0.0000     0.0000     0.0000 </r>
        <r>     0.6644     0.0185     0.0065     0.0000     0.0014     0.0000     0.0000     0.0000     0.0000     0.0000 </r>
        <r>     0.7452     0.0273     0.0026     0.0000     0.0098     0.0000     0.0000     0.0000     0.0000     0.0000 </r>
        <r>     0.8259     0.0710     0.0180     0.0000     0.0140     0.0000     0.0000     0.0000     0.0000     0.0000 </r>
        <r>     0.9066     0.0103     0.0037     0.0000     0.0009     0.0000     0.0000     0.0000     0.0000     0.0000 </r>
        <r>     0.9873     0.0399     0.0050     0.0000     0.0140     0.0000     0.0000     0.0000     0.0000     0.0000 </r>
        <r>     1.0680     0.0612     0.0183     0.0000     0.0107     0.0000     0.0000     0.0000     0.0000     0.0000 </r>
        <r>     1.1488     0.0068     0.0020     0.0000     0.0013     0.0000     0.0000     0.0000     0.0000     0.0000 </r>
        <r>     1.2295     0.0520     0.0084     0.0000     0.0176     0.0000     0.0000     0.0000     0.0000     0.0000 </r>
        <r>     1.3102     0.0487     0.0168     0.0000     0.0075     0.0000     0.0000     0.0000     0.0000     0.0000 </r>
        <r>     1.3909     0.0069     0.0011     0.0000     0.0025     0.0000     0.0000     0.0000     0.0000     0.0000 </r>
        <r>     1.4716     0.0616     0.0124     0.0000     0.0201     0.0000     0.0000     0.0000     0.0000     0.0000 </r>
        <r>     1.5523     0.0359     0.0141     0.0000     0.0048     0.0000     0.0000     0.0000     0.0000     0.0000 </r>
        <r>     1.6331     0.0100     0.0010     0.0000     0.0045     0.0000     0.0000     0.0000     0.0000     0.0000 </r>
        <r>     1.7138     0.0673     0.0165     0.0000     0.0209     0.0000     0.0000     0.0000     0.0000     0.0000 </r>
        <r>     1.7945     0.0247     0.0109     0.0000     0.0028     0.0000     0.0000     0.0000     0.0000     0.0000 </r>
        <r>     1.8752     0.0155     0.0016     0.0000     0.0075     0.0000     0.0000     0.0000     0.0000     0.0000 </r>
        <r>     1.9559     0.0685     0.0200     0.0000     0.0202     0.0000     0.0000     0.0000     0.0000     0.0000 </r>
        <r>     2.0366     0.0159     0.0077     0.0000     0.0016     0.0000     0.0000     0.0000     0.0000     0.0000 </r>
        <r>     2.1174     0.0230     0.0030     0.0000     0.0114     0.0000     0.0000     0.0000     0.0000     0.0000 </r>
        <r>     2.1981     0.0650     0.0224     0.0000     0.0181     0.0000     0.0000     0.0000     0.0000     0.0000 </r>
        <r>     2.2788     0.0097     0.0049     0.0000     0.0011     0.0000     0.0000     0.0000     0.0000     0.0000 </r>
        <r>     2.3595     0.0321     0.0054     0.0000     0.0159     0.0000     0.0000     0.0000     0.0000     0.0000 </r>
        <r>     2.4402     0.0575     0.0231     0.0000     0.0149     0.0000     0.0000     0.0000     0.0000     0.0000 </r>
        <r>     2.5210     0.0062     0.0029     0.0000     0.0013     0.0000     0.0000     0.0000     0.0000     0.0000 </r>
        <r>     2.6017     0.0418     0.0091     0.0000     0.0205     0.0000     0.0000     0.0000     0.0000     0.0000 </r>
        <r>     2.6824     0.0470     0.0219     0.0000     0.0112     0.0000     0.0000     0.0000     0.0000     0.0000 </r>
        <r>     2.7631     0.0054     0.0016     0.0000     0.0023     0.0000     0.0000     0.0000     0.0000     0.0000 </r>
        <r>     2.8438     0.0507     0.0141     0.0010     0.0252     0.0000     0.0000     0.0000     0.0000     0.0000 </r>
        <r>     2.9245     0.0349     0.0365     0.1039     0.0936     0.0000     0.0000     0.0000     0.0000     0.0000 </r>
        <r>     3.0053     0.0074     0.2158     0.4709     0.2609     0.0000     0.0000     0.0000     0.0000     0.0000 </r>
        <r>     3.0860     0.0569     0.2256     0.3615     0.1821     0.0000     0.0000     0.0000     0.0000     0.0000 </r>
        <r>     3.1667     0.0230     0.1420     0.2404     0.1170     0.0000     0.0000     0.0000     0.0000     0.0000 </r>
        <r>     3.2474     0.0127     0.1042     0.1962     0.1032     0.0000     0.0000     0.0000     0.0000     0.0000 </r>
        <r>     3.3281     0.0580     0.1133     0.1707     0.1083     0.0000     0.0000     0.0000     0.0000     0.0000 </r>
        <r>     3.4088     0.0131     0.0880     0.1535     0.0771     0.0000     0.0000     0.0000     0.0000     0.0000 </r>
        <r>     3.4896     0.0215     0.0769     0.1409     0.0848     0.0000     0.0000     0.0000     0.0000     0.0000 </r>
        <r>     3.5703     0.0522     0.0952     0.1311     0.0859     0.0000     0.0000     0.0000     0.0000     0.0000 </r>
        <r>     3.6510     0.0068     0.0677     0.1233     0.0624     0.0000     0.0000     0.0000     0.0000     0.0000 </r>
        <r>     3.7317     0.0331     0.0704     0.1172     0.0816     0.0000     0.0000     0.0000     0.0000     0.0000 </r>
        <r>     3.8124     0.0398     0.0840     0.1122     0.0698     0.0000     0.0000     0.0000     0.0000     0.0000 </r>
        <r>     3.8932     0.0055     0.0569     0.1084     0.0576     0.0000     0.0000     0.0000     0.0000     0.0000 </r>
        <r>     3.9739     0.0439     0.0720     0.1040     0.0832     0.0000     0.0000     0.0000     0.0000     0.0000 </r>
        <r>     4.0546     0.0237     0.0689     0.0983     0.0575     0.0000     0.0000     0.0000     0.0000     0.0000 </r>
        <r>     4.1353     0.0108     0.0516     0.0944     0.0573     0.0000     0.0000     0.0000     0.0000     0.0000 </r>
        <r>     4.2160     0.0467     0.0806     0.0964     0.0757     0.0000     0.0000     0.0000     0.0000     0.0000 </r>
        <r>     4.2967     0.0102     0.0583     0.0971     0.0518     0.0000     0.0000     0.0000     0.0000     0.0000 </r>
        <r>     4.3775     0.0238     0.0527     0.0878     0.0718     0.0000     0.0000     0.0000     0.0000     0.0000 </r>
        <r>     4.4582     0.0352     0.0758     0.0839     0.0603     0.0000     0.0000     0.0000     0.0000     0.0000 </r>
        <r>     4.5389     0.0061     0.0526     0.0940     0.0498     0.0000     0.0000     0.0000     0.0000     0.0000 </r>
        <r>     4.6196     0.0367     0.0695     0.0895     0.0835     0.0000     0.0000     0.0000     0.0000     0.0000 </r>
        <r>     4.7003     0.0153     0.0579     0.0767     0.0472     0.0000     0.0000     0.0000     0.0000     0.0000 </r>
        <r>     4.7810     0.0169     0.0568     0.0897     0.0647     0.0000     0.0000     0.0000     0.0000     0.0000 </r>
        <r>     4.8618     0.0302     0.0804     0.0914     0.0722     0.0000     0.0000     0.0000     0.0000     0.0000 </r>
        <r>     4.9425     0.0073     0.0432     0.0748     0.0525     0.0000     0.0000     0.0000     0.0000     0.0000 </r>
        <r>     5.0232     0.0296     0.0807     0.0883     0.0773     0.0000     0.0000     0.0000     0.0000     0.0000 </r>
        <r>     5.1039     0.0097     0.0623     0.0940     0.0567     0.0000     0.0000     0.0000     0.0000     0.0000 </r>
        <r>     5.1846     0.0214     0.0649     0.0784     0.0852     0.0000     0.0000     0.0000     0.0000     0.0000 </r>
        <r>     5.2654     0.0131     0.0738     0.0891     0.0558     0.0000     0.0000     0.0000     0.0000     0.0000 </r>
        <r>     5.3461     0.0160     0.0756     0.1003     0.0902     0.0000     0.0000     0.0000     0.0000     0.0000 </r>
        <r>     5.4268     0.0121     0.0792     0.0942     0.0735     0.0000     0.0000     0.0000     0.0000     0.0000 </r>
        <r>     5.5075     0.0133     0.0858     0.0991     0.0997     0.0000     0.0000     0.0000     0.0000     0.0000 </r>
        <r>     5.5882     0.0091     0.0924     0.1147     0.0992     0.0000     0.0000     0.0000     0.0000     0.0000 </r>
        <r>     5.6689     0.0089     0.1211     0.1357     0.1335     0.0000     0.0000     0.0000     0.0000     0.0000 </r>
        <r>     5.7497     0.0052     0.1787     0.2023     0.2394     0.0000     0.0000     0.0000     0.0000     0.0000 </r>
        <r>     5.8304     0.0014     0.2371     0.2597     0.1438     0.0000     0.0000     0.0000     0.0000     0.0000 </r>
        <r>     5.9111     0.0000     0.0300     0.0323     0.0038     0.0000     0.0000     0.0000     0.0000     0.0000 </r>
        <r>     5.9918     0.0000     0.0001     0.0001     0.0000     0.0000     0.0000     0.0000     0.0000     0.0000 </r>
        <r>     6.0725     0.0000     0.0000     0.0000     0.0000     0.0000     0.0000     0.0000     0.0000     0.0000 </r>
        <r>     6.1533     0.0000     0.0000     0.0000     0.0000     0.0000     0.0000     0.0000     0.0000     0.0000 </r>
        <r>     6.2340     0.0000     0.0000     0.0000     0.0000     0.0000     0.0000     0.0000     0.0000     0.0000 </r>
        <r>     6.3147     0.0117     0.0092     0.0000     0.0006     0.0000     0.0000     0.0000     0.0000     0.0000 </r>
        <r>     6.3954     0.1423     0.0822     0.0000     0.0367     0.0000     0.0000     0.0000     0.0000     0.0000 </r>
        <r>     6.4761     0.2007     0.0775     0.0000     0.0927     0.0000     0.0000     0.0000     0.0000     0.0000 </r>
        <r>     6.5568     0.1428     0.0575     0.0000     0.0671     0.0000     0.0000     0.0000     0.0000     0.0000 </r>
        <r>     6.6376     0.0961     0.0431     0.0000     0.0487     0.0000     0.0000     0.0000     0.0000     0.0000 </r>
        <r>     6.7183     0.0768     0.0385     0.0000     0.0405     0.0000     0.0000     0.0000     0.0000     0.0000 </r>
        <r>     6.7990     0.0668     0.0360     0.0000     0.0372     0.0000     0.0000     0.0000     0.0000     0.0000 </r>
        <r>     6.8797     0.0595     0.0342     0.0000     0.0350     0.0000     0.0000     0.0000     0.0000     0.0000 </r>
        <r>     6.9604     0.0541     0.0332     0.0000     0.0337     0.0000     0.0000     0.0000     0.0000     0.0000 </r>
        <r>     7.0411     0.0495     0.0327     0.0000     0.0326     0.0000     0.0000     0.0000     0.0000     0.0000 </r>
        <r>     7.1219     0.0443     0.0316     0.0000     0.0317     0.0000     0.0000     0.0000     0.0000     0.0000 </r>
        <r>     7.2026     0.0414     0.0309     0.0000     0.0320     0.0000     0.0000     0.0000     0.0000     0.0000 </r>
        <r>     7.2833     0.0413     0.0321     0.0000     0.0326     0.0000     0.0000     0.0000     0.0000     0.0000 </r>
        <r>     7.3640     0.0352     0.0316     0.0000     0.0314     0.0000     0.0000     0.0000     0.0000     0.0000 </r>
        <r>     7.4447     0.0336     0.0315     0.0000     0.0328     0.0000     0.0000     0.0000     0.0000     0.0000 </r>
        <r>     7.5255     0.0356     0.0350     0.0000     0.0334     0.0000     0.0000     0.0000     0.0000     0.0000 </r>
        <r>     7.6062     0.0259     0.0325     0.0000     0.0316     0.0000     0.0000     0.0000     0.0000     0.0000 </r>
        <r>     7.6869     0.0331     0.0361     0.0000     0.0357     0.0000     0.0000     0.0000     0.0000     0.0000 </r>
        <r>     7.7676     0.0228     0.0345     0.0000     0.0339     0.0000     0.0000     0.0000     0.0000     0.0000 </r>
        <r>     7.8483     0.0289     0.0382     0.0000     0.0392     0.0000     0.0000     0.0000     0.0000     0.0000 </r>
        <r>     7.9290     0.0210     0.0394     0.0000     0.0385     0.0000     0.0000     0.0000     0.0000     0.0000 </r>
        <r>     8.0098     0.0254     0.0441     0.0000     0.0440     0.0000     0.0000     0.0000     0.0000     0.0000 </r>
        <r>     8.0905     0.0178     0.0473     0.0000     0.0454     0.0000     0.0000     0.0000     0.0000     0.0000 </r>
        <r>     8.1712     0.0233     0.0567     0.0000     0.0550     0.0000     0.0000     0.0000     0.0000     0.0000 </r>
        <r>     8.2519     0.0130     0.0700     0.0007     0.0643     0.0000     0.0000     0.0000     0.0000     0.0000 </r>
        <r>     8.3326     0.0218     0.1549     0.0623     0.1267     0.0000     0.0000     0.0000     0.0000     0.0000 </r>
        <r>     8.4133     0.0059     0.1573     0.1777     0.1826     0.0000     0.0000     0.0000     0.0000     0.0000 </r>
        <r>     8.4941     0.0208     0.0622     0.1049     0.0712     0.0000     0.0000     0.0000     0.0000     0.0000 </r>
        <r>     8.5748     0.0045     0.0389     0.0746     0.0400     0.0000     0.0000     0.0000     0.0000     0.0000 </r>
        <r>     8.6555     0.0196     0.0387     0.0622     0.0431     0.0000     0.0000     0.0000     0.0000     0.0000 </r>
        <r>     8.7362     0.0080     0.0401     0.0732     0.0361     0.0000     0.0000     0.0000     0.0000     0.0000 </r>
        <r>     8.8169     0.0130     0.0248     0.0408     0.0273     0.0000     0.0000     0.0000     0.0000     0.0000 </r>
        <r>     8.8977     0.0163     0.0414     0.0685     0.0414     0.0000     0.0000     0.0000     0.0000     0.0000 </r>
        <r>     8.9784     0.0054     0.0200     0.0371     0.0184     0.0000     0.0000     0.0000     0.0000     0.0000 </r>
        <r>     9.0591     0.0581     0.0418     0.0640     0.0439     0.0000     0.0000     0.0000     0.0000     0.0000 </r>
        <r>     9.1398     0.3461     0.0175     0.0311     0.0154     0.0000     0.0000     0.0000     0.0000     0.0000 </r>
        <r>     9.2205     0.2958     0.0440     0.0672     0.0454     0.0000     0.0000     0.0000     0.0000     0.0000 </r>
        <r>     9.3012     0.1941     0.0192     0.0216     0.0192     0.0000     0.0000     0.0000     0.0000     0.0000 </r>
        <r>     9.3820     0.1386     0.0451     0.0725     0.0421     0.0000     0.0000     0.0000     0.0000     0.0000 </r>
        <r>     9.4627     0.1408     0.0223     0.0179     0.0268     0.0000     0.0000     0.0000     0.0000     0.0000 </r>
        <r>     9.5434     0.1397     0.0436     0.0657     0.0354     0.0000     0.0000     0.0000     0.0000     0.0000 </r>
        <r>     9.6241     0.1015     0.0295     0.0309     0.0377     0.0000     0.0000     0.0000     0.0000     0.0000 </r>
        <r>     9.7048     0.1460     0.0344     0.0391     0.0273     0.0000     0.0000     0.0000     0.0000     0.0000 </r>
        <r>     9.7855     0.0893     0.0444     0.0588     0.0484     0.0000     0.0000     0.0000     0.0000     0.0000 </r>
        <r>     9.8663     0.1480     0.0259     0.0146     0.0264     0.0000     0.0000     0.0000     0.0000     0.0000 </r>
        <r>     9.9470     0.1090     0.0573     0.0709     0.0506     0.0000     0.0000     0.0000     0.0000     0.0000 </r>
        <r>    10.0277     0.1421     0.0323     0.0215     0.0389     0.0000     0.0000     0.0000     0.0000     0.0000 </r>
        <r>    10.1084     0.1842     0.0572     0.0413     0.0513     0.0000     0.0000     0.0000     0.0000     0.0000 </r>
        <r>    10.1891     0.2557     0.0810     0.0568     0.0814     0.0000     0.0000     0.0000     0.0000     0.0000 </r>
        <r>    10.2699     0.1020     0.0258     0.0120     0.0283     0.0000     0.0000     0.0000     0.0000     0.0000 </r>
        <r>    10.3506     0.0016     0.0372     0.0675     0.0289     0.0000     0.0000     0.0000     0.0000     0.0000 </r>
        <r>    10.4313     0.0000     0.0111     0.0273     0.0187     0.0000     0.0000     0.0000     0.0000     0.0000 </r>
        <r>    10.5120     0.0000     0.0136     0.0277     0.0127     0.0000     0.0000     0.0000     0.0000     0.0000 </r>
        <r>    10.5927     0.0000     0.0354     0.0662     0.0313     0.0000     0.0000     0.0000     0.0000     0.0000 </r>
        <r>    10.6734     0.0000     0.0033     0.0119     0.0093     0.0000     0.0000     0.0000     0.0000     0.0000 </r>
        <r>    10.7542     0.0000     0.0278     0.0509     0.0223     0.0000     0.0000     0.0000     0.0000     0.0000 </r>
        <r>    10.8349     0.0000     0.0226     0.0473     0.0254     0.0000     0.0000     0.0000     0.0000     0.0000 </r>
        <r>    10.9156     0.0000     0.0042     0.0119     0.0079     0.0000     0.0000     0.0000     0.0000     0.0000 </r>
        <r>    10.9963     0.0000     0.0374     0.0657     0.0283     0.0000     0.0000     0.0000     0.0000     0.0000 </r>
        <r>    11.0770     0.0000     0.0105     0.0280     0.0174     0.0000     0.0000     0.0000     0.0000     0.0000 </r>
        <r>    11.1577     0.0000     0.0103     0.0223     0.0129     0.0000     0.0000     0.0000     0.0000     0.0000 </r>
        <r>    11.2385     0.0000     0.0375     0.0667     0.0290     0.0000     0.0000     0.0000     0.0000     0.0000 </r>
        <r>    11.3192     0.0000     0.0041     0.0158     0.0110     0.0000     0.0000     0.0000     0.0000     0.0000 </r>
        <r>    11.3999     0.0000     0.0192     0.0365     0.0194     0.0000     0.0000     0.0000     0.0000     0.0000 </r>
        <r>    11.4806     0.0000     0.0309     0.0584     0.0261     0.0000     0.0000     0.0000     0.0000     0.0000 </r>
        <r>    11.5613     0.0000     0.0021     0.0106     0.0081     0.0000     0.0000     0.0000     0.0000     0.0000 </r>
        <r>    11.6421     0.0000     0.0282     0.0494     0.0243     0.0000     0.0000     0.0000     0.0000     0.0000 </r>
        <r>    11.7228     0.0000     0.0222     0.0472     0.0220     0.0000     0.0000     0.0000     0.0000     0.0000 </r>
        <r>    11.8035     0.0000     0.0026     0.0105     0.0086     0.0000     0.0000     0.0000     0.0000     0.0000 </r>
        <r>    11.8842     0.0000     0.0346     0.0579     0.0264     0.0000     0.0000     0.0000     0.0000     0.0000 </r>
        <r>    11.9649     0.0000     0.0146     0.0367     0.0181     0.0000     0.0000     0.0000     0.0000     0.0000 </r>
        <r>    12.0456     0.0000     0.0046     0.0136     0.0112     0.0000     0.0000     0.0000     0.0000     0.0000 </r>
        <r>    12.1264     0.0000     0.0379     0.0618     0.0262     0.0000     0.0000     0.0000     0.0000     0.0000 </r>
        <r>    12.2071     0.0000     0.0091     0.0286     0.0150     0.0000     0.0000     0.0000     0.0000     0.0000 </r>
        <r>    12.2878     0.0000     0.0070     0.0180     0.0148     0.0000     0.0000     0.0000     0.0000     0.0000 </r>
        <r>    12.3685     0.0000     0.0385     0.0624     0.0247     0.0000     0.0000     0.0000     0.0000     0.0000 </r>
        <r>    12.4492     0.0000     0.0062     0.0234     0.0127     0.0000     0.0000     0.0000     0.0000     0.0000 </r>
        <r>    12.5300     0.0000     0.0102     0.0231     0.0184     0.0000     0.0000     0.0000     0.0000     0.0000 </r>
        <r>    12.6107     0.0000     0.0374     0.0613     0.0228     0.0000     0.0000     0.0000     0.0000     0.0000 </r>
        <r>    12.6914     0.0000     0.0040     0.0190     0.0109     0.0000     0.0000     0.0000     0.0000     0.0000 </r>
        <r>    12.7721     0.0000     0.0135     0.0276     0.0210     0.0000     0.0000     0.0000     0.0000     0.0000 </r>
        <r>    12.8528     0.0000     0.0353     0.0594     0.0212     0.0000     0.0000     0.0000     0.0000     0.0000 </r>
        <r>    12.9335     0.0000     0.0027     0.0163     0.0100     0.0000     0.0000     0.0000     0.0000     0.0000 </r>
        <r>    13.0143     0.0000     0.0164     0.0315     0.0230     0.0000     0.0000     0.0000     0.0000     0.0000 </r>
        <r>    13.0950     0.0000     0.0330     0.0571     0.0196     0.0000     0.0000     0.0000     0.0000     0.0000 </r>
        <r>    13.1757     0.0000     0.0020     0.0145     0.0097     0.0000     0.0000     0.0000     0.0000     0.0000 </r>
        <r>    13.2564     0.0000     0.0189     0.0344     0.0244     0.0000     0.0000     0.0000     0.0000     0.0000 </r>
        <r>    13.3371     0.0000     0.0309     0.0551     0.0182     0.0000     0.0000     0.0000     0.0000     0.0000 </r>
        <r>    13.4178     0.0000     0.0016     0.0135     0.0098     0.0000     0.0000     0.0000     0.0000     0.0000 </r>
        <r>    13.4986     0.0000     0.0212     0.0369     0.0251     0.0000     0.0000     0.0000     0.0000     0.0000 </r>
        <r>    13.5793     0.0000     0.0288     0.0533     0.0173     0.0000     0.0000     0.0000     0.0000     0.0000 </r>
        <r>    13.6600     0.0000     0.0014     0.0128     0.0099     0.0000     0.0000     0.0000     0.0000     0.0000 </r>
        <r>    13.7407     0.0000     0.0225     0.0380     0.0253     0.0000     0.0000     0.0000     0.0000     0.0000 </r>
        <r>    13.8214     0.0000     0.0276     0.0522     0.0165     0.0000     0.0000     0.0000     0.0000     0.0000 </r>
        <r>    13.9022     0.0000     0.0013     0.0127     0.0103     0.0000     0.0000     0.0000     0.0000     0.0000 </r>
        <r>    13.9829     0.0000     0.0232     0.0386     0.0253     0.0000     0.0000     0.0000     0.0000     0.0000 </r>
        <r>    14.0636     0.0000     0.0270     0.0516     0.0160     0.0000     0.0000     0.0000     0.0000     0.0000 </r>
        <r>    14.1443     0.0000     0.0012     0.0128     0.0107     0.0000     0.0000     0.0000     0.0000     0.0000 </r>
        <r>    14.2250     0.0000     0.0234     0.0387     0.0254     0.0000     0.0000     0.0000     0.0000     0.0000 </r>
        <r>    14.3057     0.0000     0.0271     0.0517     0.0157     0.0000     0.0000     0.0000     0.0000     0.0000 </r>
        <r>    14.3865     0.0000     0.0012     0.0132     0.0112     0.0000     0.0000     0.0000     0.0000     0.0000 </r>
        <r>    14.4672     0.0000     0.0240     0.0391     0.0254     0.0000     0.0000     0.0000     0.0000     0.0000 </r>
        <r>    14.5479     0.0000     0.0270     0.0517     0.0155     0.0000     0.0000     0.0000     0.0000     0.0000 </r>
        <r>    14.6286     0.0000     0.0012     0.0138     0.0119     0.0000     0.0000     0.0000     0.0000     0.0000 </r>
        <r>    14.7093     0.0000     0.0246     0.0397     0.0255     0.0000     0.0000     0.0000     0.0000     0.0000 </r>
        <r>    14.7900     0.0000     0.0271     0.0518     0.0155     0.0000     0.0000     0.0000     0.0000     0.0000 </r>
        <r>    14.8708     0.0000     0.0012     0.0145     0.0126     0.0000     0.0000     0.0000     0.0000     0.0000 </r>
        <r>    14.9515     0.0000     0.0255     0.0412     0.0258     0.0000     0.0000     0.0000     0.0000     0.0000 </r>
        <r>    15.0322     0.0000     0.0272     0.0528     0.0161     0.0000     0.0000     0.0000     0.0000     0.0000 </r>
        <r>    15.1129     0.0000     0.0015     0.0154     0.0144     0.0000     0.0000     0.0000     0.0000     0.0000 </r>
        <r>    15.1936     0.0000     0.0296     0.0461     0.0257     0.0000     0.0000     0.0000     0.0000     0.0000 </r>
        <r>    15.2744     0.0000     0.0249     0.0519     0.0171     0.0000     0.0000     0.0000     0.0000     0.0000 </r>
        <r>    15.3551     0.0000     0.0027     0.0180     0.0185     0.0000     0.0000     0.0000     0.0000     0.0000 </r>
        <r>    15.4358     0.0000     0.0386     0.0575     0.0248     0.0000     0.0000     0.0000     0.0000     0.0000 </r>
        <r>    15.5165     0.0000     0.0177     0.0460     0.0191     0.0000     0.0000     0.0000     0.0000     0.0000 </r>
        <r>    15.5972     0.0000     0.0118     0.0319     0.0273     0.0000     0.0000     0.0000     0.0000     0.0000 </r>
        <r>    15.6779     0.0000     0.0466     0.0757     0.0264     0.0000     0.0000     0.0000     0.0000     0.0000 </r>
        <r>    15.7587     0.0000     0.0142     0.0471     0.0319     0.0000     0.0000     0.0000     0.0000     0.0000 </r>
        <r>    15.8394     0.0000     0.0668     0.1301     0.0644     0.0000     0.0000     0.0000     0.0000     0.0000 </r>
        <r>    15.9201     0.0000     0.0628     0.1202     0.0603     0.0000     0.0000     0.0000     0.0000     0.0000 </r>
        <r>    16.0008     0.0000     0.0055     0.0080     0.0030     0.0000     0.0000     0.0000     0.0000     0.0000 </r>
        <r>    16.0815     0.0000     0.0000     0.0000     0.0000     0.0000     0.0000     0.0000     0.0000     0.0000 </r>
        <r>    16.1622     0.0000     0.0000     0.0000     0.0000     0.0000     0.0000     0.0000     0.0000     0.0000 </r>
        <r>    16.2430     0.0000     0.0000     0.0000     0.0000     0.0000     0.0000     0.0000     0.0000     0.0000 </r>
        <r>    16.3237     0.0000     0.0000     0.0000     0.0000     0.0000     0.0000     0.0000     0.0000     0.0000 </r>
        <r>    16.4044     0.0000     0.0000     0.0000     0.0000     0.0000     0.0000     0.0000     0.0000     0.0000 </r>
        <r>    16.4851     0.0000     0.0000     0.0000     0.0000     0.0000     0.0000     0.0000     0.0000     0.0000 </r>
        <r>    16.5658     0.0000     0.0000     0.0000     0.0000     0.0000     0.0000     0.0000     0.0000     0.0000 </r>
        <r>    16.6466     0.0000     0.0000     0.0000     0.0000     0.0000     0.0000     0.0000     0.0000     0.0000 </r>
        <r>    16.7273     0.0000     0.0000     0.0000     0.0000     0.0000     0.0000     0.0000     0.0000     0.0000 </r>
        <r>    16.8080     0.0000     0.0000     0.0000     0.0000     0.0000     0.0000     0.0000     0.0000     0.0000 </r>
        <r>    16.8887     0.0000     0.0000     0.0000     0.0000     0.0000     0.0000     0.0000     0.0000     0.0000 </r>
        <r>    16.9694     0.0000     0.0000     0.0000     0.0000     0.0000     0.0000     0.0000     0.0000     0.0000 </r>
       </set>
      </set>
      <set comment="ion 2">
       <set comment="spin 1">
        <r>    -7.2459     0.0000     0.0000     0.0000     0.0000     0.0000     0.0000     0.0000     0.0000     0.0000 </r>
        <r>    -7.1652     0.0000     0.0000     0.0000     0.0000     0.0000     0.0000     0.0000     0.0000     0.0000 </r>
        <r>    -7.0845     0.0000     0.0000     0.0000     0.0000     0.0000     0.0000     0.0000     0.0000     0.0000 </r>
        <r>    -7.0037     0.0000     0.0000     0.0000     0.0000     0.0000     0.0000     0.0000     0.0000     0.0000 </r>
        <r>    -6.9230     0.0000     0.0000     0.0000     0.0000     0.0000     0.0000     0.0000     0.0000     0.0000 </r>
        <r>    -6.8423     0.0000     0.0000     0.0000     0.0000     0.0000     0.0000     0.0000     0.0000     0.0000 </r>
        <r>    -6.7616     0.0000     0.0000     0.0000     0.0000     0.0000     0.0000     0.0000     0.0000     0.0000 </r>
        <r>    -6.6809     0.0000     0.0000     0.0000     0.0000     0.0000     0.0000     0.0000     0.0000     0.0000 </r>
        <r>    -6.6001     0.0000     0.0000     0.0000     0.0000     0.0000     0.0000     0.0000     0.0000     0.0000 </r>
        <r>    -6.5194     0.0000     0.0000     0.0000     0.0000     0.0000     0.0000     0.0000     0.0000     0.0000 </r>
        <r>    -6.4387     0.0000     0.0000     0.0000     0.0000     0.0000     0.0000     0.0000     0.0000     0.0000 </r>
        <r>    -6.3580     0.0000     0.0000     0.0000     0.0000     0.0000     0.0000     0.0000     0.0000     0.0000 </r>
        <r>    -6.2773     0.0000     0.0000     0.0000     0.0000     0.0000     0.0000     0.0000     0.0000     0.0000 </r>
        <r>    -6.1966     0.0252     0.0000     0.0000     0.0000     0.0000     0.0000     0.0000     0.0000     0.0000 </r>
        <r>    -6.1158     0.4051     0.0002     0.0000     0.0002     0.0000     0.0000     0.0000     0.0000     0.0000 </r>
        <r>    -6.0351     0.4416     0.0006     0.0000     0.0006     0.0000     0.0000     0.0000     0.0000     0.0000 </r>
        <r>    -5.9544     0.2660     0.0010     0.0000     0.0010     0.0000     0.0000     0.0000     0.0000     0.0000 </r>
        <r>    -5.8737     0.2094     0.0012     0.0000     0.0012     0.0000     0.0000     0.0000     0.0000     0.0000 </r>
        <r>    -5.7930     0.1791     0.0014     0.0000     0.0014     0.0000     0.0000     0.0000     0.0000     0.0000 </r>
        <r>    -5.7123     0.1591     0.0016     0.0000     0.0016     0.0000     0.0000     0.0000     0.0000     0.0000 </r>
        <r>    -5.6315     0.1445     0.0018     0.0000     0.0018     0.0000     0.0000     0.0000     0.0000     0.0000 </r>
        <r>    -5.5508     0.1335     0.0019     0.0000     0.0019     0.0000     0.0000     0.0000     0.0000     0.0000 </r>
        <r>    -5.4701     0.1251     0.0021     0.0000     0.0021     0.0000     0.0000     0.0000     0.0000     0.0000 </r>
        <r>    -5.3894     0.1185     0.0022     0.0000     0.0022     0.0000     0.0000     0.0000     0.0000     0.0000 </r>
        <r>    -5.3087     0.1117     0.0023     0.0000     0.0024     0.0000     0.0000     0.0000     0.0000     0.0000 </r>
        <r>    -5.2279     0.1030     0.0024     0.0000     0.0024     0.0000     0.0000     0.0000     0.0000     0.0000 </r>
        <r>    -5.1472     0.0970     0.0024     0.0000     0.0024     0.0000     0.0000     0.0000     0.0000     0.0000 </r>
        <r>    -5.0665     0.1003     0.0028     0.0000     0.0027     0.0000     0.0000     0.0000     0.0000     0.0000 </r>
        <r>    -4.9858     0.1000     0.0029     0.0000     0.0030     0.0000     0.0000     0.0000     0.0000     0.0000 </r>
        <r>    -4.9051     0.0828     0.0026     0.0000     0.0027     0.0000     0.0000     0.0000     0.0000     0.0000 </r>
        <r>    -4.8244     0.0836     0.0029     0.0000     0.0027     0.0000     0.0000     0.0000     0.0000     0.0000 </r>
        <r>    -4.7436     0.0973     0.0035     0.0000     0.0035     0.0000     0.0000     0.0000     0.0000     0.0000 </r>
        <r>    -4.6629     0.0718     0.0026     0.0000     0.0029     0.0000     0.0000     0.0000     0.0000     0.0000 </r>
        <r>    -4.5822     0.0792     0.0034     0.0000     0.0030     0.0000     0.0000     0.0000     0.0000     0.0000 </r>
        <r>    -4.5015     0.0904     0.0037     0.0000     0.0041     0.0000     0.0000     0.0000     0.0000     0.0000 </r>
        <r>    -4.4208     0.0573     0.0026     0.0000     0.0026     0.0000     0.0000     0.0000     0.0000     0.0000 </r>
        <r>    -4.3401     0.0920     0.0045     0.0000     0.0042     0.0000     0.0000     0.0000     0.0000     0.0000 </r>
        <r>    -4.2593     0.0607     0.0027     0.0000     0.0034     0.0000     0.0000     0.0000     0.0000     0.0000 </r>
        <r>    -4.1786     0.0749     0.0042     0.0000     0.0034     0.0000     0.0000     0.0000     0.0000     0.0000 </r>
        <r>    -4.0979     0.0742     0.0036     0.0000     0.0045     0.0000     0.0000     0.0000     0.0000     0.0000 </r>
        <r>    -4.0172     0.0568     0.0036     0.0000     0.0027     0.0000     0.0000     0.0000     0.0000     0.0000 </r>
        <r>    -3.9365     0.0839     0.0045     0.0000     0.0054     0.0000     0.0000     0.0000     0.0000     0.0000 </r>
        <r>    -3.8557     0.0450     0.0030     0.0000     0.0024     0.0000     0.0000     0.0000     0.0000     0.0000 </r>
        <r>    -3.7750     0.0879     0.0053     0.0000     0.0059     0.0000     0.0000     0.0000     0.0000     0.0000 </r>
        <r>    -3.6943     0.0385     0.0028     0.0000     0.0022     0.0000     0.0000     0.0000     0.0000     0.0000 </r>
        <r>    -3.6136     0.0885     0.0057     0.0000     0.0063     0.0000     0.0000     0.0000     0.0000     0.0000 </r>
        <r>    -3.5329     0.0351     0.0027     0.0000     0.0021     0.0000     0.0000     0.0000     0.0000     0.0000 </r>
        <r>    -3.4522     0.0869     0.0059     0.0000     0.0067     0.0000     0.0000     0.0000     0.0000     0.0000 </r>
        <r>    -3.3714     0.0344     0.0030     0.0000     0.0021     0.0000     0.0000     0.0000     0.0000     0.0000 </r>
        <r>    -3.2907     0.0823     0.0057     0.0000     0.0071     0.0000     0.0000     0.0000     0.0000     0.0000 </r>
        <r>    -3.2100     0.0380     0.0037     0.0000     0.0022     0.0000     0.0000     0.0000     0.0000     0.0000 </r>
        <r>    -3.1293     0.0721     0.0049     0.0000     0.0070     0.0000     0.0000     0.0000     0.0000     0.0000 </r>
        <r>    -3.0486     0.0482     0.0051     0.0000     0.0029     0.0000     0.0000     0.0000     0.0000     0.0000 </r>
        <r>    -2.9679     0.0551     0.0036     0.0000     0.0061     0.0000     0.0000     0.0000     0.0000     0.0000 </r>
        <r>    -2.8871     0.0647     0.0070     0.0000     0.0045     0.0000     0.0000     0.0000     0.0000     0.0000 </r>
        <r>    -2.8064     0.0347     0.0021     0.0000     0.0043     0.0000     0.0000     0.0000     0.0000     0.0000 </r>
        <r>    -2.7257     0.0818     0.0085     0.0000     0.0068     0.0000     0.0000     0.0000     0.0000     0.0000 </r>
        <r>    -2.6450     0.0209     0.0017     0.0000     0.0023     0.0000     0.0000     0.0000     0.0000     0.0000 </r>
        <r>    -2.5643     0.0860     0.0082     0.0000     0.0089     0.0000     0.0000     0.0000     0.0000     0.0000 </r>
        <r>    -2.4835     0.0253     0.0034     0.0000     0.0017     0.0000     0.0000     0.0000     0.0000     0.0000 </r>
        <r>    -2.4028     0.0665     0.0054     0.0000     0.0086     0.0000     0.0000     0.0000     0.0000     0.0000 </r>
        <r>    -2.3221     0.0506     0.0070     0.0000     0.0036     0.0000     0.0000     0.0000     0.0000     0.0000 </r>
        <r>    -2.2414     0.0332     0.0021     0.0000     0.0052     0.0000     0.0000     0.0000     0.0000     0.0000 </r>
        <r>    -2.1607     0.0800     0.0099     0.0000     0.0078     0.0000     0.0000     0.0000     0.0000     0.0000 </r>
        <r>    -2.0800     0.0237     0.0021     0.0000     0.0034     0.0000     0.0000     0.0000     0.0000     0.0000 </r>
        <r>    -1.9992     0.1576     0.0160     0.0000     0.0209     0.0000     0.0000     0.0000     0.0000     0.0000 </r>
        <r>    -1.9185     0.0661     0.0113     0.0000     0.0042     0.0000     0.0000     0.0000     0.0000     0.0000 </r>
        <r>    -1.8378     0.0417     0.0031     0.0000     0.0072     0.0000     0.0000     0.0000     0.0000     0.0000 </r>
        <r>    -1.7571     0.0722     0.0107     0.0000     0.0072     0.0000     0.0000     0.0000     0.0000     0.0000 </r>
        <r>    -1.6764     0.0139     0.0014     0.0000     0.0021     0.0000     0.0000     0.0000     0.0000     0.0000 </r>
        <r>    -1.5957     0.0787     0.0090     0.0000     0.0115     0.0000     0.0000     0.0000     0.0000     0.0000 </r>
        <r>    -1.5149     0.0312     0.0060     0.0000     0.0021     0.0000     0.0000     0.0000     0.0000     0.0000 </r>
        <r>    -1.4342     0.0364     0.0027     0.0000     0.0073     0.0000     0.0000     0.0000     0.0000     0.0000 </r>
        <r>    -1.3535     0.0744     0.0120     0.0000     0.0085     0.0000     0.0000     0.0000     0.0000     0.0000 </r>
        <r>    -1.2728     0.0118     0.0018     0.0000     0.0016     0.0000     0.0000     0.0000     0.0000     0.0000 </r>
        <r>    -1.1921     0.0701     0.0079     0.0000     0.0123     0.0000     0.0000     0.0000     0.0000     0.0000 </r>
        <r>    -1.1113     0.0411     0.0086     0.0000     0.0033     0.0000     0.0000     0.0000     0.0000     0.0000 </r>
        <r>    -1.0306     0.0221     0.0015     0.0000     0.0052     0.0000     0.0000     0.0000     0.0000     0.0000 </r>
        <r>    -0.9499     0.0804     0.0127     0.0000     0.0117     0.0000     0.0000     0.0000     0.0000     0.0000 </r>
        <r>    -0.8692     0.0158     0.0037     0.0000     0.0011     0.0000     0.0000     0.0000     0.0000     0.0000 </r>
        <r>    -0.7885     0.0482     0.0046     0.0000     0.0109     0.0000     0.0000     0.0000     0.0000     0.0000 </r>
        <r>    -0.7078     0.0625     0.0128     0.0000     0.0071     0.0000     0.0000     0.0000     0.0000     0.0000 </r>
        <r>    -0.6270     0.0101     0.0012     0.0000     0.0021     0.0000     0.0000     0.0000     0.0000     0.0000 </r>
        <r>    -0.5463     0.0715     0.0097     0.0000     0.0143     0.0000     0.0000     0.0000     0.0000     0.0000 </r>
        <r>    -0.4656     0.0359     0.0091     0.0000     0.0030     0.0000     0.0000     0.0000     0.0000     0.0000 </r>
        <r>    -0.3849     0.0197     0.0013     0.0000     0.0056     0.0000     0.0000     0.0000     0.0000     0.0000 </r>
        <r>    -0.3042     0.0783     0.0141     0.0000     0.0135     0.0000     0.0000     0.0000     0.0000     0.0000 </r>
        <r>    -0.2234     0.0168     0.0048     0.0000     0.0011     0.0000     0.0000     0.0000     0.0000     0.0000 </r>
        <r>    -0.1427     0.0378     0.0035     0.0000     0.0105     0.0000     0.0000     0.0000     0.0000     0.0000 </r>
        <r>    -0.0620     0.0684     0.0154     0.0000     0.0099     0.0000     0.0000     0.0000     0.0000     0.0000 </r>
        <r>     0.0187     0.0086     0.0020     0.0000     0.0012     0.0000     0.0000     0.0000     0.0000     0.0000 </r>
        <r>     0.0994     0.0569     0.0073     0.0000     0.0148     0.0000     0.0000     0.0000     0.0000     0.0000 </r>
        <r>     0.1801     0.0501     0.0136     0.0000     0.0059     0.0000     0.0000     0.0000     0.0000     0.0000 </r>
        <r>     0.2609     0.0094     0.0010     0.0000     0.0028     0.0000     0.0000     0.0000     0.0000     0.0000 </r>
        <r>     0.3416     0.0704     0.0119     0.0000     0.0168     0.0000     0.0000     0.0000     0.0000     0.0000 </r>
        <r>     0.4223     0.0320     0.0101     0.0000     0.0030     0.0000     0.0000     0.0000     0.0000     0.0000 </r>
        <r>     0.5030     0.0164     0.0012     0.0000     0.0058     0.0000     0.0000     0.0000     0.0000     0.0000 </r>
        <r>     0.5837     0.0750     0.0158     0.0000     0.0163     0.0000     0.0000     0.0000     0.0000     0.0000 </r>
        <r>     0.6644     0.0185     0.0065     0.0000     0.0014     0.0000     0.0000     0.0000     0.0000     0.0000 </r>
        <r>     0.7452     0.0273     0.0026     0.0000     0.0098     0.0000     0.0000     0.0000     0.0000     0.0000 </r>
        <r>     0.8259     0.0710     0.0180     0.0000     0.0140     0.0000     0.0000     0.0000     0.0000     0.0000 </r>
        <r>     0.9066     0.0103     0.0037     0.0000     0.0009     0.0000     0.0000     0.0000     0.0000     0.0000 </r>
        <r>     0.9873     0.0399     0.0050     0.0000     0.0140     0.0000     0.0000     0.0000     0.0000     0.0000 </r>
        <r>     1.0680     0.0612     0.0183     0.0000     0.0107     0.0000     0.0000     0.0000     0.0000     0.0000 </r>
        <r>     1.1488     0.0068     0.0020     0.0000     0.0013     0.0000     0.0000     0.0000     0.0000     0.0000 </r>
        <r>     1.2295     0.0520     0.0084     0.0000     0.0176     0.0000     0.0000     0.0000     0.0000     0.0000 </r>
        <r>     1.3102     0.0487     0.0168     0.0000     0.0075     0.0000     0.0000     0.0000     0.0000     0.0000 </r>
        <r>     1.3909     0.0069     0.0011     0.0000     0.0025     0.0000     0.0000     0.0000     0.0000     0.0000 </r>
        <r>     1.4716     0.0616     0.0124     0.0000     0.0201     0.0000     0.0000     0.0000     0.0000     0.0000 </r>
        <r>     1.5523     0.0359     0.0141     0.0000     0.0048     0.0000     0.0000     0.0000     0.0000     0.0000 </r>
        <r>     1.6331     0.0100     0.0010     0.0000     0.0045     0.0000     0.0000     0.0000     0.0000     0.0000 </r>
        <r>     1.7138     0.0673     0.0165     0.0000     0.0209     0.0000     0.0000     0.0000     0.0000     0.0000 </r>
        <r>     1.7945     0.0247     0.0109     0.0000     0.0028     0.0000     0.0000     0.0000     0.0000     0.0000 </r>
        <r>     1.8752     0.0155     0.0016     0.0000     0.0075     0.0000     0.0000     0.0000     0.0000     0.0000 </r>
        <r>     1.9559     0.0685     0.0200     0.0000     0.0202     0.0000     0.0000     0.0000     0.0000     0.0000 </r>
        <r>     2.0366     0.0159     0.0077     0.0000     0.0016     0.0000     0.0000     0.0000     0.0000     0.0000 </r>
        <r>     2.1174     0.0230     0.0030     0.0000     0.0114     0.0000     0.0000     0.0000     0.0000     0.0000 </r>
        <r>     2.1981     0.0650     0.0224     0.0000     0.0181     0.0000     0.0000     0.0000     0.0000     0.0000 </r>
        <r>     2.2788     0.0097     0.0049     0.0000     0.0011     0.0000     0.0000     0.0000     0.0000     0.0000 </r>
        <r>     2.3595     0.0321     0.0054     0.0000     0.0159     0.0000     0.0000     0.0000     0.0000     0.0000 </r>
        <r>     2.4402     0.0575     0.0231     0.0000     0.0149     0.0000     0.0000     0.0000     0.0000     0.0000 </r>
        <r>     2.5210     0.0062     0.0029     0.0000     0.0013     0.0000     0.0000     0.0000     0.0000     0.0000 </r>
        <r>     2.6017     0.0418     0.0091     0.0000     0.0205     0.0000     0.0000     0.0000     0.0000     0.0000 </r>
        <r>     2.6824     0.0470     0.0219     0.0000     0.0112     0.0000     0.0000     0.0000     0.0000     0.0000 </r>
        <r>     2.7631     0.0054     0.0016     0.0000     0.0023     0.0000     0.0000     0.0000     0.0000     0.0000 </r>
        <r>     2.8438     0.0507     0.0141     0.0010     0.0252     0.0000     0.0000     0.0000     0.0000     0.0000 </r>
        <r>     2.9245     0.0349     0.0365     0.1039     0.0936     0.0000     0.0000     0.0000     0.0000     0.0000 </r>
        <r>     3.0053     0.0074     0.2158     0.4709     0.2609     0.0000     0.0000     0.0000     0.0000     0.0000 </r>
        <r>     3.0860     0.0569     0.2256     0.3615     0.1821     0.0000     0.0000     0.0000     0.0000     0.0000 </r>
        <r>     3.1667     0.0230     0.1420     0.2404     0.1170     0.0000     0.0000     0.0000     0.0000     0.0000 </r>
        <r>     3.2474     0.0127     0.1042     0.1962     0.1032     0.0000     0.0000     0.0000     0.0000     0.0000 </r>
        <r>     3.3281     0.0580     0.1133     0.1707     0.1083     0.0000     0.0000     0.0000     0.0000     0.0000 </r>
        <r>     3.4088     0.0131     0.0880     0.1535     0.0771     0.0000     0.0000     0.0000     0.0000     0.0000 </r>
        <r>     3.4896     0.0215     0.0769     0.1409     0.0848     0.0000     0.0000     0.0000     0.0000     0.0000 </r>
        <r>     3.5703     0.0522     0.0952     0.1311     0.0859     0.0000     0.0000     0.0000     0.0000     0.0000 </r>
        <r>     3.6510     0.0068     0.0677     0.1233     0.0624     0.0000     0.0000     0.0000     0.0000     0.0000 </r>
        <r>     3.7317     0.0331     0.0704     0.1172     0.0816     0.0000     0.0000     0.0000     0.0000     0.0000 </r>
        <r>     3.8124     0.0398     0.0840     0.1122     0.0698     0.0000     0.0000     0.0000     0.0000     0.0000 </r>
        <r>     3.8932     0.0055     0.0569     0.1084     0.0576     0.0000     0.0000     0.0000     0.0000     0.0000 </r>
        <r>     3.9739     0.0439     0.0720     0.1040     0.0832     0.0000     0.0000     0.0000     0.0000     0.0000 </r>
        <r>     4.0546     0.0237     0.0689     0.0983     0.0575     0.0000     0.0000     0.0000     0.0000     0.0000 </r>
        <r>     4.1353     0.0108     0.0516     0.0944     0.0573     0.0000     0.0000     0.0000     0.0000     0.0000 </r>
        <r>     4.2160     0.0467     0.0806     0.0964     0.0757     0.0000     0.0000     0.0000     0.0000     0.0000 </r>
        <r>     4.2967     0.0102     0.0583     0.0971     0.0518     0.0000     0.0000     0.0000     0.0000     0.0000 </r>
        <r>     4.3775     0.0238     0.0527     0.0878     0.0718     0.0000     0.0000     0.0000     0.0000     0.0000 </r>
        <r>     4.4582     0.0352     0.0758     0.0839     0.0603     0.0000     0.0000     0.0000     0.0000     0.0000 </r>
        <r>     4.5389     0.0061     0.0526     0.0940     0.0498     0.0000     0.0000     0.0000     0.0000     0.0000 </r>
        <r>     4.6196     0.0367     0.0695     0.0895     0.0835     0.0000     0.0000     0.0000     0.0000     0.0000 </r>
        <r>     4.7003     0.0153     0.0579     0.0767     0.0472     0.0000     0.0000     0.0000     0.0000     0.0000 </r>
        <r>     4.7810     0.0169     0.0568     0.0897     0.0647     0.0000     0.0000     0.0000     0.0000     0.0000 </r>
        <r>     4.8618     0.0302     0.0804     0.0914     0.0722     0.0000     0.0000     0.0000     0.0000     0.0000 </r>
        <r>     4.9425     0.0073     0.0432     0.0748     0.0525     0.0000     0.0000     0.0000     0.0000     0.0000 </r>
        <r>     5.0232     0.0296     0.0807     0.0883     0.0773     0.0000     0.0000     0.0000     0.0000     0.0000 </r>
        <r>     5.1039     0.0097     0.0623     0.0940     0.0567     0.0000     0.0000     0.0000     0.0000     0.0000 </r>
        <r>     5.1846     0.0214     0.0649     0.0784     0.0852     0.0000     0.0000     0.0000     0.0000     0.0000 </r>
        <r>     5.2654     0.0131     0.0738     0.0891     0.0558     0.0000     0.0000     0.0000     0.0000     0.0000 </r>
        <r>     5.3461     0.0160     0.0756     0.1003     0.0902     0.0000     0.0000     0.0000     0.0000     0.0000 </r>
        <r>     5.4268     0.0121     0.0792     0.0942     0.0735     0.0000     0.0000     0.0000     0.0000     0.0000 </r>
        <r>     5.5075     0.0133     0.0858     0.0991     0.0997     0.0000     0.0000     0.0000     0.0000     0.0000 </r>
        <r>     5.5882     0.0091     0.0924     0.1147     0.0992     0.0000     0.0000     0.0000     0.0000     0.0000 </r>
        <r>     5.6689     0.0089     0.1211     0.1357     0.1335     0.0000     0.0000     0.0000     0.0000     0.0000 </r>
        <r>     5.7497     0.0052     0.1787     0.2023     0.2394     0.0000     0.0000     0.0000     0.0000     0.0000 </r>
        <r>     5.8304     0.0014     0.2371     0.2597     0.1438     0.0000     0.0000     0.0000     0.0000     0.0000 </r>
        <r>     5.9111     0.0000     0.0300     0.0323     0.0038     0.0000     0.0000     0.0000     0.0000     0.0000 </r>
        <r>     5.9918     0.0000     0.0001     0.0001     0.0000     0.0000     0.0000     0.0000     0.0000     0.0000 </r>
        <r>     6.0725     0.0000     0.0000     0.0000     0.0000     0.0000     0.0000     0.0000     0.0000     0.0000 </r>
        <r>     6.1533     0.0000     0.0000     0.0000     0.0000     0.0000     0.0000     0.0000     0.0000     0.0000 </r>
        <r>     6.2340     0.0000     0.0000     0.0000     0.0000     0.0000     0.0000     0.0000     0.0000     0.0000 </r>
        <r>     6.3147     0.0117     0.0092     0.0000     0.0006     0.0000     0.0000     0.0000     0.0000     0.0000 </r>
        <r>     6.3954     0.1423     0.0822     0.0000     0.0367     0.0000     0.0000     0.0000     0.0000     0.0000 </r>
        <r>     6.4761     0.2007     0.0775     0.0000     0.0927     0.0000     0.0000     0.0000     0.0000     0.0000 </r>
        <r>     6.5568     0.1428     0.0575     0.0000     0.0671     0.0000     0.0000     0.0000     0.0000     0.0000 </r>
        <r>     6.6376     0.0961     0.0431     0.0000     0.0487     0.0000     0.0000     0.0000     0.0000     0.0000 </r>
        <r>     6.7183     0.0768     0.0385     0.0000     0.0405     0.0000     0.0000     0.0000     0.0000     0.0000 </r>
        <r>     6.7990     0.0668     0.0360     0.0000     0.0372     0.0000     0.0000     0.0000     0.0000     0.0000 </r>
        <r>     6.8797     0.0595     0.0342     0.0000     0.0350     0.0000     0.0000     0.0000     0.0000     0.0000 </r>
        <r>     6.9604     0.0541     0.0332     0.0000     0.0337     0.0000     0.0000     0.0000     0.0000     0.0000 </r>
        <r>     7.0411     0.0495     0.0327     0.0000     0.0326     0.0000     0.0000     0.0000     0.0000     0.0000 </r>
        <r>     7.1219     0.0443     0.0316     0.0000     0.0317     0.0000     0.0000     0.0000     0.0000     0.0000 </r>
        <r>     7.2026     0.0414     0.0309     0.0000     0.0320     0.0000     0.0000     0.0000     0.0000     0.0000 </r>
        <r>     7.2833     0.0413     0.0321     0.0000     0.0326     0.0000     0.0000     0.0000     0.0000     0.0000 </r>
        <r>     7.3640     0.0352     0.0316     0.0000     0.0314     0.0000     0.0000     0.0000     0.0000     0.0000 </r>
        <r>     7.4447     0.0336     0.0315     0.0000     0.0328     0.0000     0.0000     0.0000     0.0000     0.0000 </r>
        <r>     7.5255     0.0356     0.0350     0.0000     0.0334     0.0000     0.0000     0.0000     0.0000     0.0000 </r>
        <r>     7.6062     0.0259     0.0325     0.0000     0.0316     0.0000     0.0000     0.0000     0.0000     0.0000 </r>
        <r>     7.6869     0.0331     0.0361     0.0000     0.0357     0.0000     0.0000     0.0000     0.0000     0.0000 </r>
        <r>     7.7676     0.0228     0.0345     0.0000     0.0339     0.0000     0.0000     0.0000     0.0000     0.0000 </r>
        <r>     7.8483     0.0289     0.0382     0.0000     0.0392     0.0000     0.0000     0.0000     0.0000     0.0000 </r>
        <r>     7.9290     0.0210     0.0394     0.0000     0.0385     0.0000     0.0000     0.0000     0.0000     0.0000 </r>
        <r>     8.0098     0.0254     0.0441     0.0000     0.0440     0.0000     0.0000     0.0000     0.0000     0.0000 </r>
        <r>     8.0905     0.0178     0.0473     0.0000     0.0454     0.0000     0.0000     0.0000     0.0000     0.0000 </r>
        <r>     8.1712     0.0233     0.0567     0.0000     0.0550     0.0000     0.0000     0.0000     0.0000     0.0000 </r>
        <r>     8.2519     0.0130     0.0700     0.0007     0.0643     0.0000     0.0000     0.0000     0.0000     0.0000 </r>
        <r>     8.3326     0.0218     0.1549     0.0623     0.1267     0.0000     0.0000     0.0000     0.0000     0.0000 </r>
        <r>     8.4133     0.0059     0.1573     0.1777     0.1826     0.0000     0.0000     0.0000     0.0000     0.0000 </r>
        <r>     8.4941     0.0208     0.0622     0.1049     0.0712     0.0000     0.0000     0.0000     0.0000     0.0000 </r>
        <r>     8.5748     0.0045     0.0389     0.0746     0.0400     0.0000     0.0000     0.0000     0.0000     0.0000 </r>
        <r>     8.6555     0.0196     0.0387     0.0622     0.0431     0.0000     0.0000     0.0000     0.0000     0.0000 </r>
        <r>     8.7362     0.0080     0.0401     0.0732     0.0361     0.0000     0.0000     0.0000     0.0000     0.0000 </r>
        <r>     8.8169     0.0130     0.0248     0.0408     0.0273     0.0000     0.0000     0.0000     0.0000     0.0000 </r>
        <r>     8.8977     0.0163     0.0414     0.0685     0.0414     0.0000     0.0000     0.0000     0.0000     0.0000 </r>
        <r>     8.9784     0.0054     0.0200     0.0371     0.0184     0.0000     0.0000     0.0000     0.0000     0.0000 </r>
        <r>     9.0591     0.0581     0.0418     0.0640     0.0439     0.0000     0.0000     0.0000     0.0000     0.0000 </r>
        <r>     9.1398     0.3461     0.0175     0.0311     0.0154     0.0000     0.0000     0.0000     0.0000     0.0000 </r>
        <r>     9.2205     0.2958     0.0440     0.0672     0.0454     0.0000     0.0000     0.0000     0.0000     0.0000 </r>
        <r>     9.3012     0.1941     0.0192     0.0216     0.0192     0.0000     0.0000     0.0000     0.0000     0.0000 </r>
        <r>     9.3820     0.1386     0.0451     0.0725     0.0421     0.0000     0.0000     0.0000     0.0000     0.0000 </r>
        <r>     9.4627     0.1408     0.0223     0.0179     0.0268     0.0000     0.0000     0.0000     0.0000     0.0000 </r>
        <r>     9.5434     0.1397     0.0436     0.0657     0.0354     0.0000     0.0000     0.0000     0.0000     0.0000 </r>
        <r>     9.6241     0.1015     0.0295     0.0309     0.0377     0.0000     0.0000     0.0000     0.0000     0.0000 </r>
        <r>     9.7048     0.1460     0.0344     0.0391     0.0273     0.0000     0.0000     0.0000     0.0000     0.0000 </r>
        <r>     9.7855     0.0893     0.0444     0.0588     0.0484     0.0000     0.0000     0.0000     0.0000     0.0000 </r>
        <r>     9.8663     0.1480     0.0259     0.0146     0.0264     0.0000     0.0000     0.0000     0.0000     0.0000 </r>
        <r>     9.9470     0.1090     0.0573     0.0709     0.0506     0.0000     0.0000     0.0000     0.0000     0.0000 </r>
        <r>    10.0277     0.1421     0.0323     0.0215     0.0389     0.0000     0.0000     0.0000     0.0000     0.0000 </r>
        <r>    10.1084     0.1842     0.0572     0.0413     0.0513     0.0000     0.0000     0.0000     0.0000     0.0000 </r>
        <r>    10.1891     0.2557     0.0810     0.0568     0.0814     0.0000     0.0000     0.0000     0.0000     0.0000 </r>
        <r>    10.2699     0.1020     0.0258     0.0120     0.0283     0.0000     0.0000     0.0000     0.0000     0.0000 </r>
        <r>    10.3506     0.0016     0.0372     0.0675     0.0289     0.0000     0.0000     0.0000     0.0000     0.0000 </r>
        <r>    10.4313     0.0000     0.0111     0.0273     0.0187     0.0000     0.0000     0.0000     0.0000     0.0000 </r>
        <r>    10.5120     0.0000     0.0136     0.0277     0.0127     0.0000     0.0000     0.0000     0.0000     0.0000 </r>
        <r>    10.5927     0.0000     0.0354     0.0662     0.0313     0.0000     0.0000     0.0000     0.0000     0.0000 </r>
        <r>    10.6734     0.0000     0.0033     0.0119     0.0093     0.0000     0.0000     0.0000     0.0000     0.0000 </r>
        <r>    10.7542     0.0000     0.0278     0.0509     0.0223     0.0000     0.0000     0.0000     0.0000     0.0000 </r>
        <r>    10.8349     0.0000     0.0226     0.0473     0.0254     0.0000     0.0000     0.0000     0.0000     0.0000 </r>
        <r>    10.9156     0.0000     0.0042     0.0119     0.0079     0.0000     0.0000     0.0000     0.0000     0.0000 </r>
        <r>    10.9963     0.0000     0.0374     0.0657     0.0283     0.0000     0.0000     0.0000     0.0000     0.0000 </r>
        <r>    11.0770     0.0000     0.0105     0.0280     0.0174     0.0000     0.0000     0.0000     0.0000     0.0000 </r>
        <r>    11.1577     0.0000     0.0103     0.0223     0.0129     0.0000     0.0000     0.0000     0.0000     0.0000 </r>
        <r>    11.2385     0.0000     0.0375     0.0667     0.0290     0.0000     0.0000     0.0000     0.0000     0.0000 </r>
        <r>    11.3192     0.0000     0.0041     0.0158     0.0110     0.0000     0.0000     0.0000     0.0000     0.0000 </r>
        <r>    11.3999     0.0000     0.0192     0.0366     0.0194     0.0000     0.0000     0.0000     0.0000     0.0000 </r>
        <r>    11.4806     0.0000     0.0309     0.0584     0.0261     0.0000     0.0000     0.0000     0.0000     0.0000 </r>
        <r>    11.5613     0.0000     0.0021     0.0105     0.0081     0.0000     0.0000     0.0000     0.0000     0.0000 </r>
        <r>    11.6421     0.0000     0.0282     0.0494     0.0243     0.0000     0.0000     0.0000     0.0000     0.0000 </r>
        <r>    11.7228     0.0000     0.0222     0.0472     0.0220     0.0000     0.0000     0.0000     0.0000     0.0000 </r>
        <r>    11.8035     0.0000     0.0026     0.0105     0.0086     0.0000     0.0000     0.0000     0.0000     0.0000 </r>
        <r>    11.8842     0.0000     0.0346     0.0579     0.0264     0.0000     0.0000     0.0000     0.0000     0.0000 </r>
        <r>    11.9649     0.0000     0.0146     0.0367     0.0181     0.0000     0.0000     0.0000     0.0000     0.0000 </r>
        <r>    12.0456     0.0000     0.0046     0.0136     0.0112     0.0000     0.0000     0.0000     0.0000     0.0000 </r>
        <r>    12.1264     0.0000     0.0379     0.0618     0.0262     0.0000     0.0000     0.0000     0.0000     0.0000 </r>
        <r>    12.2071     0.0000     0.0091     0.0286     0.0150     0.0000     0.0000     0.0000     0.0000     0.0000 </r>
        <r>    12.2878     0.0000     0.0070     0.0180     0.0148     0.0000     0.0000     0.0000     0.0000     0.0000 </r>
        <r>    12.3685     0.0000     0.0385     0.0624     0.0247     0.0000     0.0000     0.0000     0.0000     0.0000 </r>
        <r>    12.4492     0.0000     0.0062     0.0234     0.0127     0.0000     0.0000     0.0000     0.0000     0.0000 </r>
        <r>    12.5300     0.0000     0.0102     0.0231     0.0184     0.0000     0.0000     0.0000     0.0000     0.0000 </r>
        <r>    12.6107     0.0000     0.0374     0.0613     0.0228     0.0000     0.0000     0.0000     0.0000     0.0000 </r>
        <r>    12.6914     0.0000     0.0040     0.0190     0.0109     0.0000     0.0000     0.0000     0.0000     0.0000 </r>
        <r>    12.7721     0.0000     0.0135     0.0276     0.0210     0.0000     0.0000     0.0000     0.0000     0.0000 </r>
        <r>    12.8528     0.0000     0.0353     0.0594     0.0212     0.0000     0.0000     0.0000     0.0000     0.0000 </r>
        <r>    12.9335     0.0000     0.0027     0.0162     0.0100     0.0000     0.0000     0.0000     0.0000     0.0000 </r>
        <r>    13.0143     0.0000     0.0164     0.0315     0.0230     0.0000     0.0000     0.0000     0.0000     0.0000 </r>
        <r>    13.0950     0.0000     0.0330     0.0571     0.0196     0.0000     0.0000     0.0000     0.0000     0.0000 </r>
        <r>    13.1757     0.0000     0.0020     0.0145     0.0097     0.0000     0.0000     0.0000     0.0000     0.0000 </r>
        <r>    13.2564     0.0000     0.0189     0.0344     0.0244     0.0000     0.0000     0.0000     0.0000     0.0000 </r>
        <r>    13.3371     0.0000     0.0309     0.0551     0.0182     0.0000     0.0000     0.0000     0.0000     0.0000 </r>
        <r>    13.4178     0.0000     0.0016     0.0135     0.0098     0.0000     0.0000     0.0000     0.0000     0.0000 </r>
        <r>    13.4986     0.0000     0.0212     0.0369     0.0251     0.0000     0.0000     0.0000     0.0000     0.0000 </r>
        <r>    13.5793     0.0000     0.0288     0.0533     0.0173     0.0000     0.0000     0.0000     0.0000     0.0000 </r>
        <r>    13.6600     0.0000     0.0014     0.0128     0.0099     0.0000     0.0000     0.0000     0.0000     0.0000 </r>
        <r>    13.7407     0.0000     0.0225     0.0380     0.0253     0.0000     0.0000     0.0000     0.0000     0.0000 </r>
        <r>    13.8214     0.0000     0.0276     0.0522     0.0165     0.0000     0.0000     0.0000     0.0000     0.0000 </r>
        <r>    13.9022     0.0000     0.0013     0.0127     0.0103     0.0000     0.0000     0.0000     0.0000     0.0000 </r>
        <r>    13.9829     0.0000     0.0232     0.0386     0.0254     0.0000     0.0000     0.0000     0.0000     0.0000 </r>
        <r>    14.0636     0.0000     0.0270     0.0515     0.0160     0.0000     0.0000     0.0000     0.0000     0.0000 </r>
        <r>    14.1443     0.0000     0.0012     0.0128     0.0107     0.0000     0.0000     0.0000     0.0000     0.0000 </r>
        <r>    14.2250     0.0000     0.0234     0.0387     0.0254     0.0000     0.0000     0.0000     0.0000     0.0000 </r>
        <r>    14.3057     0.0000     0.0271     0.0517     0.0157     0.0000     0.0000     0.0000     0.0000     0.0000 </r>
        <r>    14.3865     0.0000     0.0012     0.0132     0.0112     0.0000     0.0000     0.0000     0.0000     0.0000 </r>
        <r>    14.4672     0.0000     0.0240     0.0391     0.0254     0.0000     0.0000     0.0000     0.0000     0.0000 </r>
        <r>    14.5479     0.0000     0.0270     0.0517     0.0155     0.0000     0.0000     0.0000     0.0000     0.0000 </r>
        <r>    14.6286     0.0000     0.0012     0.0137     0.0119     0.0000     0.0000     0.0000     0.0000     0.0000 </r>
        <r>    14.7093     0.0000     0.0245     0.0397     0.0255     0.0000     0.0000     0.0000     0.0000     0.0000 </r>
        <r>    14.7900     0.0000     0.0271     0.0518     0.0155     0.0000     0.0000     0.0000     0.0000     0.0000 </r>
        <r>    14.8708     0.0000     0.0012     0.0145     0.0127     0.0000     0.0000     0.0000     0.0000     0.0000 </r>
        <r>    14.9515     0.0000     0.0256     0.0411     0.0258     0.0000     0.0000     0.0000     0.0000     0.0000 </r>
        <r>    15.0322     0.0000     0.0272     0.0528     0.0160     0.0000     0.0000     0.0000     0.0000     0.0000 </r>
        <r>    15.1129     0.0000     0.0015     0.0154     0.0144     0.0000     0.0000     0.0000     0.0000     0.0000 </r>
        <r>    15.1936     0.0000     0.0296     0.0461     0.0257     0.0000     0.0000     0.0000     0.0000     0.0000 </r>
        <r>    15.2744     0.0000     0.0249     0.0519     0.0171     0.0000     0.0000     0.0000     0.0000     0.0000 </r>
        <r>    15.3551     0.0000     0.0027     0.0180     0.0185     0.0000     0.0000     0.0000     0.0000     0.0000 </r>
        <r>    15.4358     0.0000     0.0386     0.0575     0.0248     0.0000     0.0000     0.0000     0.0000     0.0000 </r>
        <r>    15.5165     0.0000     0.0177     0.0461     0.0191     0.0000     0.0000     0.0000     0.0000     0.0000 </r>
        <r>    15.5972     0.0000     0.0119     0.0317     0.0275     0.0000     0.0000     0.0000     0.0000     0.0000 </r>
        <r>    15.6779     0.0000     0.0464     0.0754     0.0265     0.0000     0.0000     0.0000     0.0000     0.0000 </r>
        <r>    15.7587     0.0000     0.0150     0.0460     0.0319     0.0000     0.0000     0.0000     0.0000     0.0000 </r>
        <r>    15.8394     0.0000     0.0683     0.1286     0.0635     0.0000     0.0000     0.0000     0.0000     0.0000 </r>
        <r>    15.9201     0.0000     0.0619     0.1203     0.0600     0.0000     0.0000     0.0000     0.0000     0.0000 </r>
        <r>    16.0008     0.0000     0.0051     0.0082     0.0031     0.0000     0.0000     0.0000     0.0000     0.0000 </r>
        <r>    16.0815     0.0000     0.0000     0.0000     0.0000     0.0000     0.0000     0.0000     0.0000     0.0000 </r>
        <r>    16.1622     0.0000     0.0000     0.0000     0.0000     0.0000     0.0000     0.0000     0.0000     0.0000 </r>
        <r>    16.2430     0.0000     0.0000     0.0000     0.0000     0.0000     0.0000     0.0000     0.0000     0.0000 </r>
        <r>    16.3237     0.0000     0.0000     0.0000     0.0000     0.0000     0.0000     0.0000     0.0000     0.0000 </r>
        <r>    16.4044     0.0000     0.0000     0.0000     0.0000     0.0000     0.0000     0.0000     0.0000     0.0000 </r>
        <r>    16.4851     0.0000     0.0000     0.0000     0.0000     0.0000     0.0000     0.0000     0.0000     0.0000 </r>
        <r>    16.5658     0.0000     0.0000     0.0000     0.0000     0.0000     0.0000     0.0000     0.0000     0.0000 </r>
        <r>    16.6466     0.0000     0.0000     0.0000     0.0000     0.0000     0.0000     0.0000     0.0000     0.0000 </r>
        <r>    16.7273     0.0000     0.0000     0.0000     0.0000     0.0000     0.0000     0.0000     0.0000     0.0000 </r>
        <r>    16.8080     0.0000     0.0000     0.0000     0.0000     0.0000     0.0000     0.0000     0.0000     0.0000 </r>
        <r>    16.8887     0.0000     0.0000     0.0000     0.0000     0.0000     0.0000     0.0000     0.0000     0.0000 </r>
        <r>    16.9694     0.0000     0.0000     0.0000     0.0000     0.0000     0.0000     0.0000     0.0000     0.0000 </r>
       </set>
      </set>
     </set>
    </array>
   </partial>
  </dos>
  <projected>
   <eigenvalues>
    <array>
     <dimension dim="1">band</dimension>
     <dimension dim="2">kpoint</dimension>
     <dimension dim="3">spin</dimension>
     <field>eigene</field>
     <field>occ</field>
     <set>
      <set comment="spin 1">
       <set comment="kpoint 1">
        <r>   -2.0367    1.0000 </r>
        <r>   -2.0367    1.0000 </r>
        <r>    2.9693    1.0000 </r>
        <r>    2.9693    1.0000 </r>
        <r>    6.5300    0.0000 </r>
        <r>    6.5300    0.0000 </r>
        <r>   15.8674    0.0000 </r>
        <r>   15.8687    0.0000 </r>
       </set>
       <set comment="kpoint 2">
        <r>   -2.2320    1.0000 </r>
        <r>   -1.8380    1.0000 </r>
        <r>    2.9719    1.0000 </r>
        <r>    2.9719    1.0000 </r>
        <r>    6.4889    0.0000 </r>
        <r>    6.5789    0.0000 </r>
        <r>   15.7968    0.0000 </r>
        <r>   15.7993    0.0000 </r>
       </set>
       <set comment="kpoint 3">
        <r>   -2.4236    1.0000 </r>
        <r>   -1.6360    1.0000 </r>
        <r>    2.9796    1.0000 </r>
        <r>    2.9796    1.0000 </r>
        <r>    6.4553    0.0000 </r>
        <r>    6.6355    0.0000 </r>
        <r>   15.6286    0.0000 </r>
        <r>   15.6291    0.0000 </r>
       </set>
       <set comment="kpoint 4">
        <r>   -2.6115    1.0000 </r>
        <r>   -1.4309    1.0000 </r>
        <r>    2.9925    1.0000 </r>
        <r>    2.9925    1.0000 </r>
        <r>    6.4291    0.0000 </r>
        <r>    6.6999    0.0000 </r>
        <r>   15.4176    0.0000 </r>
        <r>   15.4176    0.0000 </r>
       </set>
       <set comment="kpoint 5">
        <r>   -2.7955    1.0000 </r>
        <r>   -1.2228    1.0000 </r>
        <r>    3.0105    1.0000 </r>
        <r>    3.0105    1.0000 </r>
        <r>    6.4103    0.0000 </r>
        <r>    6.7726    0.0000 </r>
        <r>   15.1896    0.0000 </r>
        <r>   15.1896    0.0000 </r>
       </set>
       <set comment="kpoint 6">
        <r>   -2.9756    1.0000 </r>
        <r>   -1.0119    1.0000 </r>
        <r>    3.0336    1.0000 </r>
        <r>    3.0336    1.0000 </r>
        <r>    6.3986    0.0000 </r>
        <r>    6.8531    0.0000 </r>
        <r>   14.9530    0.0000 </r>
        <r>   14.9530    0.0000 </r>
       </set>
       <set comment="kpoint 7">
        <r>   -3.1515    1.0000 </r>
        <r>   -0.7984    1.0000 </r>
        <r>    3.0618    1.0000 </r>
        <r>    3.0618    1.0000 </r>
        <r>    6.3940    0.0000 </r>
        <r>    6.9416    0.0000 </r>
        <r>   14.7116    0.0000 </r>
        <r>   14.7116    0.0000 </r>
       </set>
       <set comment="kpoint 8">
        <r>   -3.3232    1.0000 </r>
        <r>   -0.5825    1.0000 </r>
        <r>    3.0951    1.0000 </r>
        <r>    3.0951    1.0000 </r>
        <r>    6.3961    0.0000 </r>
        <r>    7.0381    0.0000 </r>
        <r>   14.4700    0.0000 </r>
        <r>   14.4700    0.0000 </r>
       </set>
       <set comment="kpoint 9">
        <r>   -3.4905    1.0000 </r>
        <r>   -0.3643    1.0000 </r>
        <r>    3.1335    1.0000 </r>
        <r>    3.1336    1.0000 </r>
        <r>    6.4053    0.0000 </r>
        <r>    7.1432    0.0000 </r>
        <r>   14.2284    0.0000 </r>
        <r>   14.2284    0.0000 </r>
       </set>
       <set comment="kpoint 10">
        <r>   -3.6534    1.0000 </r>
        <r>   -0.1441    1.0000 </r>
        <r>    3.1769    1.0000 </r>
        <r>    3.1769    1.0000 </r>
        <r>    6.4211    0.0000 </r>
        <r>    7.2563    0.0000 </r>
        <r>   13.9864    0.0000 </r>
        <r>   13.9864    0.0000 </r>
       </set>
       <set comment="kpoint 11">
        <r>   -3.8118    1.0000 </r>
        <r>    0.0780    1.0000 </r>
        <r>    3.2252    1.0000 </r>
        <r>    3.2252    1.0000 </r>
        <r>    6.4434    0.0000 </r>
        <r>    7.3779    0.0000 </r>
        <r>   13.7456    0.0000 </r>
        <r>   13.7456    0.0000 </r>
       </set>
       <set comment="kpoint 12">
        <r>   -3.9654    1.0000 </r>
        <r>    0.3017    1.0000 </r>
        <r>    3.2785    1.0000 </r>
        <r>    3.2785    1.0000 </r>
        <r>    6.4721    0.0000 </r>
        <r>    7.5077    0.0000 </r>
        <r>   13.5057    0.0000 </r>
        <r>   13.5057    0.0000 </r>
       </set>
       <set comment="kpoint 13">
        <r>   -4.1143    1.0000 </r>
        <r>    0.5269    1.0000 </r>
        <r>    3.3368    1.0000 </r>
        <r>    3.3368    1.0000 </r>
        <r>    6.5077    0.0000 </r>
        <r>    7.6458    0.0000 </r>
        <r>   13.2679    0.0000 </r>
        <r>   13.2679    0.0000 </r>
       </set>
       <set comment="kpoint 14">
        <r>   -4.2585    1.0000 </r>
        <r>    0.7534    1.0000 </r>
        <r>    3.3998    1.0000 </r>
        <r>    3.3998    1.0000 </r>
        <r>    6.5486    0.0000 </r>
        <r>    7.7919    0.0000 </r>
        <r>   13.0305    0.0000 </r>
        <r>   13.0305    0.0000 </r>
       </set>
       <set comment="kpoint 15">
        <r>   -4.3978    1.0000 </r>
        <r>    0.9810    1.0000 </r>
        <r>    3.4677    1.0000 </r>
        <r>    3.4677    1.0000 </r>
        <r>    6.5953    0.0000 </r>
        <r>    7.9458    0.0000 </r>
        <r>   12.7944    0.0000 </r>
        <r>   12.7945    0.0000 </r>
       </set>
       <set comment="kpoint 16">
        <r>   -4.5321    1.0000 </r>
        <r>    1.2095    1.0000 </r>
        <r>    3.5402    1.0000 </r>
        <r>    3.5402    1.0000 </r>
        <r>    6.6477    0.0000 </r>
        <r>    8.1073    0.0000 </r>
        <r>   12.5599    0.0000 </r>
        <r>   12.5599    0.0000 </r>
       </set>
       <set comment="kpoint 17">
        <r>   -4.6613    1.0000 </r>
        <r>    1.4386    1.0000 </r>
        <r>    3.6174    1.0000 </r>
        <r>    3.6174    1.0000 </r>
        <r>    6.7055    0.0000 </r>
        <r>    8.2761    0.0000 </r>
        <r>   12.3269    0.0000 </r>
        <r>   12.3269    0.0000 </r>
       </set>
       <set comment="kpoint 18">
        <r>   -4.7856    1.0000 </r>
        <r>    1.6682    1.0000 </r>
        <r>    3.6990    1.0000 </r>
        <r>    3.6990    1.0000 </r>
        <r>    6.7680    0.0000 </r>
        <r>    8.4514    0.0000 </r>
        <r>   12.0937    0.0000 </r>
        <r>   12.0937    0.0000 </r>
       </set>
       <set comment="kpoint 19">
        <r>   -4.9046    1.0000 </r>
        <r>    1.8981    1.0000 </r>
        <r>    3.7851    1.0000 </r>
        <r>    3.7851    1.0000 </r>
        <r>    6.8359    0.0000 </r>
        <r>    8.6331    0.0000 </r>
        <r>   11.8642    0.0000 </r>
        <r>   11.8642    0.0000 </r>
       </set>
       <set comment="kpoint 20">
        <r>   -5.0185    1.0000 </r>
        <r>    2.1281    1.0000 </r>
        <r>    3.8755    1.0000 </r>
        <r>    3.8755    1.0000 </r>
        <r>    6.9084    0.0000 </r>
        <r>    8.8201    0.0000 </r>
        <r>   11.6365    0.0000 </r>
        <r>   11.6365    0.0000 </r>
       </set>
       <set comment="kpoint 21">
        <r>   -5.1270    1.0000 </r>
        <r>    2.3580    1.0000 </r>
        <r>    3.9701    1.0000 </r>
        <r>    3.9701    1.0000 </r>
        <r>    6.9853    0.0000 </r>
        <r>    9.0110    0.0000 </r>
        <r>   11.4110    0.0000 </r>
        <r>   11.4110    0.0000 </r>
       </set>
       <set comment="kpoint 22">
        <r>   -5.2303    1.0000 </r>
        <r>    2.5875    1.0000 </r>
        <r>    4.0686    1.0000 </r>
        <r>    4.0686    1.0000 </r>
        <r>    7.0661    0.0000 </r>
        <r>    9.2042    0.0000 </r>
        <r>   11.1877    0.0000 </r>
        <r>   11.1877    0.0000 </r>
       </set>
       <set comment="kpoint 23">
        <r>   -5.3282    1.0000 </r>
        <r>    2.8165    1.0000 </r>
        <r>    4.1709    1.0000 </r>
        <r>    4.1709    1.0000 </r>
        <r>    7.1504    0.0000 </r>
        <r>    9.3972    0.0000 </r>
        <r>   10.9669    0.0000 </r>
        <r>   10.9669    0.0000 </r>
       </set>
       <set comment="kpoint 24">
        <r>   -5.4208    1.0000 </r>
        <r>    3.0447    1.0000 </r>
        <r>    4.2768    1.0000 </r>
        <r>    4.2768    1.0000 </r>
        <r>    7.2381    0.0000 </r>
        <r>    9.5865    0.0000 </r>
        <r>   10.7493    0.0000 </r>
        <r>   10.7493    0.0000 </r>
       </set>
       <set comment="kpoint 25">
        <r>   -5.5079    1.0000 </r>
        <r>    3.2715    1.0000 </r>
        <r>    4.3858    1.0000 </r>
        <r>    4.3858    1.0000 </r>
        <r>    7.3282    0.0000 </r>
        <r>    9.7665    0.0000 </r>
        <r>   10.5342    0.0000 </r>
        <r>   10.5342    0.0000 </r>
       </set>
       <set comment="kpoint 26">
        <r>   -5.5895    1.0000 </r>
        <r>    3.4969    1.0000 </r>
        <r>    4.4979    1.0000 </r>
        <r>    4.4979    1.0000 </r>
        <r>    7.4202    0.0000 </r>
        <r>    9.9294    0.0000 </r>
        <r>   10.3228    0.0000 </r>
        <r>   10.3228    0.0000 </r>
       </set>
       <set comment="kpoint 27">
        <r>   -5.6657    1.0000 </r>
        <r>    3.7202    1.0000 </r>
        <r>    4.6124    1.0000 </r>
        <r>    4.6124    1.0000 </r>
        <r>    7.5136    0.0000 </r>
        <r>   10.0637    0.0000 </r>
        <r>   10.1153    0.0000 </r>
        <r>   10.1153    0.0000 </r>
       </set>
       <set comment="kpoint 28">
        <r>   -5.7363    1.0000 </r>
        <r>    3.9410    1.0000 </r>
        <r>    4.7289    1.0000 </r>
        <r>    4.7289    1.0000 </r>
        <r>    7.6075    0.0000 </r>
        <r>    9.9123    0.0000 </r>
        <r>    9.9123    0.0000 </r>
        <r>   10.1549    0.0000 </r>
       </set>
       <set comment="kpoint 29">
        <r>   -5.8014    1.0000 </r>
        <r>    4.1587    1.0000 </r>
        <r>    4.8467    1.0000 </r>
        <r>    4.8467    1.0000 </r>
        <r>    7.7010    0.0000 </r>
        <r>    9.7139    0.0000 </r>
        <r>    9.7139    0.0000 </r>
        <r>   10.1902    0.0000 </r>
       </set>
       <set comment="kpoint 30">
        <r>   -5.8609    1.0000 </r>
        <r>    4.3719    1.0000 </r>
        <r>    4.9653    1.0000 </r>
        <r>    4.9653    1.0000 </r>
        <r>    7.7934    0.0000 </r>
        <r>    9.5225    0.0000 </r>
        <r>    9.5225    0.0000 </r>
        <r>   10.1629    0.0000 </r>
       </set>
       <set comment="kpoint 31">
        <r>   -5.9148    1.0000 </r>
        <r>    4.5797    1.0000 </r>
        <r>    5.0834    1.0000 </r>
        <r>    5.0834    1.0000 </r>
        <r>    7.8834    0.0000 </r>
        <r>    9.3380    0.0000 </r>
        <r>    9.3380    0.0000 </r>
        <r>   10.0813    0.0000 </r>
       </set>
       <set comment="kpoint 32">
        <r>   -5.9630    1.0000 </r>
        <r>    4.7806    1.0000 </r>
        <r>    5.1998    1.0000 </r>
        <r>    5.1998    1.0000 </r>
        <r>    7.9697    0.0000 </r>
        <r>    9.1618    0.0000 </r>
        <r>    9.1618    0.0000 </r>
        <r>    9.9614    0.0000 </r>
       </set>
       <set comment="kpoint 33">
        <r>   -6.0057    1.0000 </r>
        <r>    4.9725    1.0000 </r>
        <r>    5.3131    1.0000 </r>
        <r>    5.3131    1.0000 </r>
        <r>    8.0511    0.0000 </r>
        <r>    8.9957    0.0000 </r>
        <r>    8.9957    0.0000 </r>
        <r>    9.8196    0.0000 </r>
       </set>
       <set comment="kpoint 34">
        <r>   -6.0427    1.0000 </r>
        <r>    5.1529    1.0000 </r>
        <r>    5.4213    1.0000 </r>
        <r>    5.4213    1.0000 </r>
        <r>    8.1260    0.0000 </r>
        <r>    8.8416    0.0000 </r>
        <r>    8.8416    0.0000 </r>
        <r>    9.6695    0.0000 </r>
       </set>
       <set comment="kpoint 35">
        <r>   -6.0740    1.0000 </r>
        <r>    5.3184    1.0000 </r>
        <r>    5.5218    1.0000 </r>
        <r>    5.5218    1.0000 </r>
        <r>    8.1930    0.0000 </r>
        <r>    8.7022    0.0000 </r>
        <r>    8.7022    0.0000 </r>
        <r>    9.5218    0.0000 </r>
       </set>
       <set comment="kpoint 36">
        <r>   -6.0996    1.0000 </r>
        <r>    5.4648    1.0000 </r>
        <r>    5.6116    1.0000 </r>
        <r>    5.6116    1.0000 </r>
        <r>    8.2504    0.0000 </r>
        <r>    8.5804    0.0000 </r>
        <r>    8.5804    0.0000 </r>
        <r>    9.3854    0.0000 </r>
       </set>
       <set comment="kpoint 37">
        <r>   -6.1196    1.0000 </r>
        <r>    5.5873    1.0000 </r>
        <r>    5.6873    1.0000 </r>
        <r>    5.6873    1.0000 </r>
        <r>    8.2970    0.0000 </r>
        <r>    8.4799    0.0000 </r>
        <r>    8.4799    0.0000 </r>
        <r>    9.2684    0.0000 </r>
       </set>
       <set comment="kpoint 38">
        <r>   -6.1338    1.0000 </r>
        <r>    5.6803    1.0000 </r>
        <r>    5.7451    1.0000 </r>
        <r>    5.7451    1.0000 </r>
        <r>    8.3313    0.0000 </r>
        <r>    8.4043    0.0000 </r>
        <r>    8.4043    0.0000 </r>
        <r>    9.1781    0.0000 </r>
       </set>
       <set comment="kpoint 39">
        <r>   -6.1424    1.0000 </r>
        <r>    5.7387    1.0000 </r>
        <r>    5.7815    1.0000 </r>
        <r>    5.7815    1.0000 </r>
        <r>    8.3523    0.0000 </r>
        <r>    8.3572    0.0000 </r>
        <r>    8.3572    0.0000 </r>
        <r>    9.1210    0.0000 </r>
       </set>
       <set comment="kpoint 40">
        <r>   -6.1452    1.0000 </r>
        <r>    5.7586    1.0000 </r>
        <r>    5.7940    1.0000 </r>
        <r>    5.7940    1.0000 </r>
        <r>    8.3412    0.0000 </r>
        <r>    8.3412    0.0000 </r>
        <r>    8.3594    0.0000 </r>
        <r>    9.1014    0.0000 </r>
       </set>
       <set comment="kpoint 41">
        <r>   -6.1452    1.0000 </r>
        <r>    5.7586    1.0000 </r>
        <r>    5.7940    1.0000 </r>
        <r>    5.7940    1.0000 </r>
        <r>    8.3412    0.0000 </r>
        <r>    8.3412    0.0000 </r>
        <r>    8.3594    0.0000 </r>
        <r>    9.1014    0.0000 </r>
       </set>
       <set comment="kpoint 42">
        <r>   -6.1423    1.0000 </r>
        <r>    5.7463    1.0000 </r>
        <r>    5.7739    1.0000 </r>
        <r>    5.7813    1.0000 </r>
        <r>    8.3340    0.0000 </r>
        <r>    8.3570    0.0000 </r>
        <r>    8.3756    0.0000 </r>
        <r>    9.1210    0.0000 </r>
       </set>
       <set comment="kpoint 43">
        <r>   -6.1337    1.0000 </r>
        <r>    5.7102    1.0000 </r>
        <r>    5.7151    1.0000 </r>
        <r>    5.7444    1.0000 </r>
        <r>    8.3126    0.0000 </r>
        <r>    8.4035    0.0000 </r>
        <r>    8.4232    0.0000 </r>
        <r>    9.1784    0.0000 </r>
       </set>
       <set comment="kpoint 44">
        <r>   -6.1193    1.0000 </r>
        <r>    5.6216    1.0000 </r>
        <r>    5.6529    1.0000 </r>
        <r>    5.6858    1.0000 </r>
        <r>    8.2776    0.0000 </r>
        <r>    8.4783    0.0000 </r>
        <r>    8.4996    0.0000 </r>
        <r>    9.2689    0.0000 </r>
       </set>
       <set comment="kpoint 45">
        <r>   -6.0992    1.0000 </r>
        <r>    5.4986    1.0000 </r>
        <r>    5.5777    1.0000 </r>
        <r>    5.6091    1.0000 </r>
        <r>    8.2302    0.0000 </r>
        <r>    8.5778    0.0000 </r>
        <r>    8.6012    0.0000 </r>
        <r>    9.3860    0.0000 </r>
       </set>
       <set comment="kpoint 46">
        <r>   -6.0733    1.0000 </r>
        <r>    5.3516    1.0000 </r>
        <r>    5.4883    1.0000 </r>
        <r>    5.5181    1.0000 </r>
        <r>    8.1717    0.0000 </r>
        <r>    8.6984    0.0000 </r>
        <r>    8.7242    0.0000 </r>
        <r>    9.5223    0.0000 </r>
       </set>
       <set comment="kpoint 47">
        <r>   -6.0418    1.0000 </r>
        <r>    5.1856    1.0000 </r>
        <r>    5.3882    1.0000 </r>
        <r>    5.4163    1.0000 </r>
        <r>    8.1035    0.0000 </r>
        <r>    8.8366    0.0000 </r>
        <r>    8.8650    0.0000 </r>
        <r>    9.6696    0.0000 </r>
       </set>
       <set comment="kpoint 48">
        <r>   -6.0045    1.0000 </r>
        <r>    5.0049    1.0000 </r>
        <r>    5.2804    1.0000 </r>
        <r>    5.3068    1.0000 </r>
        <r>    8.0273    0.0000 </r>
        <r>    8.9893    0.0000 </r>
        <r>    9.0205    0.0000 </r>
        <r>    9.8191    0.0000 </r>
       </set>
       <set comment="kpoint 49">
        <r>   -5.9615    1.0000 </r>
        <r>    4.8127    1.0000 </r>
        <r>    5.1673    1.0000 </r>
        <r>    5.1921    1.0000 </r>
        <r>    7.9446    0.0000 </r>
        <r>    9.1540    0.0000 </r>
        <r>    9.1882    0.0000 </r>
        <r>    9.9600    0.0000 </r>
       </set>
       <set comment="kpoint 50">
        <r>   -5.9128    1.0000 </r>
        <r>    4.6117    1.0000 </r>
        <r>    5.0509    1.0000 </r>
        <r>    5.0741    1.0000 </r>
        <r>    7.8568    0.0000 </r>
        <r>    9.3288    0.0000 </r>
        <r>    9.3659    0.0000 </r>
        <r>   10.0792    0.0000 </r>
       </set>
       <set comment="kpoint 51">
        <r>   -5.8584    1.0000 </r>
        <r>    4.4039    1.0000 </r>
        <r>    4.9328    1.0000 </r>
        <r>    4.9545    1.0000 </r>
        <r>    7.7654    0.0000 </r>
        <r>    9.5119    0.0000 </r>
        <r>    9.5520    0.0000 </r>
        <r>   10.1611    0.0000 </r>
       </set>
       <set comment="kpoint 52">
        <r>   -5.7984    1.0000 </r>
        <r>    4.1908    1.0000 </r>
        <r>    4.8143    1.0000 </r>
        <r>    4.8347    1.0000 </r>
        <r>    7.6718    0.0000 </r>
        <r>    9.7028    0.0000 </r>
        <r>    9.7460    0.0000 </r>
        <r>   10.1904    0.0000 </r>
       </set>
       <set comment="kpoint 53">
        <r>   -5.7328    1.0000 </r>
        <r>    3.9735    1.0000 </r>
        <r>    4.6962    1.0000 </r>
        <r>    4.7153    1.0000 </r>
        <r>    7.5767    0.0000 </r>
        <r>    9.8987    0.0000 </r>
        <r>    9.9450    0.0000 </r>
        <r>   10.1591    0.0000 </r>
       </set>
       <set comment="kpoint 54">
        <r>   -5.6615    1.0000 </r>
        <r>    3.7530    1.0000 </r>
        <r>    4.5794    1.0000 </r>
        <r>    4.5973    1.0000 </r>
        <r>    7.4814    0.0000 </r>
        <r>   10.0717    0.0000 </r>
        <r>   10.1000    0.0000 </r>
        <r>   10.1495    0.0000 </r>
       </set>
       <set comment="kpoint 55">
        <r>   -5.5847    1.0000 </r>
        <r>    3.5298    1.0000 </r>
        <r>    4.4646    1.0000 </r>
        <r>    4.4814    1.0000 </r>
        <r>    7.3867    0.0000 </r>
        <r>    9.9388    0.0000 </r>
        <r>   10.3057    0.0000 </r>
        <r>   10.3584    0.0000 </r>
       </set>
       <set comment="kpoint 56">
        <r>   -5.5024    1.0000 </r>
        <r>    3.3048    1.0000 </r>
        <r>    4.3524    1.0000 </r>
        <r>    4.3681    1.0000 </r>
        <r>    7.2934    0.0000 </r>
        <r>    9.7775    0.0000 </r>
        <r>   10.5155    0.0000 </r>
        <r>   10.5715    0.0000 </r>
       </set>
       <set comment="kpoint 57">
        <r>   -5.4146    1.0000 </r>
        <r>    3.0783    1.0000 </r>
        <r>    4.2430    1.0000 </r>
        <r>    4.2576    1.0000 </r>
        <r>    7.2021    0.0000 </r>
        <r>    9.5978    0.0000 </r>
        <r>   10.7285    0.0000 </r>
        <r>   10.7879    0.0000 </r>
       </set>
       <set comment="kpoint 58">
        <r>   -5.3213    1.0000 </r>
        <r>    2.8506    1.0000 </r>
        <r>    4.1367    1.0000 </r>
        <r>    4.1504    1.0000 </r>
        <r>    7.1135    0.0000 </r>
        <r>    9.4079    0.0000 </r>
        <r>   10.9446    0.0000 </r>
        <r>   11.0073    0.0000 </r>
       </set>
       <set comment="kpoint 59">
        <r>   -5.2226    1.0000 </r>
        <r>    2.6220    1.0000 </r>
        <r>    4.0340    1.0000 </r>
        <r>    4.0468    1.0000 </r>
        <r>    7.0278    0.0000 </r>
        <r>    9.2134    0.0000 </r>
        <r>   11.1629    0.0000 </r>
        <r>   11.2290    0.0000 </r>
       </set>
       <set comment="kpoint 60">
        <r>   -5.1184    1.0000 </r>
        <r>    2.3928    1.0000 </r>
        <r>    3.9351    1.0000 </r>
        <r>    3.9470    1.0000 </r>
        <r>    6.9459    0.0000 </r>
        <r>    9.0182    0.0000 </r>
        <r>   11.3841    0.0000 </r>
        <r>   11.4536    0.0000 </r>
       </set>
       <set comment="kpoint 61">
        <r>   -5.0090    1.0000 </r>
        <r>    2.1633    1.0000 </r>
        <r>    3.8402    1.0000 </r>
        <r>    3.8513    1.0000 </r>
        <r>    6.8682    0.0000 </r>
        <r>    8.8249    0.0000 </r>
        <r>   11.6075    0.0000 </r>
        <r>   11.6804    0.0000 </r>
       </set>
       <set comment="kpoint 62">
        <r>   -4.8942    1.0000 </r>
        <r>    1.9336    1.0000 </r>
        <r>    3.7494    1.0000 </r>
        <r>    3.7597    1.0000 </r>
        <r>    6.7948    0.0000 </r>
        <r>    8.6352    0.0000 </r>
        <r>   11.8329    0.0000 </r>
        <r>   11.9093    0.0000 </r>
       </set>
       <set comment="kpoint 63">
        <r>   -4.7742    1.0000 </r>
        <r>    1.7040    1.0000 </r>
        <r>    3.6630    1.0000 </r>
        <r>    3.6726    1.0000 </r>
        <r>    6.7263    0.0000 </r>
        <r>    8.4507    0.0000 </r>
        <r>   12.0609    0.0000 </r>
        <r>   12.1406    0.0000 </r>
       </set>
       <set comment="kpoint 64">
        <r>   -4.6490    1.0000 </r>
        <r>    1.4746    1.0000 </r>
        <r>    3.5810    1.0000 </r>
        <r>    3.5899    1.0000 </r>
        <r>    6.6627    0.0000 </r>
        <r>    8.2722    0.0000 </r>
        <r>   12.2902    0.0000 </r>
        <r>   12.3741    0.0000 </r>
       </set>
       <set comment="kpoint 65">
        <r>   -4.5188    1.0000 </r>
        <r>    1.2457    1.0000 </r>
        <r>    3.5035    1.0000 </r>
        <r>    3.5117    1.0000 </r>
        <r>    6.6045    0.0000 </r>
        <r>    8.1007    0.0000 </r>
        <r>   12.5210    0.0000 </r>
        <r>   12.6082    0.0000 </r>
       </set>
       <set comment="kpoint 66">
        <r>   -4.3834    1.0000 </r>
        <r>    1.0173    1.0000 </r>
        <r>    3.4306    1.0000 </r>
        <r>    3.4382    1.0000 </r>
        <r>    6.5516    0.0000 </r>
        <r>    7.9362    0.0000 </r>
        <r>   12.7544    0.0000 </r>
        <r>   12.8440    0.0000 </r>
       </set>
       <set comment="kpoint 67">
        <r>   -4.2431    1.0000 </r>
        <r>    0.7897    1.0000 </r>
        <r>    3.3625    1.0000 </r>
        <r>    3.3694    1.0000 </r>
        <r>    6.5045    0.0000 </r>
        <r>    7.7794    0.0000 </r>
        <r>   12.9883    0.0000 </r>
        <r>   13.0811    0.0000 </r>
       </set>
       <set comment="kpoint 68">
        <r>   -4.0979    1.0000 </r>
        <r>    0.5631    1.0000 </r>
        <r>    3.2992    1.0000 </r>
        <r>    3.3055    1.0000 </r>
        <r>    6.4629    0.0000 </r>
        <r>    7.6304    0.0000 </r>
        <r>   13.2231    0.0000 </r>
        <r>   13.3191    0.0000 </r>
       </set>
       <set comment="kpoint 69">
        <r>   -3.9479    1.0000 </r>
        <r>    0.3377    1.0000 </r>
        <r>    3.2407    1.0000 </r>
        <r>    3.2464    1.0000 </r>
        <r>    6.4273    0.0000 </r>
        <r>    7.4896    0.0000 </r>
        <r>   13.4593    0.0000 </r>
        <r>   13.5580    0.0000 </r>
       </set>
       <set comment="kpoint 70">
        <r>   -3.7932    1.0000 </r>
        <r>    0.1137    1.0000 </r>
        <r>    3.1872    1.0000 </r>
        <r>    3.1924    1.0000 </r>
        <r>    6.3986    0.0000 </r>
        <r>    7.3572    0.0000 </r>
        <r>   13.6972    0.0000 </r>
        <r>   13.7987    0.0000 </r>
       </set>
       <set comment="kpoint 71">
        <r>   -3.6338    1.0000 </r>
        <r>   -0.1087    1.0000 </r>
        <r>    3.1387    1.0000 </r>
        <r>    3.1433    1.0000 </r>
        <r>    6.3762    0.0000 </r>
        <r>    7.2331    0.0000 </r>
        <r>   13.9363    0.0000 </r>
        <r>   14.0403    0.0000 </r>
       </set>
       <set comment="kpoint 72">
        <r>   -3.4697    1.0000 </r>
        <r>   -0.3293    1.0000 </r>
        <r>    3.0953    1.0000 </r>
        <r>    3.0993    1.0000 </r>
        <r>    6.3607    0.0000 </r>
        <r>    7.1177    0.0000 </r>
        <r>   14.1766    0.0000 </r>
        <r>   14.2825    0.0000 </r>
       </set>
       <set comment="kpoint 73">
        <r>   -3.3013    1.0000 </r>
        <r>   -0.5480    1.0000 </r>
        <r>    3.0568    1.0000 </r>
        <r>    3.0603    1.0000 </r>
        <r>    6.3518    0.0000 </r>
        <r>    7.0105    0.0000 </r>
        <r>   14.4170    0.0000 </r>
        <r>   14.5251    0.0000 </r>
       </set>
       <set comment="kpoint 74">
        <r>   -3.1285    1.0000 </r>
        <r>   -0.7644    1.0000 </r>
        <r>    3.0234    1.0000 </r>
        <r>    3.0264    1.0000 </r>
        <r>    6.3498    0.0000 </r>
        <r>    6.9116    0.0000 </r>
        <r>   14.6574    0.0000 </r>
        <r>   14.7679    0.0000 </r>
       </set>
       <set comment="kpoint 75">
        <r>   -2.9515    1.0000 </r>
        <r>   -0.9786    1.0000 </r>
        <r>    2.9952    1.0000 </r>
        <r>    2.9977    1.0000 </r>
        <r>    6.3549    0.0000 </r>
        <r>    6.8211    0.0000 </r>
        <r>   14.8978    0.0000 </r>
        <r>   15.0079    0.0000 </r>
       </set>
       <set comment="kpoint 76">
        <r>   -2.7704    1.0000 </r>
        <r>   -1.1902    1.0000 </r>
        <r>    2.9722    1.0000 </r>
        <r>    2.9742    1.0000 </r>
        <r>    6.3671    0.0000 </r>
        <r>    6.7388    0.0000 </r>
        <r>   15.1342    0.0000 </r>
        <r>   15.2428    0.0000 </r>
       </set>
       <set comment="kpoint 77">
        <r>   -2.5853    1.0000 </r>
        <r>   -1.3990    1.0000 </r>
        <r>    2.9543    1.0000 </r>
        <r>    2.9557    1.0000 </r>
        <r>    6.3866    0.0000 </r>
        <r>    6.6646    0.0000 </r>
        <r>   15.3632    0.0000 </r>
        <r>   15.4680    0.0000 </r>
       </set>
       <set comment="kpoint 78">
        <r>   -2.3964    1.0000 </r>
        <r>   -1.6050    1.0000 </r>
        <r>    2.9415    1.0000 </r>
        <r>    2.9425    1.0000 </r>
        <r>    6.4136    0.0000 </r>
        <r>    6.5985    0.0000 </r>
        <r>   15.5781    0.0000 </r>
        <r>   15.6701    0.0000 </r>
       </set>
       <set comment="kpoint 79">
        <r>   -2.2037    1.0000 </r>
        <r>   -1.8079    1.0000 </r>
        <r>    2.9340    1.0000 </r>
        <r>    2.9345    1.0000 </r>
        <r>    6.4482    0.0000 </r>
        <r>    6.5405    0.0000 </r>
        <r>   15.7577    0.0000 </r>
        <r>   15.8192    0.0000 </r>
       </set>
       <set comment="kpoint 80">
        <r>   -2.0075    1.0000 </r>
        <r>   -2.0075    1.0000 </r>
        <r>    2.9316    1.0000 </r>
        <r>    2.9316    1.0000 </r>
        <r>    6.4904    0.0000 </r>
        <r>    6.4904    0.0000 </r>
        <r>   15.8559    0.0000 </r>
        <r>   15.8595    0.0000 </r>
       </set>
      </set>
     </set>
    </array>
   </eigenvalues>
   <array>
    <dimension dim="1">ion</dimension>
    <dimension dim="2">band</dimension>
    <dimension dim="3">kpoint</dimension>
    <dimension dim="4">spin</dimension>
    <field>    s</field>
    <field>   py</field>
    <field>   pz</field>
    <field>   px</field>
    <field>  dxy</field>
    <field>  dyz</field>
    <field>  dz2</field>
    <field>  dxz</field>
    <field>x2-y2</field>
    <set>
     <set comment="spin1">
      <set comment="kpoint 1">
       <set comment="band 1">
        <r>  0.3858  0.0000  0.0000  0.0000  0.0000  0.0000  0.0000  0.0000  0.0000 </r>
        <r>  0.0001  0.0000  0.0000  0.0906  0.0000  0.0000  0.0000  0.0000  0.0000 </r>
       </set>
       <set comment="band 2">
        <r>  0.0001  0.0000  0.0000  0.0906  0.0000  0.0000  0.0000  0.0000  0.0000 </r>
        <r>  0.3858  0.0000  0.0000  0.0000  0.0000  0.0000  0.0000  0.0000  0.0000 </r>
       </set>
       <set comment="band 3">
        <r>  0.0000  0.0950  0.1027  0.0000  0.0000  0.0000  0.0000  0.0000  0.0000 </r>
        <r>  0.0000  0.1027  0.0950  0.0000  0.0000  0.0000  0.0000  0.0000  0.0000 </r>
       </set>
       <set comment="band 4">
        <r>  0.0000  0.1027  0.0950  0.0000  0.0000  0.0000  0.0000  0.0000  0.0000 </r>
        <r>  0.0000  0.0950  0.1027  0.0000  0.0000  0.0000  0.0000  0.0000  0.0000 </r>
       </set>
       <set comment="band 5">
        <r>  0.0206  0.0000  0.0000  0.0561  0.0000  0.0000  0.0000  0.0000  0.0000 </r>
        <r>  0.0831  0.0000  0.0000  0.0139  0.0000  0.0000  0.0000  0.0000  0.0000 </r>
       </set>
       <set comment="band 6">
        <r>  0.0831  0.0000  0.0000  0.0139  0.0000  0.0000  0.0000  0.0000  0.0000 </r>
        <r>  0.0206  0.0000  0.0000  0.0561  0.0000  0.0000  0.0000  0.0000  0.0000 </r>
       </set>
       <set comment="band 7">
        <r>  0.0000  0.0047  0.2368  0.0000  0.0000  0.0000  0.0000  0.0000  0.0000 </r>
        <r>  0.0000  0.2369  0.0047  0.0000  0.0000  0.0000  0.0000  0.0000  0.0000 </r>
       </set>
       <set comment="band 8">
        <r>  0.0000  0.2367  0.0046  0.0000  0.0000  0.0000  0.0000  0.0000  0.0000 </r>
        <r>  0.0000  0.0048  0.2368  0.0000  0.0000  0.0000  0.0000  0.0000  0.0000 </r>
       </set>
      </set>
      <set comment="kpoint 2">
       <set comment="band 1">
        <r>  0.1940  0.0000  0.0000  0.0431  0.0000  0.0000  0.0000  0.0000  0.0000 </r>
        <r>  0.1940  0.0000  0.0000  0.0431  0.0000  0.0000  0.0000  0.0000  0.0000 </r>
       </set>
       <set comment="band 2">
        <r>  0.1920  0.0000  0.0000  0.0476  0.0000  0.0000  0.0000  0.0000  0.0000 </r>
        <r>  0.1920  0.0000  0.0000  0.0476  0.0000  0.0000  0.0000  0.0000  0.0000 </r>
       </set>
       <set comment="band 3">
        <r>  0.0000  0.0950  0.1027  0.0000  0.0000  0.0000  0.0000  0.0000  0.0000 </r>
        <r>  0.0000  0.1027  0.0950  0.0000  0.0000  0.0000  0.0000  0.0000  0.0000 </r>
       </set>
       <set comment="band 4">
        <r>  0.0000  0.1027  0.0950  0.0000  0.0000  0.0000  0.0000  0.0000  0.0000 </r>
        <r>  0.0000  0.0950  0.1027  0.0000  0.0000  0.0000  0.0000  0.0000  0.0000 </r>
       </set>
       <set comment="band 5">
        <r>  0.0523  0.0000  0.0000  0.0361  0.0000  0.0000  0.0000  0.0000  0.0000 </r>
        <r>  0.0523  0.0000  0.0000  0.0361  0.0000  0.0000  0.0000  0.0000  0.0000 </r>
       </set>
       <set comment="band 6">
        <r>  0.0514  0.0000  0.0000  0.0340  0.0000  0.0000  0.0000  0.0000  0.0000 </r>
        <r>  0.0514  0.0000  0.0000  0.0340  0.0000  0.0000  0.0000  0.0000  0.0000 </r>
       </set>
       <set comment="band 7">
        <r>  0.0000  0.0390  0.1880  0.0000  0.0000  0.0000  0.0000  0.0000  0.0000 </r>
        <r>  0.0000  0.2044  0.0231  0.0000  0.0000  0.0000  0.0000  0.0000  0.0000 </r>
       </set>
       <set comment="band 8">
        <r>  0.0000  0.1846  0.0397  0.0000  0.0000  0.0000  0.0000  0.0000  0.0000 </r>
        <r>  0.0000  0.0225  0.2002  0.0000  0.0000  0.0000  0.0000  0.0000  0.0000 </r>
       </set>
      </set>
      <set comment="kpoint 3">
       <set comment="band 1">
        <r>  0.1949  0.0000  0.0000  0.0410  0.0000  0.0000  0.0000  0.0000  0.0000 </r>
        <r>  0.1949  0.0000  0.0000  0.0410  0.0000  0.0000  0.0000  0.0000  0.0000 </r>
       </set>
       <set comment="band 2">
        <r>  0.1909  0.0000  0.0000  0.0498  0.0000  0.0000  0.0000  0.0000  0.0000 </r>
        <r>  0.1909  0.0000  0.0000  0.0498  0.0000  0.0000  0.0000  0.0000  0.0000 </r>
       </set>
       <set comment="band 3">
        <r>  0.0000  0.0950  0.1026  0.0000  0.0000  0.0000  0.0000  0.0000  0.0000 </r>
        <r>  0.0000  0.1026  0.0950  0.0000  0.0000  0.0000  0.0000  0.0000  0.0000 </r>
       </set>
       <set comment="band 4">
        <r>  0.0000  0.1026  0.0950  0.0000  0.0000  0.0000  0.0000  0.0000  0.0000 </r>
        <r>  0.0000  0.0950  0.1026  0.0000  0.0000  0.0000  0.0000  0.0000  0.0000 </r>
       </set>
       <set comment="band 5">
        <r>  0.0526  0.0000  0.0000  0.0373  0.0000  0.0000  0.0000  0.0000  0.0000 </r>
        <r>  0.0526  0.0000  0.0000  0.0373  0.0000  0.0000  0.0000  0.0000  0.0000 </r>
       </set>
       <set comment="band 6">
        <r>  0.0508  0.0000  0.0000  0.0331  0.0000  0.0000  0.0000  0.0000  0.0000 </r>
        <r>  0.0508  0.0000  0.0000  0.0331  0.0000  0.0000  0.0000  0.0000  0.0000 </r>
       </set>
       <set comment="band 7">
        <r>  0.0000  0.0533  0.1511  0.0000  0.0000  0.0000  0.0000  0.0000  0.0000 </r>
        <r>  0.0000  0.1490  0.0557  0.0000  0.0000  0.0000  0.0000  0.0000  0.0000 </r>
       </set>
       <set comment="band 8">
        <r>  0.0000  0.1519  0.0539  0.0000  0.0000  0.0000  0.0000  0.0000  0.0000 </r>
        <r>  0.0000  0.0558  0.1485  0.0000  0.0000  0.0000  0.0000  0.0000  0.0000 </r>
       </set>
      </set>
      <set comment="kpoint 4">
       <set comment="band 1">
        <r>  0.1959  0.0000  0.0000  0.0389  0.0000  0.0000  0.0000  0.0000  0.0000 </r>
        <r>  0.1959  0.0000  0.0000  0.0389  0.0000  0.0000  0.0000  0.0000  0.0000 </r>
       </set>
       <set comment="band 2">
        <r>  0.1897  0.0000  0.0000  0.0522  0.0000  0.0000  0.0000  0.0000  0.0000 </r>
        <r>  0.1897  0.0000  0.0000  0.0522  0.0000  0.0000  0.0000  0.0000  0.0000 </r>
       </set>
       <set comment="band 3">
        <r>  0.0000  0.0950  0.1026  0.0000  0.0000  0.0000  0.0000  0.0000  0.0000 </r>
        <r>  0.0000  0.1026  0.0950  0.0000  0.0000  0.0000  0.0000  0.0000  0.0000 </r>
       </set>
       <set comment="band 4">
        <r>  0.0000  0.1026  0.0950  0.0000  0.0000  0.0000  0.0000  0.0000  0.0000 </r>
        <r>  0.0000  0.0950  0.1026  0.0000  0.0000  0.0000  0.0000  0.0000  0.0000 </r>
       </set>
       <set comment="band 5">
        <r>  0.0529  0.0000  0.0000  0.0386  0.0000  0.0000  0.0000  0.0000  0.0000 </r>
        <r>  0.0529  0.0000  0.0000  0.0386  0.0000  0.0000  0.0000  0.0000  0.0000 </r>
       </set>
       <set comment="band 6">
        <r>  0.0502  0.0000  0.0000  0.0323  0.0000  0.0000  0.0000  0.0000  0.0000 </r>
        <r>  0.0502  0.0000  0.0000  0.0323  0.0000  0.0000  0.0000  0.0000  0.0000 </r>
       </set>
       <set comment="band 7">
        <r>  0.0000  0.0483  0.1410  0.0000  0.0000  0.0000  0.0000  0.0000  0.0000 </r>
        <r>  0.0000  0.1594  0.0300  0.0000  0.0000  0.0000  0.0000  0.0000  0.0000 </r>
       </set>
       <set comment="band 8">
        <r>  0.0000  0.1410  0.0483  0.0000  0.0000  0.0000  0.0000  0.0000  0.0000 </r>
        <r>  0.0000  0.0299  0.1593  0.0000  0.0000  0.0000  0.0000  0.0000  0.0000 </r>
       </set>
      </set>
      <set comment="kpoint 5">
       <set comment="band 1">
        <r>  0.1968  0.0000  0.0000  0.0369  0.0000  0.0000  0.0000  0.0000  0.0000 </r>
        <r>  0.1968  0.0000  0.0000  0.0369  0.0000  0.0000  0.0000  0.0000  0.0000 </r>
       </set>
       <set comment="band 2">
        <r>  0.1886  0.0000  0.0000  0.0546  0.0000  0.0000  0.0000  0.0000  0.0000 </r>
        <r>  0.1886  0.0000  0.0000  0.0546  0.0000  0.0000  0.0000  0.0000  0.0000 </r>
       </set>
       <set comment="band 3">
        <r>  0.0000  0.0950  0.1026  0.0000  0.0000  0.0000  0.0000  0.0000  0.0000 </r>
        <r>  0.0000  0.1026  0.0950  0.0000  0.0000  0.0000  0.0000  0.0000  0.0000 </r>
       </set>
       <set comment="band 4">
        <r>  0.0000  0.1026  0.0950  0.0000  0.0000  0.0000  0.0000  0.0000  0.0000 </r>
        <r>  0.0000  0.0950  0.1026  0.0000  0.0000  0.0000  0.0000  0.0000  0.0000 </r>
       </set>
       <set comment="band 5">
        <r>  0.0531  0.0000  0.0000  0.0400  0.0000  0.0000  0.0000  0.0000  0.0000 </r>
        <r>  0.0531  0.0000  0.0000  0.0400  0.0000  0.0000  0.0000  0.0000  0.0000 </r>
       </set>
       <set comment="band 6">
        <r>  0.0495  0.0000  0.0000  0.0317  0.0000  0.0000  0.0000  0.0000  0.0000 </r>
        <r>  0.0495  0.0000  0.0000  0.0317  0.0000  0.0000  0.0000  0.0000  0.0000 </r>
       </set>
       <set comment="band 7">
        <r>  0.0000  0.1042  0.0758  0.0000  0.0000  0.0000  0.0000  0.0000  0.0000 </r>
        <r>  0.0000  0.0561  0.1239  0.0000  0.0000  0.0000  0.0000  0.0000  0.0000 </r>
       </set>
       <set comment="band 8">
        <r>  0.0000  0.0758  0.1043  0.0000  0.0000  0.0000  0.0000  0.0000  0.0000 </r>
        <r>  0.0000  0.1239  0.0561  0.0000  0.0000  0.0000  0.0000  0.0000  0.0000 </r>
       </set>
      </set>
      <set comment="kpoint 6">
       <set comment="band 1">
        <r>  0.1976  0.0000  0.0000  0.0349  0.0000  0.0000  0.0000  0.0000  0.0000 </r>
        <r>  0.1976  0.0000  0.0000  0.0349  0.0000  0.0000  0.0000  0.0000  0.0000 </r>
       </set>
       <set comment="band 2">
        <r>  0.1873  0.0000  0.0000  0.0571  0.0000  0.0000  0.0000  0.0000  0.0000 </r>
        <r>  0.1873  0.0000  0.0000  0.0571  0.0000  0.0000  0.0000  0.0000  0.0000 </r>
       </set>
       <set comment="band 3">
        <r>  0.0000  0.0950  0.1026  0.0000  0.0000  0.0000  0.0000  0.0000  0.0000 </r>
        <r>  0.0000  0.1026  0.0950  0.0000  0.0000  0.0000  0.0000  0.0000  0.0000 </r>
       </set>
       <set comment="band 4">
        <r>  0.0000  0.1026  0.0950  0.0000  0.0000  0.0000  0.0000  0.0000  0.0000 </r>
        <r>  0.0000  0.0950  0.1026  0.0000  0.0000  0.0000  0.0000  0.0000  0.0000 </r>
       </set>
       <set comment="band 5">
        <r>  0.0532  0.0000  0.0000  0.0415  0.0000  0.0000  0.0000  0.0000  0.0000 </r>
        <r>  0.0532  0.0000  0.0000  0.0415  0.0000  0.0000  0.0000  0.0000  0.0000 </r>
       </set>
       <set comment="band 6">
        <r>  0.0489  0.0000  0.0000  0.0311  0.0000  0.0000  0.0000  0.0000  0.0000 </r>
        <r>  0.0489  0.0000  0.0000  0.0311  0.0000  0.0000  0.0000  0.0000  0.0000 </r>
       </set>
       <set comment="band 7">
        <r>  0.0000  0.0621  0.1122  0.0000  0.0000  0.0000  0.0000  0.0000  0.0000 </r>
        <r>  0.0000  0.1352  0.0392  0.0000  0.0000  0.0000  0.0000  0.0000  0.0000 </r>
       </set>
       <set comment="band 8">
        <r>  0.0000  0.1122  0.0622  0.0000  0.0000  0.0000  0.0000  0.0000  0.0000 </r>
        <r>  0.0000  0.0392  0.1352  0.0000  0.0000  0.0000  0.0000  0.0000  0.0000 </r>
       </set>
      </set>
      <set comment="kpoint 7">
       <set comment="band 1">
        <r>  0.1985  0.0000  0.0000  0.0329  0.0000  0.0000  0.0000  0.0000  0.0000 </r>
        <r>  0.1985  0.0000  0.0000  0.0329  0.0000  0.0000  0.0000  0.0000  0.0000 </r>
       </set>
       <set comment="band 2">
        <r>  0.1860  0.0000  0.0000  0.0596  0.0000  0.0000  0.0000  0.0000  0.0000 </r>
        <r>  0.1860  0.0000  0.0000  0.0596  0.0000  0.0000  0.0000  0.0000  0.0000 </r>
       </set>
       <set comment="band 3">
        <r>  0.0000  0.0950  0.1026  0.0000  0.0000  0.0000  0.0000  0.0000  0.0000 </r>
        <r>  0.0000  0.1026  0.0950  0.0000  0.0000  0.0000  0.0000  0.0000  0.0000 </r>
       </set>
       <set comment="band 4">
        <r>  0.0000  0.1026  0.0950  0.0000  0.0000  0.0000  0.0000  0.0000  0.0000 </r>
        <r>  0.0000  0.0950  0.1026  0.0000  0.0000  0.0000  0.0000  0.0000  0.0000 </r>
       </set>
       <set comment="band 5">
        <r>  0.0532  0.0000  0.0000  0.0432  0.0000  0.0000  0.0000  0.0000  0.0000 </r>
        <r>  0.0532  0.0000  0.0000  0.0432  0.0000  0.0000  0.0000  0.0000  0.0000 </r>
       </set>
       <set comment="band 6">
        <r>  0.0482  0.0000  0.0000  0.0306  0.0000  0.0000  0.0000  0.0000  0.0000 </r>
        <r>  0.0482  0.0000  0.0000  0.0306  0.0000  0.0000  0.0000  0.0000  0.0000 </r>
       </set>
       <set comment="band 7">
        <r>  0.0000  0.0883  0.0823  0.0000  0.0000  0.0000  0.0000  0.0000  0.0000 </r>
        <r>  0.0000  0.0516  0.1190  0.0000  0.0000  0.0000  0.0000  0.0000  0.0000 </r>
       </set>
       <set comment="band 8">
        <r>  0.0000  0.0823  0.0883  0.0000  0.0000  0.0000  0.0000  0.0000  0.0000 </r>
        <r>  0.0000  0.1190  0.0516  0.0000  0.0000  0.0000  0.0000  0.0000  0.0000 </r>
       </set>
      </set>
      <set comment="kpoint 8">
       <set comment="band 1">
        <r>  0.1993  0.0000  0.0000  0.0310  0.0000  0.0000  0.0000  0.0000  0.0000 </r>
        <r>  0.1993  0.0000  0.0000  0.0310  0.0000  0.0000  0.0000  0.0000  0.0000 </r>
       </set>
       <set comment="band 2">
        <r>  0.1846  0.0000  0.0000  0.0621  0.0000  0.0000  0.0000  0.0000  0.0000 </r>
        <r>  0.1846  0.0000  0.0000  0.0621  0.0000  0.0000  0.0000  0.0000  0.0000 </r>
       </set>
       <set comment="band 3">
        <r>  0.0000  0.0950  0.1026  0.0000  0.0000  0.0000  0.0000  0.0000  0.0000 </r>
        <r>  0.0000  0.1026  0.0950  0.0000  0.0000  0.0000  0.0000  0.0000  0.0000 </r>
       </set>
       <set comment="band 4">
        <r>  0.0000  0.1026  0.0950  0.0000  0.0000  0.0000  0.0000  0.0000  0.0000 </r>
        <r>  0.0000  0.0950  0.1026  0.0000  0.0000  0.0000  0.0000  0.0000  0.0000 </r>
       </set>
       <set comment="band 5">
        <r>  0.0531  0.0000  0.0000  0.0448  0.0000  0.0000  0.0000  0.0000  0.0000 </r>
        <r>  0.0531  0.0000  0.0000  0.0448  0.0000  0.0000  0.0000  0.0000  0.0000 </r>
       </set>
       <set comment="band 6">
        <r>  0.0475  0.0000  0.0000  0.0303  0.0000  0.0000  0.0000  0.0000  0.0000 </r>
        <r>  0.0475  0.0000  0.0000  0.0303  0.0000  0.0000  0.0000  0.0000  0.0000 </r>
       </set>
       <set comment="band 7">
        <r>  0.0000  0.1009  0.0675  0.0000  0.0000  0.0000  0.0000  0.0000  0.0000 </r>
        <r>  0.0000  0.0459  0.1226  0.0000  0.0000  0.0000  0.0000  0.0000  0.0000 </r>
       </set>
       <set comment="band 8">
        <r>  0.0000  0.0675  0.1009  0.0000  0.0000  0.0000  0.0000  0.0000  0.0000 </r>
        <r>  0.0000  0.1226  0.0459  0.0000  0.0000  0.0000  0.0000  0.0000  0.0000 </r>
       </set>
      </set>
      <set comment="kpoint 9">
       <set comment="band 1">
        <r>  0.2001  0.0000  0.0000  0.0292  0.0000  0.0000  0.0000  0.0000  0.0000 </r>
        <r>  0.2001  0.0000  0.0000  0.0292  0.0000  0.0000  0.0000  0.0000  0.0000 </r>
       </set>
       <set comment="band 2">
        <r>  0.1831  0.0000  0.0000  0.0647  0.0000  0.0000  0.0000  0.0000  0.0000 </r>
        <r>  0.1831  0.0000  0.0000  0.0647  0.0000  0.0000  0.0000  0.0000  0.0000 </r>
       </set>
       <set comment="band 3">
        <r>  0.0000  0.0951  0.1026  0.0000  0.0000  0.0000  0.0000  0.0000  0.0000 </r>
        <r>  0.0000  0.1026  0.0951  0.0000  0.0000  0.0000  0.0000  0.0000  0.0000 </r>
       </set>
       <set comment="band 4">
        <r>  0.0000  0.1026  0.0951  0.0000  0.0000  0.0000  0.0000  0.0000  0.0000 </r>
        <r>  0.0000  0.0951  0.1026  0.0000  0.0000  0.0000  0.0000  0.0000  0.0000 </r>
       </set>
       <set comment="band 5">
        <r>  0.0529  0.0000  0.0000  0.0467  0.0000  0.0000  0.0000  0.0000  0.0000 </r>
        <r>  0.0529  0.0000  0.0000  0.0467  0.0000  0.0000  0.0000  0.0000  0.0000 </r>
       </set>
       <set comment="band 6">
        <r>  0.0468  0.0000  0.0000  0.0301  0.0000  0.0000  0.0000  0.0000  0.0000 </r>
        <r>  0.0468  0.0000  0.0000  0.0301  0.0000  0.0000  0.0000  0.0000  0.0000 </r>
       </set>
       <set comment="band 7">
        <r>  0.0000  0.1641  0.0029  0.0000  0.0000  0.0000  0.0000  0.0000  0.0000 </r>
        <r>  0.0000  0.0132  0.1538  0.0000  0.0000  0.0000  0.0000  0.0000  0.0000 </r>
       </set>
       <set comment="band 8">
        <r>  0.0000  0.0029  0.1641  0.0000  0.0000  0.0000  0.0000  0.0000  0.0000 </r>
        <r>  0.0000  0.1538  0.0132  0.0000  0.0000  0.0000  0.0000  0.0000  0.0000 </r>
       </set>
      </set>
      <set comment="kpoint 10">
       <set comment="band 1">
        <r>  0.2008  0.0000  0.0000  0.0274  0.0000  0.0000  0.0000  0.0000  0.0000 </r>
        <r>  0.2008  0.0000  0.0000  0.0274  0.0000  0.0000  0.0000  0.0000  0.0000 </r>
       </set>
       <set comment="band 2">
        <r>  0.1815  0.0000  0.0000  0.0674  0.0000  0.0000  0.0000  0.0000  0.0000 </r>
        <r>  0.1815  0.0000  0.0000  0.0674  0.0000  0.0000  0.0000  0.0000  0.0000 </r>
       </set>
       <set comment="band 3">
        <r>  0.0000  0.0951  0.1026  0.0000  0.0000  0.0000  0.0000  0.0000  0.0000 </r>
        <r>  0.0000  0.1026  0.0951  0.0000  0.0000  0.0000  0.0000  0.0000  0.0000 </r>
       </set>
       <set comment="band 4">
        <r>  0.0000  0.1026  0.0951  0.0000  0.0000  0.0000  0.0000  0.0000  0.0000 </r>
        <r>  0.0000  0.0951  0.1026  0.0000  0.0000  0.0000  0.0000  0.0000  0.0000 </r>
       </set>
       <set comment="band 5">
        <r>  0.0527  0.0000  0.0000  0.0486  0.0000  0.0000  0.0000  0.0000  0.0000 </r>
        <r>  0.0527  0.0000  0.0000  0.0486  0.0000  0.0000  0.0000  0.0000  0.0000 </r>
       </set>
       <set comment="band 6">
        <r>  0.0462  0.0000  0.0000  0.0299  0.0000  0.0000  0.0000  0.0000  0.0000 </r>
        <r>  0.0462  0.0000  0.0000  0.0299  0.0000  0.0000  0.0000  0.0000  0.0000 </r>
       </set>
       <set comment="band 7">
        <r>  0.0000  0.0682  0.0978  0.0000  0.0000  0.0000  0.0000  0.0000  0.0000 </r>
        <r>  0.0000  0.1377  0.0283  0.0000  0.0000  0.0000  0.0000  0.0000  0.0000 </r>
       </set>
       <set comment="band 8">
        <r>  0.0000  0.0978  0.0682  0.0000  0.0000  0.0000  0.0000  0.0000  0.0000 </r>
        <r>  0.0000  0.0283  0.1377  0.0000  0.0000  0.0000  0.0000  0.0000  0.0000 </r>
       </set>
      </set>
      <set comment="kpoint 11">
       <set comment="band 1">
        <r>  0.2015  0.0000  0.0000  0.0256  0.0000  0.0000  0.0000  0.0000  0.0000 </r>
        <r>  0.2015  0.0000  0.0000  0.0256  0.0000  0.0000  0.0000  0.0000  0.0000 </r>
       </set>
       <set comment="band 2">
        <r>  0.1797  0.0000  0.0000  0.0701  0.0000  0.0000  0.0000  0.0000  0.0000 </r>
        <r>  0.1797  0.0000  0.0000  0.0701  0.0000  0.0000  0.0000  0.0000  0.0000 </r>
       </set>
       <set comment="band 3">
        <r>  0.0000  0.0951  0.1026  0.0000  0.0000  0.0000  0.0000  0.0000  0.0000 </r>
        <r>  0.0000  0.1026  0.0951  0.0000  0.0000  0.0000  0.0000  0.0000  0.0000 </r>
       </set>
       <set comment="band 4">
        <r>  0.0000  0.1026  0.0951  0.0000  0.0000  0.0000  0.0000  0.0000  0.0000 </r>
        <r>  0.0000  0.0951  0.1026  0.0000  0.0000  0.0000  0.0000  0.0000  0.0000 </r>
       </set>
       <set comment="band 5">
        <r>  0.0523  0.0000  0.0000  0.0507  0.0000  0.0000  0.0000  0.0000  0.0000 </r>
        <r>  0.0523  0.0000  0.0000  0.0507  0.0000  0.0000  0.0000  0.0000  0.0000 </r>
       </set>
       <set comment="band 6">
        <r>  0.0455  0.0000  0.0000  0.0299  0.0000  0.0000  0.0000  0.0000  0.0000 </r>
        <r>  0.0455  0.0000  0.0000  0.0299  0.0000  0.0000  0.0000  0.0000  0.0000 </r>
       </set>
       <set comment="band 7">
        <r>  0.0000  0.0917  0.0740  0.0000  0.0000  0.0000  0.0000  0.0000  0.0000 </r>
        <r>  0.0000  0.0371  0.1286  0.0000  0.0000  0.0000  0.0000  0.0000  0.0000 </r>
       </set>
       <set comment="band 8">
        <r>  0.0000  0.0740  0.0917  0.0000  0.0000  0.0000  0.0000  0.0000  0.0000 </r>
        <r>  0.0000  0.1286  0.0371  0.0000  0.0000  0.0000  0.0000  0.0000  0.0000 </r>
       </set>
      </set>
      <set comment="kpoint 12">
       <set comment="band 1">
        <r>  0.2023  0.0000  0.0000  0.0240  0.0000  0.0000  0.0000  0.0000  0.0000 </r>
        <r>  0.2023  0.0000  0.0000  0.0240  0.0000  0.0000  0.0000  0.0000  0.0000 </r>
       </set>
       <set comment="band 2">
        <r>  0.1779  0.0000  0.0000  0.0729  0.0000  0.0000  0.0000  0.0000  0.0000 </r>
        <r>  0.1779  0.0000  0.0000  0.0729  0.0000  0.0000  0.0000  0.0000  0.0000 </r>
       </set>
       <set comment="band 3">
        <r>  0.0000  0.0952  0.1026  0.0000  0.0000  0.0000  0.0000  0.0000  0.0000 </r>
        <r>  0.0000  0.1026  0.0952  0.0000  0.0000  0.0000  0.0000  0.0000  0.0000 </r>
       </set>
       <set comment="band 4">
        <r>  0.0000  0.1026  0.0952  0.0000  0.0000  0.0000  0.0000  0.0000  0.0000 </r>
        <r>  0.0000  0.0952  0.1026  0.0000  0.0000  0.0000  0.0000  0.0000  0.0000 </r>
       </set>
       <set comment="band 5">
        <r>  0.0518  0.0000  0.0000  0.0529  0.0000  0.0000  0.0000  0.0000  0.0000 </r>
        <r>  0.0518  0.0000  0.0000  0.0529  0.0000  0.0000  0.0000  0.0000  0.0000 </r>
       </set>
       <set comment="band 6">
        <r>  0.0450  0.0000  0.0000  0.0300  0.0000  0.0000  0.0000  0.0000  0.0000 </r>
        <r>  0.0450  0.0000  0.0000  0.0300  0.0000  0.0000  0.0000  0.0000  0.0000 </r>
       </set>
       <set comment="band 7">
        <r>  0.0000  0.1552  0.0104  0.0000  0.0000  0.0000  0.0000  0.0000  0.0000 </r>
        <r>  0.0000  0.0349  0.1307  0.0000  0.0000  0.0000  0.0000  0.0000  0.0000 </r>
       </set>
       <set comment="band 8">
        <r>  0.0000  0.0104  0.1552  0.0000  0.0000  0.0000  0.0000  0.0000  0.0000 </r>
        <r>  0.0000  0.1307  0.0349  0.0000  0.0000  0.0000  0.0000  0.0000  0.0000 </r>
       </set>
      </set>
      <set comment="kpoint 13">
       <set comment="band 1">
        <r>  0.2030  0.0000  0.0000  0.0223  0.0000  0.0000  0.0000  0.0000  0.0000 </r>
        <r>  0.2030  0.0000  0.0000  0.0223  0.0000  0.0000  0.0000  0.0000  0.0000 </r>
       </set>
       <set comment="band 2">
        <r>  0.1759  0.0000  0.0000  0.0758  0.0000  0.0000  0.0000  0.0000  0.0000 </r>
        <r>  0.1759  0.0000  0.0000  0.0758  0.0000  0.0000  0.0000  0.0000  0.0000 </r>
       </set>
       <set comment="band 3">
        <r>  0.0000  0.0953  0.1026  0.0000  0.0000  0.0000  0.0000  0.0000  0.0000 </r>
        <r>  0.0000  0.1027  0.0952  0.0000  0.0000  0.0000  0.0000  0.0000  0.0000 </r>
       </set>
       <set comment="band 4">
        <r>  0.0000  0.1026  0.0953  0.0000  0.0000  0.0000  0.0000  0.0000  0.0000 </r>
        <r>  0.0000  0.0952  0.1027  0.0000  0.0000  0.0000  0.0000  0.0000  0.0000 </r>
       </set>
       <set comment="band 5">
        <r>  0.0511  0.0000  0.0000  0.0553  0.0000  0.0000  0.0000  0.0000  0.0000 </r>
        <r>  0.0511  0.0000  0.0000  0.0553  0.0000  0.0000  0.0000  0.0000  0.0000 </r>
       </set>
       <set comment="band 6">
        <r>  0.0446  0.0000  0.0000  0.0302  0.0000  0.0000  0.0000  0.0000  0.0000 </r>
        <r>  0.0446  0.0000  0.0000  0.0302  0.0000  0.0000  0.0000  0.0000  0.0000 </r>
       </set>
       <set comment="band 7">
        <r>  0.0000  0.0897  0.0757  0.0000  0.0000  0.0000  0.0000  0.0000  0.0000 </r>
        <r>  0.0000  0.0958  0.0697  0.0000  0.0000  0.0000  0.0000  0.0000  0.0000 </r>
       </set>
       <set comment="band 8">
        <r>  0.0000  0.0757  0.0897  0.0000  0.0000  0.0000  0.0000  0.0000  0.0000 </r>
        <r>  0.0000  0.0696  0.0958  0.0000  0.0000  0.0000  0.0000  0.0000  0.0000 </r>
       </set>
      </set>
      <set comment="kpoint 14">
       <set comment="band 1">
        <r>  0.2037  0.0000  0.0000  0.0208  0.0000  0.0000  0.0000  0.0000  0.0000 </r>
        <r>  0.2037  0.0000  0.0000  0.0208  0.0000  0.0000  0.0000  0.0000  0.0000 </r>
       </set>
       <set comment="band 2">
        <r>  0.1738  0.0000  0.0000  0.0787  0.0000  0.0000  0.0000  0.0000  0.0000 </r>
        <r>  0.1738  0.0000  0.0000  0.0787  0.0000  0.0000  0.0000  0.0000  0.0000 </r>
       </set>
       <set comment="band 3">
        <r>  0.0000  0.0953  0.1026  0.0000  0.0000  0.0000  0.0000  0.0000  0.0000 </r>
        <r>  0.0000  0.1027  0.0953  0.0000  0.0000  0.0000  0.0000  0.0000  0.0000 </r>
       </set>
       <set comment="band 4">
        <r>  0.0000  0.1026  0.0953  0.0000  0.0000  0.0000  0.0000  0.0000  0.0000 </r>
        <r>  0.0000  0.0953  0.1027  0.0000  0.0000  0.0000  0.0000  0.0000  0.0000 </r>
       </set>
       <set comment="band 5">
        <r>  0.0504  0.0000  0.0000  0.0577  0.0000  0.0000  0.0000  0.0000  0.0000 </r>
        <r>  0.0504  0.0000  0.0000  0.0577  0.0000  0.0000  0.0000  0.0000  0.0000 </r>
       </set>
       <set comment="band 6">
        <r>  0.0443  0.0000  0.0000  0.0305  0.0000  0.0000  0.0000  0.0000  0.0000 </r>
        <r>  0.0443  0.0000  0.0000  0.0305  0.0000  0.0000  0.0000  0.0000  0.0000 </r>
       </set>
       <set comment="band 7">
        <r>  0.0000  0.0433  0.1223  0.0000  0.0000  0.0000  0.0000  0.0000  0.0000 </r>
        <r>  0.0000  0.1019  0.0638  0.0000  0.0000  0.0000  0.0000  0.0000  0.0000 </r>
       </set>
       <set comment="band 8">
        <r>  0.0000  0.1223  0.0434  0.0000  0.0000  0.0000  0.0000  0.0000  0.0000 </r>
        <r>  0.0000  0.0638  0.1019  0.0000  0.0000  0.0000  0.0000  0.0000  0.0000 </r>
       </set>
      </set>
      <set comment="kpoint 15">
       <set comment="band 1">
        <r>  0.2044  0.0000  0.0000  0.0192  0.0000  0.0000  0.0000  0.0000  0.0000 </r>
        <r>  0.2044  0.0000  0.0000  0.0192  0.0000  0.0000  0.0000  0.0000  0.0000 </r>
       </set>
       <set comment="band 2">
        <r>  0.1715  0.0000  0.0000  0.0817  0.0000  0.0000  0.0000  0.0000  0.0000 </r>
        <r>  0.1715  0.0000  0.0000  0.0817  0.0000  0.0000  0.0000  0.0000  0.0000 </r>
       </set>
       <set comment="band 3">
        <r>  0.0000  0.0954  0.1026  0.0000  0.0000  0.0000  0.0000  0.0000  0.0000 </r>
        <r>  0.0000  0.1027  0.0954  0.0000  0.0000  0.0000  0.0000  0.0000  0.0000 </r>
       </set>
       <set comment="band 4">
        <r>  0.0000  0.1026  0.0954  0.0000  0.0000  0.0000  0.0000  0.0000  0.0000 </r>
        <r>  0.0000  0.0954  0.1027  0.0000  0.0000  0.0000  0.0000  0.0000  0.0000 </r>
       </set>
       <set comment="band 5">
        <r>  0.0496  0.0000  0.0000  0.0603  0.0000  0.0000  0.0000  0.0000  0.0000 </r>
        <r>  0.0496  0.0000  0.0000  0.0603  0.0000  0.0000  0.0000  0.0000  0.0000 </r>
       </set>
       <set comment="band 6">
        <r>  0.0442  0.0000  0.0000  0.0310  0.0000  0.0000  0.0000  0.0000  0.0000 </r>
        <r>  0.0442  0.0000  0.0000  0.0310  0.0000  0.0000  0.0000  0.0000  0.0000 </r>
       </set>
       <set comment="band 7">
        <r>  0.0000  0.1373  0.0286  0.0000  0.0000  0.0000  0.0000  0.0000  0.0000 </r>
        <r>  0.0000  0.0580  0.1079  0.0000  0.0000  0.0000  0.0000  0.0000  0.0000 </r>
       </set>
       <set comment="band 8">
        <r>  0.0000  0.0286  0.1373  0.0000  0.0000  0.0000  0.0000  0.0000  0.0000 </r>
        <r>  0.0000  0.1080  0.0580  0.0000  0.0000  0.0000  0.0000  0.0000  0.0000 </r>
       </set>
      </set>
      <set comment="kpoint 16">
       <set comment="band 1">
        <r>  0.2050  0.0000  0.0000  0.0178  0.0000  0.0000  0.0000  0.0000  0.0000 </r>
        <r>  0.2050  0.0000  0.0000  0.0178  0.0000  0.0000  0.0000  0.0000  0.0000 </r>
       </set>
       <set comment="band 2">
        <r>  0.1690  0.0000  0.0000  0.0848  0.0000  0.0000  0.0000  0.0000  0.0000 </r>
        <r>  0.1690  0.0000  0.0000  0.0848  0.0000  0.0000  0.0000  0.0000  0.0000 </r>
       </set>
       <set comment="band 3">
        <r>  0.0000  0.0954  0.1026  0.0000  0.0000  0.0000  0.0000  0.0000  0.0000 </r>
        <r>  0.0000  0.1027  0.0954  0.0000  0.0000  0.0000  0.0000  0.0000  0.0000 </r>
       </set>
       <set comment="band 4">
        <r>  0.0000  0.1026  0.0954  0.0000  0.0000  0.0000  0.0000  0.0000  0.0000 </r>
        <r>  0.0000  0.0954  0.1027  0.0000  0.0000  0.0000  0.0000  0.0000  0.0000 </r>
       </set>
       <set comment="band 5">
        <r>  0.0486  0.0000  0.0000  0.0630  0.0000  0.0000  0.0000  0.0000  0.0000 </r>
        <r>  0.0486  0.0000  0.0000  0.0630  0.0000  0.0000  0.0000  0.0000  0.0000 </r>
       </set>
       <set comment="band 6">
        <r>  0.0442  0.0000  0.0000  0.0317  0.0000  0.0000  0.0000  0.0000  0.0000 </r>
        <r>  0.0442  0.0000  0.0000  0.0317  0.0000  0.0000  0.0000  0.0000  0.0000 </r>
       </set>
       <set comment="band 7">
        <r>  0.0000  0.0447  0.1215  0.0000  0.0000  0.0000  0.0000  0.0000  0.0000 </r>
        <r>  0.0000  0.1408  0.0255  0.0000  0.0000  0.0000  0.0000  0.0000  0.0000 </r>
       </set>
       <set comment="band 8">
        <r>  0.0000  0.1215  0.0447  0.0000  0.0000  0.0000  0.0000  0.0000  0.0000 </r>
        <r>  0.0000  0.0255  0.1407  0.0000  0.0000  0.0000  0.0000  0.0000  0.0000 </r>
       </set>
      </set>
      <set comment="kpoint 17">
       <set comment="band 1">
        <r>  0.2056  0.0000  0.0000  0.0163  0.0000  0.0000  0.0000  0.0000  0.0000 </r>
        <r>  0.2056  0.0000  0.0000  0.0163  0.0000  0.0000  0.0000  0.0000  0.0000 </r>
       </set>
       <set comment="band 2">
        <r>  0.1663  0.0000  0.0000  0.0880  0.0000  0.0000  0.0000  0.0000  0.0000 </r>
        <r>  0.1663  0.0000  0.0000  0.0880  0.0000  0.0000  0.0000  0.0000  0.0000 </r>
       </set>
       <set comment="band 3">
        <r>  0.0000  0.0955  0.1026  0.0000  0.0000  0.0000  0.0000  0.0000  0.0000 </r>
        <r>  0.0000  0.1027  0.0955  0.0000  0.0000  0.0000  0.0000  0.0000  0.0000 </r>
       </set>
       <set comment="band 4">
        <r>  0.0000  0.1026  0.0955  0.0000  0.0000  0.0000  0.0000  0.0000  0.0000 </r>
        <r>  0.0000  0.0955  0.1027  0.0000  0.0000  0.0000  0.0000  0.0000  0.0000 </r>
       </set>
       <set comment="band 5">
        <r>  0.0475  0.0000  0.0000  0.0659  0.0000  0.0000  0.0000  0.0000  0.0000 </r>
        <r>  0.0475  0.0000  0.0000  0.0659  0.0000  0.0000  0.0000  0.0000  0.0000 </r>
       </set>
       <set comment="band 6">
        <r>  0.0446  0.0000  0.0000  0.0325  0.0000  0.0000  0.0000  0.0000  0.0000 </r>
        <r>  0.0446  0.0000  0.0000  0.0325  0.0000  0.0000  0.0000  0.0000  0.0000 </r>
       </set>
       <set comment="band 7">
        <r>  0.0000  0.1365  0.0301  0.0000  0.0000  0.0000  0.0000  0.0000  0.0000 </r>
        <r>  0.0000  0.0171  0.1495  0.0000  0.0000  0.0000  0.0000  0.0000  0.0000 </r>
       </set>
       <set comment="band 8">
        <r>  0.0000  0.0301  0.1365  0.0000  0.0000  0.0000  0.0000  0.0000  0.0000 </r>
        <r>  0.0000  0.1495  0.0171  0.0000  0.0000  0.0000  0.0000  0.0000  0.0000 </r>
       </set>
      </set>
      <set comment="kpoint 18">
       <set comment="band 1">
        <r>  0.2062  0.0000  0.0000  0.0149  0.0000  0.0000  0.0000  0.0000  0.0000 </r>
        <r>  0.2062  0.0000  0.0000  0.0149  0.0000  0.0000  0.0000  0.0000  0.0000 </r>
       </set>
       <set comment="band 2">
        <r>  0.1633  0.0000  0.0000  0.0913  0.0000  0.0000  0.0000  0.0000  0.0000 </r>
        <r>  0.1633  0.0000  0.0000  0.0913  0.0000  0.0000  0.0000  0.0000  0.0000 </r>
       </set>
       <set comment="band 3">
        <r>  0.0000  0.0957  0.1027  0.0000  0.0000  0.0000  0.0000  0.0000  0.0000 </r>
        <r>  0.0000  0.1027  0.0956  0.0000  0.0000  0.0000  0.0000  0.0000  0.0000 </r>
       </set>
       <set comment="band 4">
        <r>  0.0000  0.1027  0.0957  0.0000  0.0000  0.0000  0.0000  0.0000  0.0000 </r>
        <r>  0.0000  0.0956  0.1027  0.0000  0.0000  0.0000  0.0000  0.0000  0.0000 </r>
       </set>
       <set comment="band 5">
        <r>  0.0462  0.0000  0.0000  0.0687  0.0000  0.0000  0.0000  0.0000  0.0000 </r>
        <r>  0.0462  0.0000  0.0000  0.0687  0.0000  0.0000  0.0000  0.0000  0.0000 </r>
       </set>
       <set comment="band 6">
        <r>  0.0453  0.0000  0.0000  0.0335  0.0000  0.0000  0.0000  0.0000  0.0000 </r>
        <r>  0.0453  0.0000  0.0000  0.0335  0.0000  0.0000  0.0000  0.0000  0.0000 </r>
       </set>
       <set comment="band 7">
        <r>  0.0000  0.0773  0.0890  0.0000  0.0000  0.0000  0.0000  0.0000  0.0000 </r>
        <r>  0.0000  0.0910  0.0753  0.0000  0.0000  0.0000  0.0000  0.0000  0.0000 </r>
       </set>
       <set comment="band 8">
        <r>  0.0000  0.0890  0.0773  0.0000  0.0000  0.0000  0.0000  0.0000  0.0000 </r>
        <r>  0.0000  0.0753  0.0910  0.0000  0.0000  0.0000  0.0000  0.0000  0.0000 </r>
       </set>
      </set>
      <set comment="kpoint 19">
       <set comment="band 1">
        <r>  0.2068  0.0000  0.0000  0.0136  0.0000  0.0000  0.0000  0.0000  0.0000 </r>
        <r>  0.2068  0.0000  0.0000  0.0136  0.0000  0.0000  0.0000  0.0000  0.0000 </r>
       </set>
       <set comment="band 2">
        <r>  0.1601  0.0000  0.0000  0.0947  0.0000  0.0000  0.0000  0.0000  0.0000 </r>
        <r>  0.1601  0.0000  0.0000  0.0947  0.0000  0.0000  0.0000  0.0000  0.0000 </r>
       </set>
       <set comment="band 3">
        <r>  0.0000  0.0958  0.1027  0.0000  0.0000  0.0000  0.0000  0.0000  0.0000 </r>
        <r>  0.0000  0.1027  0.0957  0.0000  0.0000  0.0000  0.0000  0.0000  0.0000 </r>
       </set>
       <set comment="band 4">
        <r>  0.0000  0.1027  0.0958  0.0000  0.0000  0.0000  0.0000  0.0000  0.0000 </r>
        <r>  0.0000  0.0957  0.1027  0.0000  0.0000  0.0000  0.0000  0.0000  0.0000 </r>
       </set>
       <set comment="band 5">
        <r>  0.0449  0.0000  0.0000  0.0718  0.0000  0.0000  0.0000  0.0000  0.0000 </r>
        <r>  0.0449  0.0000  0.0000  0.0718  0.0000  0.0000  0.0000  0.0000  0.0000 </r>
       </set>
       <set comment="band 6">
        <r>  0.0466  0.0000  0.0000  0.0349  0.0000  0.0000  0.0000  0.0000  0.0000 </r>
        <r>  0.0466  0.0000  0.0000  0.0349  0.0000  0.0000  0.0000  0.0000  0.0000 </r>
       </set>
       <set comment="band 7">
        <r>  0.0000  0.1072  0.0593  0.0000  0.0000  0.0000  0.0000  0.0000  0.0000 </r>
        <r>  0.0000  0.0720  0.0945  0.0000  0.0000  0.0000  0.0000  0.0000  0.0000 </r>
       </set>
       <set comment="band 8">
        <r>  0.0000  0.0594  0.1072  0.0000  0.0000  0.0000  0.0000  0.0000  0.0000 </r>
        <r>  0.0000  0.0945  0.0720  0.0000  0.0000  0.0000  0.0000  0.0000  0.0000 </r>
       </set>
      </set>
      <set comment="kpoint 20">
       <set comment="band 1">
        <r>  0.2073  0.0000  0.0000  0.0124  0.0000  0.0000  0.0000  0.0000  0.0000 </r>
        <r>  0.2073  0.0000  0.0000  0.0124  0.0000  0.0000  0.0000  0.0000  0.0000 </r>
       </set>
       <set comment="band 2">
        <r>  0.1567  0.0000  0.0000  0.0982  0.0000  0.0000  0.0000  0.0000  0.0000 </r>
        <r>  0.1567  0.0000  0.0000  0.0982  0.0000  0.0000  0.0000  0.0000  0.0000 </r>
       </set>
       <set comment="band 3">
        <r>  0.0000  0.0959  0.1027  0.0000  0.0000  0.0000  0.0000  0.0000  0.0000 </r>
        <r>  0.0000  0.1028  0.0959  0.0000  0.0000  0.0000  0.0000  0.0000  0.0000 </r>
       </set>
       <set comment="band 4">
        <r>  0.0000  0.1027  0.0959  0.0000  0.0000  0.0000  0.0000  0.0000  0.0000 </r>
        <r>  0.0000  0.0959  0.1028  0.0000  0.0000  0.0000  0.0000  0.0000  0.0000 </r>
       </set>
       <set comment="band 5">
        <r>  0.0434  0.0000  0.0000  0.0751  0.0000  0.0000  0.0000  0.0000  0.0000 </r>
        <r>  0.0434  0.0000  0.0000  0.0751  0.0000  0.0000  0.0000  0.0000  0.0000 </r>
       </set>
       <set comment="band 6">
        <r>  0.0484  0.0000  0.0000  0.0365  0.0000  0.0000  0.0000  0.0000  0.0000 </r>
        <r>  0.0484  0.0000  0.0000  0.0365  0.0000  0.0000  0.0000  0.0000  0.0000 </r>
       </set>
       <set comment="band 7">
        <r>  0.0000  0.1216  0.0451  0.0000  0.0000  0.0000  0.0000  0.0000  0.0000 </r>
        <r>  0.0000  0.0337  0.1330  0.0000  0.0000  0.0000  0.0000  0.0000  0.0000 </r>
       </set>
       <set comment="band 8">
        <r>  0.0000  0.0451  0.1216  0.0000  0.0000  0.0000  0.0000  0.0000  0.0000 </r>
        <r>  0.0000  0.1330  0.0337  0.0000  0.0000  0.0000  0.0000  0.0000  0.0000 </r>
       </set>
      </set>
      <set comment="kpoint 21">
       <set comment="band 1">
        <r>  0.2079  0.0000  0.0000  0.0112  0.0000  0.0000  0.0000  0.0000  0.0000 </r>
        <r>  0.2079  0.0000  0.0000  0.0112  0.0000  0.0000  0.0000  0.0000  0.0000 </r>
       </set>
       <set comment="band 2">
        <r>  0.1529  0.0000  0.0000  0.1019  0.0000  0.0000  0.0000  0.0000  0.0000 </r>
        <r>  0.1529  0.0000  0.0000  0.1019  0.0000  0.0000  0.0000  0.0000  0.0000 </r>
       </set>
       <set comment="band 3">
        <r>  0.0000  0.0961  0.1028  0.0000  0.0000  0.0000  0.0000  0.0000  0.0000 </r>
        <r>  0.0000  0.1028  0.0960  0.0000  0.0000  0.0000  0.0000  0.0000  0.0000 </r>
       </set>
       <set comment="band 4">
        <r>  0.0000  0.1028  0.0961  0.0000  0.0000  0.0000  0.0000  0.0000  0.0000 </r>
        <r>  0.0000  0.0960  0.1028  0.0000  0.0000  0.0000  0.0000  0.0000  0.0000 </r>
       </set>
       <set comment="band 5">
        <r>  0.0418  0.0000  0.0000  0.0786  0.0000  0.0000  0.0000  0.0000  0.0000 </r>
        <r>  0.0418  0.0000  0.0000  0.0786  0.0000  0.0000  0.0000  0.0000  0.0000 </r>
       </set>
       <set comment="band 6">
        <r>  0.0512  0.0000  0.0000  0.0384  0.0000  0.0000  0.0000  0.0000  0.0000 </r>
        <r>  0.0512  0.0000  0.0000  0.0384  0.0000  0.0000  0.0000  0.0000  0.0000 </r>
       </set>
       <set comment="band 7">
        <r>  0.0000  0.1588  0.0080  0.0000  0.0000  0.0000  0.0000  0.0000  0.0000 </r>
        <r>  0.0000  0.0129  0.1540  0.0000  0.0000  0.0000  0.0000  0.0000  0.0000 </r>
       </set>
       <set comment="band 8">
        <r>  0.0000  0.0081  0.1588  0.0000  0.0000  0.0000  0.0000  0.0000  0.0000 </r>
        <r>  0.0000  0.1540  0.0129  0.0000  0.0000  0.0000  0.0000  0.0000  0.0000 </r>
       </set>
      </set>
      <set comment="kpoint 22">
       <set comment="band 1">
        <r>  0.2084  0.0000  0.0000  0.0101  0.0000  0.0000  0.0000  0.0000  0.0000 </r>
        <r>  0.2084  0.0000  0.0000  0.0101  0.0000  0.0000  0.0000  0.0000  0.0000 </r>
       </set>
       <set comment="band 2">
        <r>  0.1488  0.0000  0.0000  0.1057  0.0000  0.0000  0.0000  0.0000  0.0000 </r>
        <r>  0.1488  0.0000  0.0000  0.1057  0.0000  0.0000  0.0000  0.0000  0.0000 </r>
       </set>
       <set comment="band 3">
        <r>  0.0000  0.0963  0.1028  0.0000  0.0000  0.0000  0.0000  0.0000  0.0000 </r>
        <r>  0.0000  0.1029  0.0962  0.0000  0.0000  0.0000  0.0000  0.0000  0.0000 </r>
       </set>
       <set comment="band 4">
        <r>  0.0000  0.1028  0.0963  0.0000  0.0000  0.0000  0.0000  0.0000  0.0000 </r>
        <r>  0.0000  0.0962  0.1029  0.0000  0.0000  0.0000  0.0000  0.0000  0.0000 </r>
       </set>
       <set comment="band 5">
        <r>  0.0400  0.0000  0.0000  0.0822  0.0000  0.0000  0.0000  0.0000  0.0000 </r>
        <r>  0.0400  0.0000  0.0000  0.0822  0.0000  0.0000  0.0000  0.0000  0.0000 </r>
       </set>
       <set comment="band 6">
        <r>  0.0551  0.0000  0.0000  0.0408  0.0000  0.0000  0.0000  0.0000  0.0000 </r>
        <r>  0.0551  0.0000  0.0000  0.0408  0.0000  0.0000  0.0000  0.0000  0.0000 </r>
       </set>
       <set comment="band 7">
        <r>  0.0000  0.0956  0.0713  0.0000  0.0000  0.0000  0.0000  0.0000  0.0000 </r>
        <r>  0.0000  0.0755  0.0915  0.0000  0.0000  0.0000  0.0000  0.0000  0.0000 </r>
       </set>
       <set comment="band 8">
        <r>  0.0000  0.0713  0.0956  0.0000  0.0000  0.0000  0.0000  0.0000  0.0000 </r>
        <r>  0.0000  0.0915  0.0755  0.0000  0.0000  0.0000  0.0000  0.0000  0.0000 </r>
       </set>
      </set>
      <set comment="kpoint 23">
       <set comment="band 1">
        <r>  0.2089  0.0000  0.0000  0.0090  0.0000  0.0000  0.0000  0.0000  0.0000 </r>
        <r>  0.2089  0.0000  0.0000  0.0090  0.0000  0.0000  0.0000  0.0000  0.0000 </r>
       </set>
       <set comment="band 2">
        <r>  0.1443  0.0000  0.0000  0.1097  0.0000  0.0000  0.0000  0.0000  0.0000 </r>
        <r>  0.1443  0.0000  0.0000  0.1097  0.0000  0.0000  0.0000  0.0000  0.0000 </r>
       </set>
       <set comment="band 3">
        <r>  0.0000  0.0965  0.1029  0.0000  0.0000  0.0000  0.0000  0.0000  0.0000 </r>
        <r>  0.0000  0.1030  0.0964  0.0000  0.0000  0.0000  0.0000  0.0000  0.0000 </r>
       </set>
       <set comment="band 4">
        <r>  0.0000  0.1029  0.0965  0.0000  0.0000  0.0000  0.0000  0.0000  0.0000 </r>
        <r>  0.0000  0.0964  0.1030  0.0000  0.0000  0.0000  0.0000  0.0000  0.0000 </r>
       </set>
       <set comment="band 5">
        <r>  0.0381  0.0000  0.0000  0.0860  0.0000  0.0000  0.0000  0.0000  0.0000 </r>
        <r>  0.0381  0.0000  0.0000  0.0860  0.0000  0.0000  0.0000  0.0000  0.0000 </r>
       </set>
       <set comment="band 6">
        <r>  0.0607  0.0000  0.0000  0.0439  0.0000  0.0000  0.0000  0.0000  0.0000 </r>
        <r>  0.0607  0.0000  0.0000  0.0439  0.0000  0.0000  0.0000  0.0000  0.0000 </r>
       </set>
       <set comment="band 7">
        <r>  0.0000  0.0714  0.0955  0.0000  0.0000  0.0000  0.0000  0.0000  0.0000 </r>
        <r>  0.0000  0.0952  0.0717  0.0000  0.0000  0.0000  0.0000  0.0000  0.0000 </r>
       </set>
       <set comment="band 8">
        <r>  0.0000  0.0955  0.0714  0.0000  0.0000  0.0000  0.0000  0.0000  0.0000 </r>
        <r>  0.0000  0.0717  0.0952  0.0000  0.0000  0.0000  0.0000  0.0000  0.0000 </r>
       </set>
      </set>
      <set comment="kpoint 24">
       <set comment="band 1">
        <r>  0.2093  0.0000  0.0000  0.0080  0.0000  0.0000  0.0000  0.0000  0.0000 </r>
        <r>  0.2093  0.0000  0.0000  0.0080  0.0000  0.0000  0.0000  0.0000  0.0000 </r>
       </set>
       <set comment="band 2">
        <r>  0.1395  0.0000  0.0000  0.1140  0.0000  0.0000  0.0000  0.0000  0.0000 </r>
        <r>  0.1395  0.0000  0.0000  0.1140  0.0000  0.0000  0.0000  0.0000  0.0000 </r>
       </set>
       <set comment="band 3">
        <r>  0.0000  0.0968  0.1030  0.0000  0.0000  0.0000  0.0000  0.0000  0.0000 </r>
        <r>  0.0000  0.1031  0.0967  0.0000  0.0000  0.0000  0.0000  0.0000  0.0000 </r>
       </set>
       <set comment="band 4">
        <r>  0.0000  0.1030  0.0968  0.0000  0.0000  0.0000  0.0000  0.0000  0.0000 </r>
        <r>  0.0000  0.0967  0.1031  0.0000  0.0000  0.0000  0.0000  0.0000  0.0000 </r>
       </set>
       <set comment="band 5">
        <r>  0.0360  0.0000  0.0000  0.0899  0.0000  0.0000  0.0000  0.0000  0.0000 </r>
        <r>  0.0360  0.0000  0.0000  0.0899  0.0000  0.0000  0.0000  0.0000  0.0000 </r>
       </set>
       <set comment="band 6">
        <r>  0.0686  0.0000  0.0000  0.0476  0.0000  0.0000  0.0000  0.0000  0.0000 </r>
        <r>  0.0686  0.0000  0.0000  0.0476  0.0000  0.0000  0.0000  0.0000  0.0000 </r>
       </set>
       <set comment="band 7">
        <r>  0.0000  0.1381  0.0286  0.0000  0.0000  0.0000  0.0000  0.0000  0.0000 </r>
        <r>  0.0000  0.0329  0.1338  0.0000  0.0000  0.0000  0.0000  0.0000  0.0000 </r>
       </set>
       <set comment="band 8">
        <r>  0.0000  0.0286  0.1381  0.0000  0.0000  0.0000  0.0000  0.0000  0.0000 </r>
        <r>  0.0000  0.1338  0.0329  0.0000  0.0000  0.0000  0.0000  0.0000  0.0000 </r>
       </set>
      </set>
      <set comment="kpoint 25">
       <set comment="band 1">
        <r>  0.2098  0.0000  0.0000  0.0070  0.0000  0.0000  0.0000  0.0000  0.0000 </r>
        <r>  0.2098  0.0000  0.0000  0.0070  0.0000  0.0000  0.0000  0.0000  0.0000 </r>
       </set>
       <set comment="band 2">
        <r>  0.1341  0.0000  0.0000  0.1185  0.0000  0.0000  0.0000  0.0000  0.0000 </r>
        <r>  0.1341  0.0000  0.0000  0.1185  0.0000  0.0000  0.0000  0.0000  0.0000 </r>
       </set>
       <set comment="band 3">
        <r>  0.0000  0.0971  0.1032  0.0000  0.0000  0.0000  0.0000  0.0000  0.0000 </r>
        <r>  0.0000  0.1032  0.0970  0.0000  0.0000  0.0000  0.0000  0.0000  0.0000 </r>
       </set>
       <set comment="band 4">
        <r>  0.0000  0.1032  0.0971  0.0000  0.0000  0.0000  0.0000  0.0000  0.0000 </r>
        <r>  0.0000  0.0970  0.1032  0.0000  0.0000  0.0000  0.0000  0.0000  0.0000 </r>
       </set>
       <set comment="band 5">
        <r>  0.0338  0.0000  0.0000  0.0941  0.0000  0.0000  0.0000  0.0000  0.0000 </r>
        <r>  0.0338  0.0000  0.0000  0.0941  0.0000  0.0000  0.0000  0.0000  0.0000 </r>
       </set>
       <set comment="band 6">
        <r>  0.0800  0.0000  0.0000  0.0523  0.0000  0.0000  0.0000  0.0000  0.0000 </r>
        <r>  0.0800  0.0000  0.0000  0.0523  0.0000  0.0000  0.0000  0.0000  0.0000 </r>
       </set>
       <set comment="band 7">
        <r>  0.0000  0.0097  0.1568  0.0000  0.0000  0.0000  0.0000  0.0000  0.0000 </r>
        <r>  0.0000  0.1505  0.0161  0.0000  0.0000  0.0000  0.0000  0.0000  0.0000 </r>
       </set>
       <set comment="band 8">
        <r>  0.0000  0.1568  0.0097  0.0000  0.0000  0.0000  0.0000  0.0000  0.0000 </r>
        <r>  0.0000  0.0161  0.1505  0.0000  0.0000  0.0000  0.0000  0.0000  0.0000 </r>
       </set>
      </set>
      <set comment="kpoint 26">
       <set comment="band 1">
        <r>  0.2102  0.0000  0.0000  0.0061  0.0000  0.0000  0.0000  0.0000  0.0000 </r>
        <r>  0.2102  0.0000  0.0000  0.0061  0.0000  0.0000  0.0000  0.0000  0.0000 </r>
       </set>
       <set comment="band 2">
        <r>  0.1283  0.0000  0.0000  0.1233  0.0000  0.0000  0.0000  0.0000  0.0000 </r>
        <r>  0.1283  0.0000  0.0000  0.1233  0.0000  0.0000  0.0000  0.0000  0.0000 </r>
       </set>
       <set comment="band 3">
        <r>  0.0000  0.0974  0.1033  0.0000  0.0000  0.0000  0.0000  0.0000  0.0000 </r>
        <r>  0.0000  0.1034  0.0973  0.0000  0.0000  0.0000  0.0000  0.0000  0.0000 </r>
       </set>
       <set comment="band 4">
        <r>  0.0000  0.1033  0.0974  0.0000  0.0000  0.0000  0.0000  0.0000  0.0000 </r>
        <r>  0.0000  0.0973  0.1034  0.0000  0.0000  0.0000  0.0000  0.0000  0.0000 </r>
       </set>
       <set comment="band 5">
        <r>  0.0315  0.0000  0.0000  0.0983  0.0000  0.0000  0.0000  0.0000  0.0000 </r>
        <r>  0.0315  0.0000  0.0000  0.0983  0.0000  0.0000  0.0000  0.0000  0.0000 </r>
       </set>
       <set comment="band 6">
        <r>  0.0961  0.0000  0.0000  0.0580  0.0000  0.0000  0.0000  0.0000  0.0000 </r>
        <r>  0.0961  0.0000  0.0000  0.0580  0.0000  0.0000  0.0000  0.0000  0.0000 </r>
       </set>
       <set comment="band 7">
        <r>  0.0000  0.0854  0.0808  0.0000  0.0000  0.0000  0.0000  0.0000  0.0000 </r>
        <r>  0.0000  0.0859  0.0803  0.0000  0.0000  0.0000  0.0000  0.0000  0.0000 </r>
       </set>
       <set comment="band 8">
        <r>  0.0000  0.0808  0.0854  0.0000  0.0000  0.0000  0.0000  0.0000  0.0000 </r>
        <r>  0.0000  0.0803  0.0859  0.0000  0.0000  0.0000  0.0000  0.0000  0.0000 </r>
       </set>
      </set>
      <set comment="kpoint 27">
       <set comment="band 1">
        <r>  0.2106  0.0000  0.0000  0.0053  0.0000  0.0000  0.0000  0.0000  0.0000 </r>
        <r>  0.2106  0.0000  0.0000  0.0053  0.0000  0.0000  0.0000  0.0000  0.0000 </r>
       </set>
       <set comment="band 2">
        <r>  0.1220  0.0000  0.0000  0.1284  0.0000  0.0000  0.0000  0.0000  0.0000 </r>
        <r>  0.1220  0.0000  0.0000  0.1284  0.0000  0.0000  0.0000  0.0000  0.0000 </r>
       </set>
       <set comment="band 3">
        <r>  0.0000  0.0978  0.1035  0.0000  0.0000  0.0000  0.0000  0.0000  0.0000 </r>
        <r>  0.0000  0.1036  0.0977  0.0000  0.0000  0.0000  0.0000  0.0000  0.0000 </r>
       </set>
       <set comment="band 4">
        <r>  0.0000  0.1035  0.0978  0.0000  0.0000  0.0000  0.0000  0.0000  0.0000 </r>
        <r>  0.0000  0.0977  0.1036  0.0000  0.0000  0.0000  0.0000  0.0000  0.0000 </r>
       </set>
       <set comment="band 5">
        <r>  0.0290  0.0000  0.0000  0.1027  0.0000  0.0000  0.0000  0.0000  0.0000 </r>
        <r>  0.0290  0.0000  0.0000  0.1027  0.0000  0.0000  0.0000  0.0000  0.0000 </r>
       </set>
       <set comment="band 6">
        <r>  0.1185  0.0000  0.0000  0.0644  0.0000  0.0000  0.0000  0.0000  0.0000 </r>
        <r>  0.1185  0.0000  0.0000  0.0644  0.0000  0.0000  0.0000  0.0000  0.0000 </r>
       </set>
       <set comment="band 7">
        <r>  0.0000  0.1597  0.0061  0.0000  0.0000  0.0000  0.0000  0.0000  0.0000 </r>
        <r>  0.0000  0.0004  0.1655  0.0000  0.0000  0.0000  0.0000  0.0000  0.0000 </r>
       </set>
       <set comment="band 8">
        <r>  0.0000  0.0061  0.1597  0.0000  0.0000  0.0000  0.0000  0.0000  0.0000 </r>
        <r>  0.0000  0.1655  0.0004  0.0000  0.0000  0.0000  0.0000  0.0000  0.0000 </r>
       </set>
      </set>
      <set comment="kpoint 28">
       <set comment="band 1">
        <r>  0.2110  0.0000  0.0000  0.0045  0.0000  0.0000  0.0000  0.0000  0.0000 </r>
        <r>  0.2110  0.0000  0.0000  0.0045  0.0000  0.0000  0.0000  0.0000  0.0000 </r>
       </set>
       <set comment="band 2">
        <r>  0.1150  0.0000  0.0000  0.1338  0.0000  0.0000  0.0000  0.0000  0.0000 </r>
        <r>  0.1150  0.0000  0.0000  0.1338  0.0000  0.0000  0.0000  0.0000  0.0000 </r>
       </set>
       <set comment="band 3">
        <r>  0.0000  0.0983  0.1036  0.0000  0.0000  0.0000  0.0000  0.0000  0.0000 </r>
        <r>  0.0000  0.1038  0.0982  0.0000  0.0000  0.0000  0.0000  0.0000  0.0000 </r>
       </set>
       <set comment="band 4">
        <r>  0.0000  0.1036  0.0983  0.0000  0.0000  0.0000  0.0000  0.0000  0.0000 </r>
        <r>  0.0000  0.0982  0.1038  0.0000  0.0000  0.0000  0.0000  0.0000  0.0000 </r>
       </set>
       <set comment="band 5">
        <r>  0.0264  0.0000  0.0000  0.1073  0.0000  0.0000  0.0000  0.0000  0.0000 </r>
        <r>  0.0264  0.0000  0.0000  0.1073  0.0000  0.0000  0.0000  0.0000  0.0000 </r>
       </set>
       <set comment="band 6">
        <r>  0.0000  0.0792  0.0861  0.0000  0.0000  0.0000  0.0000  0.0000  0.0000 </r>
        <r>  0.0000  0.0887  0.0766  0.0000  0.0000  0.0000  0.0000  0.0000  0.0000 </r>
       </set>
       <set comment="band 7">
        <r>  0.0000  0.0861  0.0792  0.0000  0.0000  0.0000  0.0000  0.0000  0.0000 </r>
        <r>  0.0000  0.0766  0.0888  0.0000  0.0000  0.0000  0.0000  0.0000  0.0000 </r>
       </set>
       <set comment="band 8">
        <r>  0.1477  0.0000  0.0000  0.0707  0.0000  0.0000  0.0000  0.0000  0.0000 </r>
        <r>  0.1477  0.0000  0.0000  0.0707  0.0000  0.0000  0.0000  0.0000  0.0000 </r>
       </set>
      </set>
      <set comment="kpoint 29">
       <set comment="band 1">
        <r>  0.2113  0.0000  0.0000  0.0038  0.0000  0.0000  0.0000  0.0000  0.0000 </r>
        <r>  0.2113  0.0000  0.0000  0.0038  0.0000  0.0000  0.0000  0.0000  0.0000 </r>
       </set>
       <set comment="band 2">
        <r>  0.1074  0.0000  0.0000  0.1398  0.0000  0.0000  0.0000  0.0000  0.0000 </r>
        <r>  0.1074  0.0000  0.0000  0.1398  0.0000  0.0000  0.0000  0.0000  0.0000 </r>
       </set>
       <set comment="band 3">
        <r>  0.0000  0.0988  0.1039  0.0000  0.0000  0.0000  0.0000  0.0000  0.0000 </r>
        <r>  0.0000  0.1040  0.0987  0.0000  0.0000  0.0000  0.0000  0.0000  0.0000 </r>
       </set>
       <set comment="band 4">
        <r>  0.0000  0.1039  0.0988  0.0000  0.0000  0.0000  0.0000  0.0000  0.0000 </r>
        <r>  0.0000  0.0987  0.1040  0.0000  0.0000  0.0000  0.0000  0.0000  0.0000 </r>
       </set>
       <set comment="band 5">
        <r>  0.0237  0.0000  0.0000  0.1119  0.0000  0.0000  0.0000  0.0000  0.0000 </r>
        <r>  0.0237  0.0000  0.0000  0.1119  0.0000  0.0000  0.0000  0.0000  0.0000 </r>
       </set>
       <set comment="band 6">
        <r>  0.0000  0.0192  0.1453  0.0000  0.0000  0.0000  0.0000  0.0000  0.0000 </r>
        <r>  0.0000  0.1369  0.0276  0.0000  0.0000  0.0000  0.0000  0.0000  0.0000 </r>
       </set>
       <set comment="band 7">
        <r>  0.0000  0.1453  0.0192  0.0000  0.0000  0.0000  0.0000  0.0000  0.0000 </r>
        <r>  0.0000  0.0276  0.1369  0.0000  0.0000  0.0000  0.0000  0.0000  0.0000 </r>
       </set>
       <set comment="band 8">
        <r>  0.1810  0.0000  0.0000  0.0752  0.0000  0.0000  0.0000  0.0000  0.0000 </r>
        <r>  0.1811  0.0000  0.0000  0.0752  0.0000  0.0000  0.0000  0.0000  0.0000 </r>
       </set>
      </set>
      <set comment="kpoint 30">
       <set comment="band 1">
        <r>  0.2116  0.0000  0.0000  0.0031  0.0000  0.0000  0.0000  0.0000  0.0000 </r>
        <r>  0.2116  0.0000  0.0000  0.0031  0.0000  0.0000  0.0000  0.0000  0.0000 </r>
       </set>
       <set comment="band 2">
        <r>  0.0990  0.0000  0.0000  0.1462  0.0000  0.0000  0.0000  0.0000  0.0000 </r>
        <r>  0.0990  0.0000  0.0000  0.1462  0.0000  0.0000  0.0000  0.0000  0.0000 </r>
       </set>
       <set comment="band 3">
        <r>  0.0000  0.0995  0.1041  0.0000  0.0000  0.0000  0.0000  0.0000  0.0000 </r>
        <r>  0.0000  0.1043  0.0993  0.0000  0.0000  0.0000  0.0000  0.0000  0.0000 </r>
       </set>
       <set comment="band 4">
        <r>  0.0000  0.1041  0.0995  0.0000  0.0000  0.0000  0.0000  0.0000  0.0000 </r>
        <r>  0.0000  0.0993  0.1043  0.0000  0.0000  0.0000  0.0000  0.0000  0.0000 </r>
       </set>
       <set comment="band 5">
        <r>  0.0209  0.0000  0.0000  0.1166  0.0000  0.0000  0.0000  0.0000  0.0000 </r>
        <r>  0.0209  0.0000  0.0000  0.1166  0.0000  0.0000  0.0000  0.0000  0.0000 </r>
       </set>
       <set comment="band 6">
        <r>  0.0000  0.0832  0.0804  0.0000  0.0000  0.0000  0.0000  0.0000  0.0000 </r>
        <r>  0.0000  0.0839  0.0797  0.0000  0.0000  0.0000  0.0000  0.0000  0.0000 </r>
       </set>
       <set comment="band 7">
        <r>  0.0000  0.0804  0.0832  0.0000  0.0000  0.0000  0.0000  0.0000  0.0000 </r>
        <r>  0.0000  0.0797  0.0839  0.0000  0.0000  0.0000  0.0000  0.0000  0.0000 </r>
       </set>
       <set comment="band 8">
        <r>  0.2134  0.0000  0.0000  0.0753  0.0000  0.0000  0.0000  0.0000  0.0000 </r>
        <r>  0.2134  0.0000  0.0000  0.0753  0.0000  0.0000  0.0000  0.0000  0.0000 </r>
       </set>
      </set>
      <set comment="kpoint 31">
       <set comment="band 1">
        <r>  0.2119  0.0000  0.0000  0.0025  0.0000  0.0000  0.0000  0.0000  0.0000 </r>
        <r>  0.2119  0.0000  0.0000  0.0025  0.0000  0.0000  0.0000  0.0000  0.0000 </r>
       </set>
       <set comment="band 2">
        <r>  0.0897  0.0000  0.0000  0.1530  0.0000  0.0000  0.0000  0.0000  0.0000 </r>
        <r>  0.0897  0.0000  0.0000  0.1530  0.0000  0.0000  0.0000  0.0000  0.0000 </r>
       </set>
       <set comment="band 3">
        <r>  0.0000  0.1001  0.1045  0.0000  0.0000  0.0000  0.0000  0.0000  0.0000 </r>
        <r>  0.0000  0.1042  0.1004  0.0000  0.0000  0.0000  0.0000  0.0000  0.0000 </r>
       </set>
       <set comment="band 4">
        <r>  0.0000  0.1045  0.1001  0.0000  0.0000  0.0000  0.0000  0.0000  0.0000 </r>
        <r>  0.0000  0.1004  0.1042  0.0000  0.0000  0.0000  0.0000  0.0000  0.0000 </r>
       </set>
       <set comment="band 5">
        <r>  0.0180  0.0000  0.0000  0.1214  0.0000  0.0000  0.0000  0.0000  0.0000 </r>
        <r>  0.0180  0.0000  0.0000  0.1214  0.0000  0.0000  0.0000  0.0000  0.0000 </r>
       </set>
       <set comment="band 6">
        <r>  0.0000  0.1567  0.0060  0.0000  0.0000  0.0000  0.0000  0.0000  0.0000 </r>
        <r>  0.0000  0.0106  0.1521  0.0000  0.0000  0.0000  0.0000  0.0000  0.0000 </r>
       </set>
       <set comment="band 7">
        <r>  0.0000  0.0060  0.1567  0.0000  0.0000  0.0000  0.0000  0.0000  0.0000 </r>
        <r>  0.0000  0.1521  0.0106  0.0000  0.0000  0.0000  0.0000  0.0000  0.0000 </r>
       </set>
       <set comment="band 8">
        <r>  0.2408  0.0000  0.0000  0.0710  0.0000  0.0000  0.0000  0.0000  0.0000 </r>
        <r>  0.2408  0.0000  0.0000  0.0710  0.0000  0.0000  0.0000  0.0000  0.0000 </r>
       </set>
      </set>
      <set comment="kpoint 32">
       <set comment="band 1">
        <r>  0.2121  0.0000  0.0000  0.0020  0.0000  0.0000  0.0000  0.0000  0.0000 </r>
        <r>  0.2121  0.0000  0.0000  0.0020  0.0000  0.0000  0.0000  0.0000  0.0000 </r>
       </set>
       <set comment="band 2">
        <r>  0.0796  0.0000  0.0000  0.1604  0.0000  0.0000  0.0000  0.0000  0.0000 </r>
        <r>  0.0796  0.0000  0.0000  0.1604  0.0000  0.0000  0.0000  0.0000  0.0000 </r>
       </set>
       <set comment="band 3">
        <r>  0.0000  0.1010  0.1048  0.0000  0.0000  0.0000  0.0000  0.0000  0.0000 </r>
        <r>  0.0000  0.1050  0.1008  0.0000  0.0000  0.0000  0.0000  0.0000  0.0000 </r>
       </set>
       <set comment="band 4">
        <r>  0.0000  0.1048  0.1010  0.0000  0.0000  0.0000  0.0000  0.0000  0.0000 </r>
        <r>  0.0000  0.1008  0.1050  0.0000  0.0000  0.0000  0.0000  0.0000  0.0000 </r>
       </set>
       <set comment="band 5">
        <r>  0.0151  0.0000  0.0000  0.1262  0.0000  0.0000  0.0000  0.0000  0.0000 </r>
        <r>  0.0151  0.0000  0.0000  0.1262  0.0000  0.0000  0.0000  0.0000  0.0000 </r>
       </set>
       <set comment="band 6">
        <r>  0.0000  0.0767  0.0848  0.0000  0.0000  0.0000  0.0000  0.0000  0.0000 </r>
        <r>  0.0000  0.1018  0.0597  0.0000  0.0000  0.0000  0.0000  0.0000  0.0000 </r>
       </set>
       <set comment="band 7">
        <r>  0.0000  0.0848  0.0767  0.0000  0.0000  0.0000  0.0000  0.0000  0.0000 </r>
        <r>  0.0000  0.0597  0.1018  0.0000  0.0000  0.0000  0.0000  0.0000  0.0000 </r>
       </set>
       <set comment="band 8">
        <r>  0.2628  0.0000  0.0000  0.0637  0.0000  0.0000  0.0000  0.0000  0.0000 </r>
        <r>  0.2628  0.0000  0.0000  0.0637  0.0000  0.0000  0.0000  0.0000  0.0000 </r>
       </set>
      </set>
      <set comment="kpoint 33">
       <set comment="band 1">
        <r>  0.2123  0.0000  0.0000  0.0015  0.0000  0.0000  0.0000  0.0000  0.0000 </r>
        <r>  0.2123  0.0000  0.0000  0.0015  0.0000  0.0000  0.0000  0.0000  0.0000 </r>
       </set>
       <set comment="band 2">
        <r>  0.0686  0.0000  0.0000  0.1683  0.0000  0.0000  0.0000  0.0000  0.0000 </r>
        <r>  0.0686  0.0000  0.0000  0.1683  0.0000  0.0000  0.0000  0.0000  0.0000 </r>
       </set>
       <set comment="band 3">
        <r>  0.0000  0.1023  0.1048  0.0000  0.0000  0.0000  0.0000  0.0000  0.0000 </r>
        <r>  0.0000  0.1055  0.1016  0.0000  0.0000  0.0000  0.0000  0.0000  0.0000 </r>
       </set>
       <set comment="band 4">
        <r>  0.0000  0.1048  0.1023  0.0000  0.0000  0.0000  0.0000  0.0000  0.0000 </r>
        <r>  0.0000  0.1016  0.1055  0.0000  0.0000  0.0000  0.0000  0.0000  0.0000 </r>
       </set>
       <set comment="band 5">
        <r>  0.0123  0.0000  0.0000  0.1309  0.0000  0.0000  0.0000  0.0000  0.0000 </r>
        <r>  0.0123  0.0000  0.0000  0.1309  0.0000  0.0000  0.0000  0.0000  0.0000 </r>
       </set>
       <set comment="band 6">
        <r>  0.0000  0.1184  0.0419  0.0000  0.0000  0.0000  0.0000  0.0000  0.0000 </r>
        <r>  0.0000  0.0736  0.0867  0.0000  0.0000  0.0000  0.0000  0.0000  0.0000 </r>
       </set>
       <set comment="band 7">
        <r>  0.0000  0.0419  0.1184  0.0000  0.0000  0.0000  0.0000  0.0000  0.0000 </r>
        <r>  0.0000  0.0867  0.0736  0.0000  0.0000  0.0000  0.0000  0.0000  0.0000 </r>
       </set>
       <set comment="band 8">
        <r>  0.2810  0.0000  0.0000  0.0546  0.0000  0.0000  0.0000  0.0000  0.0000 </r>
        <r>  0.2810  0.0000  0.0000  0.0546  0.0000  0.0000  0.0000  0.0000  0.0000 </r>
       </set>
      </set>
      <set comment="kpoint 34">
       <set comment="band 1">
        <r>  0.2125  0.0000  0.0000  0.0011  0.0000  0.0000  0.0000  0.0000  0.0000 </r>
        <r>  0.2125  0.0000  0.0000  0.0011  0.0000  0.0000  0.0000  0.0000  0.0000 </r>
       </set>
       <set comment="band 2">
        <r>  0.0567  0.0000  0.0000  0.1768  0.0000  0.0000  0.0000  0.0000  0.0000 </r>
        <r>  0.0567  0.0000  0.0000  0.1768  0.0000  0.0000  0.0000  0.0000  0.0000 </r>
       </set>
       <set comment="band 3">
        <r>  0.0000  0.1030  0.1056  0.0000  0.0000  0.0000  0.0000  0.0000  0.0000 </r>
        <r>  0.0000  0.1059  0.1026  0.0000  0.0000  0.0000  0.0000  0.0000  0.0000 </r>
       </set>
       <set comment="band 4">
        <r>  0.0000  0.1056  0.1030  0.0000  0.0000  0.0000  0.0000  0.0000  0.0000 </r>
        <r>  0.0000  0.1026  0.1059  0.0000  0.0000  0.0000  0.0000  0.0000  0.0000 </r>
       </set>
       <set comment="band 5">
        <r>  0.0095  0.0000  0.0000  0.1354  0.0000  0.0000  0.0000  0.0000  0.0000 </r>
        <r>  0.0095  0.0000  0.0000  0.1354  0.0000  0.0000  0.0000  0.0000  0.0000 </r>
       </set>
       <set comment="band 6">
        <r>  0.0000  0.0738  0.0850  0.0000  0.0000  0.0000  0.0000  0.0000  0.0000 </r>
        <r>  0.0000  0.0908  0.0680  0.0000  0.0000  0.0000  0.0000  0.0000  0.0000 </r>
       </set>
       <set comment="band 7">
        <r>  0.0000  0.0850  0.0738  0.0000  0.0000  0.0000  0.0000  0.0000  0.0000 </r>
        <r>  0.0000  0.0680  0.0908  0.0000  0.0000  0.0000  0.0000  0.0000  0.0000 </r>
       </set>
       <set comment="band 8">
        <r>  0.2970  0.0000  0.0000  0.0446  0.0000  0.0000  0.0000  0.0000  0.0000 </r>
        <r>  0.2969  0.0000  0.0000  0.0446  0.0000  0.0000  0.0000  0.0000  0.0000 </r>
       </set>
      </set>
      <set comment="kpoint 35">
       <set comment="band 1">
        <r>  0.2127  0.0000  0.0000  0.0008  0.0000  0.0000  0.0000  0.0000  0.0000 </r>
        <r>  0.2127  0.0000  0.0000  0.0008  0.0000  0.0000  0.0000  0.0000  0.0000 </r>
       </set>
       <set comment="band 2">
        <r>  0.0442  0.0000  0.0000  0.1856  0.0000  0.0000  0.0000  0.0000  0.0000 </r>
        <r>  0.0442  0.0000  0.0000  0.1856  0.0000  0.0000  0.0000  0.0000  0.0000 </r>
       </set>
       <set comment="band 3">
        <r>  0.0000  0.1040  0.1061  0.0000  0.0000  0.0000  0.0000  0.0000  0.0000 </r>
        <r>  0.0000  0.1064  0.1037  0.0000  0.0000  0.0000  0.0000  0.0000  0.0000 </r>
       </set>
       <set comment="band 4">
        <r>  0.0000  0.1061  0.1040  0.0000  0.0000  0.0000  0.0000  0.0000  0.0000 </r>
        <r>  0.0000  0.1037  0.1064  0.0000  0.0000  0.0000  0.0000  0.0000  0.0000 </r>
       </set>
       <set comment="band 5">
        <r>  0.0069  0.0000  0.0000  0.1396  0.0000  0.0000  0.0000  0.0000  0.0000 </r>
        <r>  0.0069  0.0000  0.0000  0.1396  0.0000  0.0000  0.0000  0.0000  0.0000 </r>
       </set>
       <set comment="band 6">
        <r>  0.0000  0.0681  0.0892  0.0000  0.0000  0.0000  0.0000  0.0000  0.0000 </r>
        <r>  0.0000  0.1004  0.0569  0.0000  0.0000  0.0000  0.0000  0.0000  0.0000 </r>
       </set>
       <set comment="band 7">
        <r>  0.0000  0.0892  0.0681  0.0000  0.0000  0.0000  0.0000  0.0000  0.0000 </r>
        <r>  0.0000  0.0569  0.1004  0.0000  0.0000  0.0000  0.0000  0.0000  0.0000 </r>
       </set>
       <set comment="band 8">
        <r>  0.3118  0.0000  0.0000  0.0343  0.0000  0.0000  0.0000  0.0000  0.0000 </r>
        <r>  0.3119  0.0000  0.0000  0.0343  0.0000  0.0000  0.0000  0.0000  0.0000 </r>
       </set>
      </set>
      <set comment="kpoint 36">
       <set comment="band 1">
        <r>  0.2128  0.0000  0.0000  0.0005  0.0000  0.0000  0.0000  0.0000  0.0000 </r>
        <r>  0.2128  0.0000  0.0000  0.0005  0.0000  0.0000  0.0000  0.0000  0.0000 </r>
       </set>
       <set comment="band 2">
        <r>  0.0315  0.0000  0.0000  0.1945  0.0000  0.0000  0.0000  0.0000  0.0000 </r>
        <r>  0.0315  0.0000  0.0000  0.1945  0.0000  0.0000  0.0000  0.0000  0.0000 </r>
       </set>
       <set comment="band 3">
        <r>  0.0000  0.1074  0.1043  0.0000  0.0000  0.0000  0.0000  0.0000  0.0000 </r>
        <r>  0.0000  0.1085  0.1032  0.0000  0.0000  0.0000  0.0000  0.0000  0.0000 </r>
       </set>
       <set comment="band 4">
        <r>  0.0000  0.1043  0.1074  0.0000  0.0000  0.0000  0.0000  0.0000  0.0000 </r>
        <r>  0.0000  0.1032  0.1085  0.0000  0.0000  0.0000  0.0000  0.0000  0.0000 </r>
       </set>
       <set comment="band 5">
        <r>  0.0046  0.0000  0.0000  0.1433  0.0000  0.0000  0.0000  0.0000  0.0000 </r>
        <r>  0.0046  0.0000  0.0000  0.1433  0.0000  0.0000  0.0000  0.0000  0.0000 </r>
       </set>
       <set comment="band 6">
        <r>  0.0000  0.0797  0.0759  0.0000  0.0000  0.0000  0.0000  0.0000  0.0000 </r>
        <r>  0.0000  0.0584  0.0972  0.0000  0.0000  0.0000  0.0000  0.0000  0.0000 </r>
       </set>
       <set comment="band 7">
        <r>  0.0000  0.0759  0.0797  0.0000  0.0000  0.0000  0.0000  0.0000  0.0000 </r>
        <r>  0.0000  0.0972  0.0584  0.0000  0.0000  0.0000  0.0000  0.0000  0.0000 </r>
       </set>
       <set comment="band 8">
        <r>  0.3259  0.0000  0.0000  0.0242  0.0000  0.0000  0.0000  0.0000  0.0000 </r>
        <r>  0.3259  0.0000  0.0000  0.0242  0.0000  0.0000  0.0000  0.0000  0.0000 </r>
       </set>
      </set>
      <set comment="kpoint 37">
       <set comment="band 1">
        <r>  0.2129  0.0000  0.0000  0.0003  0.0000  0.0000  0.0000  0.0000  0.0000 </r>
        <r>  0.2129  0.0000  0.0000  0.0003  0.0000  0.0000  0.0000  0.0000  0.0000 </r>
       </set>
       <set comment="band 2">
        <r>  0.0195  0.0000  0.0000  0.2029  0.0000  0.0000  0.0000  0.0000  0.0000 </r>
        <r>  0.0195  0.0000  0.0000  0.2029  0.0000  0.0000  0.0000  0.0000  0.0000 </r>
       </set>
       <set comment="band 3">
        <r>  0.0000  0.1066  0.1067  0.0000  0.0000  0.0000  0.0000  0.0000  0.0000 </r>
        <r>  0.0000  0.1078  0.1055  0.0000  0.0000  0.0000  0.0000  0.0000  0.0000 </r>
       </set>
       <set comment="band 4">
        <r>  0.0000  0.1067  0.1066  0.0000  0.0000  0.0000  0.0000  0.0000  0.0000 </r>
        <r>  0.0000  0.1055  0.1078  0.0000  0.0000  0.0000  0.0000  0.0000  0.0000 </r>
       </set>
       <set comment="band 5">
        <r>  0.0027  0.0000  0.0000  0.1464  0.0000  0.0000  0.0000  0.0000  0.0000 </r>
        <r>  0.0027  0.0000  0.0000  0.1464  0.0000  0.0000  0.0000  0.0000  0.0000 </r>
       </set>
       <set comment="band 6">
        <r>  0.0000  0.0703  0.0838  0.0000  0.0000  0.0000  0.0000  0.0000  0.0000 </r>
        <r>  0.0000  0.0802  0.0739  0.0000  0.0000  0.0000  0.0000  0.0000  0.0000 </r>
       </set>
       <set comment="band 7">
        <r>  0.0000  0.0838  0.0703  0.0000  0.0000  0.0000  0.0000  0.0000  0.0000 </r>
        <r>  0.0000  0.0739  0.0802  0.0000  0.0000  0.0000  0.0000  0.0000  0.0000 </r>
       </set>
       <set comment="band 8">
        <r>  0.3386  0.0000  0.0000  0.0148  0.0000  0.0000  0.0000  0.0000  0.0000 </r>
        <r>  0.3387  0.0000  0.0000  0.0148  0.0000  0.0000  0.0000  0.0000  0.0000 </r>
       </set>
      </set>
      <set comment="kpoint 38">
       <set comment="band 1">
        <r>  0.2130  0.0000  0.0000  0.0001  0.0000  0.0000  0.0000  0.0000  0.0000 </r>
        <r>  0.2130  0.0000  0.0000  0.0001  0.0000  0.0000  0.0000  0.0000  0.0000 </r>
       </set>
       <set comment="band 2">
        <r>  0.0094  0.0000  0.0000  0.2099  0.0000  0.0000  0.0000  0.0000  0.0000 </r>
        <r>  0.0094  0.0000  0.0000  0.2099  0.0000  0.0000  0.0000  0.0000  0.0000 </r>
       </set>
       <set comment="band 3">
        <r>  0.0000  0.1070  0.1076  0.0000  0.0000  0.0000  0.0000  0.0000  0.0000 </r>
        <r>  0.0000  0.1079  0.1067  0.0000  0.0000  0.0000  0.0000  0.0000  0.0000 </r>
       </set>
       <set comment="band 4">
        <r>  0.0000  0.1076  0.1070  0.0000  0.0000  0.0000  0.0000  0.0000  0.0000 </r>
        <r>  0.0000  0.1067  0.1079  0.0000  0.0000  0.0000  0.0000  0.0000  0.0000 </r>
       </set>
       <set comment="band 5">
        <r>  0.0012  0.0000  0.0000  0.1487  0.0000  0.0000  0.0000  0.0000  0.0000 </r>
        <r>  0.0012  0.0000  0.0000  0.1487  0.0000  0.0000  0.0000  0.0000  0.0000 </r>
       </set>
       <set comment="band 6">
        <r>  0.0000  0.0863  0.0665  0.0000  0.0000  0.0000  0.0000  0.0000  0.0000 </r>
        <r>  0.0000  0.0706  0.0822  0.0000  0.0000  0.0000  0.0000  0.0000  0.0000 </r>
       </set>
       <set comment="band 7">
        <r>  0.0000  0.0665  0.0863  0.0000  0.0000  0.0000  0.0000  0.0000  0.0000 </r>
        <r>  0.0000  0.0822  0.0706  0.0000  0.0000  0.0000  0.0000  0.0000  0.0000 </r>
       </set>
       <set comment="band 8">
        <r>  0.3492  0.0000  0.0000  0.0070  0.0000  0.0000  0.0000  0.0000  0.0000 </r>
        <r>  0.3492  0.0000  0.0000  0.0070  0.0000  0.0000  0.0000  0.0000  0.0000 </r>
       </set>
      </set>
      <set comment="kpoint 39">
       <set comment="band 1">
        <r>  0.2131  0.0000  0.0000  0.0000  0.0000  0.0000  0.0000  0.0000  0.0000 </r>
        <r>  0.2131  0.0000  0.0000  0.0000  0.0000  0.0000  0.0000  0.0000  0.0000 </r>
       </set>
       <set comment="band 2">
        <r>  0.0025  0.0000  0.0000  0.2147  0.0000  0.0000  0.0000  0.0000  0.0000 </r>
        <r>  0.0025  0.0000  0.0000  0.2147  0.0000  0.0000  0.0000  0.0000  0.0000 </r>
       </set>
       <set comment="band 3">
        <r>  0.0000  0.1091  0.1064  0.0000  0.0000  0.0000  0.0000  0.0000  0.0000 </r>
        <r>  0.0000  0.1095  0.1060  0.0000  0.0000  0.0000  0.0000  0.0000  0.0000 </r>
       </set>
       <set comment="band 4">
        <r>  0.0000  0.1064  0.1091  0.0000  0.0000  0.0000  0.0000  0.0000  0.0000 </r>
        <r>  0.0000  0.1060  0.1095  0.0000  0.0000  0.0000  0.0000  0.0000  0.0000 </r>
       </set>
       <set comment="band 5">
        <r>  0.0003  0.0000  0.0000  0.1502  0.0000  0.0000  0.0000  0.0000  0.0000 </r>
        <r>  0.0003  0.0000  0.0000  0.1502  0.0000  0.0000  0.0000  0.0000  0.0000 </r>
       </set>
       <set comment="band 6">
        <r>  0.0000  0.0831  0.0688  0.0000  0.0000  0.0000  0.0000  0.0000  0.0000 </r>
        <r>  0.0000  0.0928  0.0591  0.0000  0.0000  0.0000  0.0000  0.0000  0.0000 </r>
       </set>
       <set comment="band 7">
        <r>  0.0000  0.0688  0.0831  0.0000  0.0000  0.0000  0.0000  0.0000  0.0000 </r>
        <r>  0.0000  0.0591  0.0928  0.0000  0.0000  0.0000  0.0000  0.0000  0.0000 </r>
       </set>
       <set comment="band 8">
        <r>  0.3564  0.0000  0.0000  0.0018  0.0000  0.0000  0.0000  0.0000  0.0000 </r>
        <r>  0.3564  0.0000  0.0000  0.0018  0.0000  0.0000  0.0000  0.0000  0.0000 </r>
       </set>
      </set>
      <set comment="kpoint 40">
       <set comment="band 1">
        <r>  0.2131  0.0000  0.0000  0.0000  0.0000  0.0000  0.0000  0.0000  0.0000 </r>
        <r>  0.2131  0.0000  0.0000  0.0000  0.0000  0.0000  0.0000  0.0000  0.0000 </r>
       </set>
       <set comment="band 2">
        <r>  0.0000  0.0000  0.0000  0.2164  0.0000  0.0000  0.0000  0.0000  0.0000 </r>
        <r>  0.0000  0.0000  0.0000  0.2164  0.0000  0.0000  0.0000  0.0000  0.0000 </r>
       </set>
       <set comment="band 3">
        <r>  0.0000  0.1081  0.1077  0.0000  0.0000  0.0000  0.0000  0.0000  0.0000 </r>
        <r>  0.0000  0.1081  0.1077  0.0000  0.0000  0.0000  0.0000  0.0000  0.0000 </r>
       </set>
       <set comment="band 4">
        <r>  0.0000  0.1077  0.1081  0.0000  0.0000  0.0000  0.0000  0.0000  0.0000 </r>
        <r>  0.0000  0.1077  0.1081  0.0000  0.0000  0.0000  0.0000  0.0000  0.0000 </r>
       </set>
       <set comment="band 5">
        <r>  0.0000  0.0740  0.0775  0.0000  0.0000  0.0000  0.0000  0.0000  0.0000 </r>
        <r>  0.0000  0.0740  0.0775  0.0000  0.0000  0.0000  0.0000  0.0000  0.0000 </r>
       </set>
       <set comment="band 6">
        <r>  0.0000  0.0775  0.0740  0.0000  0.0000  0.0000  0.0000  0.0000  0.0000 </r>
        <r>  0.0000  0.0775  0.0740  0.0000  0.0000  0.0000  0.0000  0.0000  0.0000 </r>
       </set>
       <set comment="band 7">
        <r>  0.0000  0.0000  0.0000  0.1507  0.0000  0.0000  0.0000  0.0000  0.0000 </r>
        <r>  0.0000  0.0000  0.0000  0.1507  0.0000  0.0000  0.0000  0.0000  0.0000 </r>
       </set>
       <set comment="band 8">
        <r>  0.3589  0.0000  0.0000  0.0000  0.0000  0.0000  0.0000  0.0000  0.0000 </r>
        <r>  0.3589  0.0000  0.0000  0.0000  0.0000  0.0000  0.0000  0.0000  0.0000 </r>
       </set>
      </set>
      <set comment="kpoint 41">
       <set comment="band 1">
        <r>  0.2131  0.0000  0.0000  0.0000  0.0000  0.0000  0.0000  0.0000  0.0000 </r>
        <r>  0.2131  0.0000  0.0000  0.0000  0.0000  0.0000  0.0000  0.0000  0.0000 </r>
       </set>
       <set comment="band 2">
        <r>  0.0000  0.0000  0.0000  0.2164  0.0000  0.0000  0.0000  0.0000  0.0000 </r>
        <r>  0.0000  0.0000  0.0000  0.2164  0.0000  0.0000  0.0000  0.0000  0.0000 </r>
       </set>
       <set comment="band 3">
        <r>  0.0000  0.1157  0.1002  0.0000  0.0000  0.0000  0.0000  0.0000  0.0000 </r>
        <r>  0.0000  0.1157  0.1002  0.0000  0.0000  0.0000  0.0000  0.0000  0.0000 </r>
       </set>
       <set comment="band 4">
        <r>  0.0000  0.1002  0.1157  0.0000  0.0000  0.0000  0.0000  0.0000  0.0000 </r>
        <r>  0.0000  0.1002  0.1157  0.0000  0.0000  0.0000  0.0000  0.0000  0.0000 </r>
       </set>
       <set comment="band 5">
        <r>  0.0000  0.1451  0.0065  0.0000  0.0000  0.0000  0.0000  0.0000  0.0000 </r>
        <r>  0.0000  0.1451  0.0065  0.0000  0.0000  0.0000  0.0000  0.0000  0.0000 </r>
       </set>
       <set comment="band 6">
        <r>  0.0000  0.0065  0.1451  0.0000  0.0000  0.0000  0.0000  0.0000  0.0000 </r>
        <r>  0.0000  0.0065  0.1451  0.0000  0.0000  0.0000  0.0000  0.0000  0.0000 </r>
       </set>
       <set comment="band 7">
        <r>  0.0000  0.0000  0.0000  0.1507  0.0000  0.0000  0.0000  0.0000  0.0000 </r>
        <r>  0.0000  0.0000  0.0000  0.1507  0.0000  0.0000  0.0000  0.0000  0.0000 </r>
       </set>
       <set comment="band 8">
        <r>  0.3589  0.0000  0.0000  0.0000  0.0000  0.0000  0.0000  0.0000  0.0000 </r>
        <r>  0.3589  0.0000  0.0000  0.0000  0.0000  0.0000  0.0000  0.0000  0.0000 </r>
       </set>
      </set>
      <set comment="kpoint 42">
       <set comment="band 1">
        <r>  0.2131  0.0000  0.0000  0.0000  0.0000  0.0000  0.0000  0.0000  0.0000 </r>
        <r>  0.2131  0.0000  0.0000  0.0000  0.0000  0.0000  0.0000  0.0000  0.0000 </r>
       </set>
       <set comment="band 2">
        <r>  0.0000  0.0000  0.0010  0.2151  0.0000  0.0000  0.0000  0.0000  0.0000 </r>
        <r>  0.0000  0.0000  0.0010  0.2151  0.0000  0.0000  0.0000  0.0000  0.0000 </r>
       </set>
       <set comment="band 3">
        <r>  0.0025  0.2141  0.0000  0.0000  0.0000  0.0000  0.0000  0.0000  0.0000 </r>
        <r>  0.0025  0.2141  0.0000  0.0000  0.0000  0.0000  0.0000  0.0000  0.0000 </r>
       </set>
       <set comment="band 4">
        <r>  0.0000  0.0000  0.2145  0.0010  0.0000  0.0000  0.0000  0.0000  0.0000 </r>
        <r>  0.0000  0.0000  0.2145  0.0010  0.0000  0.0000  0.0000  0.0000  0.0000 </r>
       </set>
       <set comment="band 5">
        <r>  0.0003  0.1511  0.0000  0.0000  0.0000  0.0000  0.0000  0.0000  0.0000 </r>
        <r>  0.0003  0.1511  0.0000  0.0000  0.0000  0.0000  0.0000  0.0000  0.0000 </r>
       </set>
       <set comment="band 6">
        <r>  0.0000  0.0000  0.1506  0.0013  0.0000  0.0000  0.0000  0.0000  0.0000 </r>
        <r>  0.0000  0.0000  0.1506  0.0013  0.0000  0.0000  0.0000  0.0000  0.0000 </r>
       </set>
       <set comment="band 7">
        <r>  0.0000  0.0000  0.0014  0.1497  0.0000  0.0000  0.0000  0.0000  0.0000 </r>
        <r>  0.0000  0.0000  0.0014  0.1497  0.0000  0.0000  0.0000  0.0000  0.0000 </r>
       </set>
       <set comment="band 8">
        <r>  0.3563  0.0019  0.0000  0.0000  0.0000  0.0000  0.0000  0.0000  0.0000 </r>
        <r>  0.3563  0.0019  0.0000  0.0000  0.0000  0.0000  0.0000  0.0000  0.0000 </r>
       </set>
      </set>
      <set comment="kpoint 43">
       <set comment="band 1">
        <r>  0.2130  0.0001  0.0000  0.0000  0.0000  0.0000  0.0000  0.0000  0.0000 </r>
        <r>  0.2130  0.0001  0.0000  0.0000  0.0000  0.0000  0.0000  0.0000  0.0000 </r>
       </set>
       <set comment="band 2">
        <r>  0.0000  0.0000  0.0038  0.2114  0.0000  0.0000  0.0000  0.0000  0.0000 </r>
        <r>  0.0000  0.0000  0.0038  0.2114  0.0000  0.0000  0.0000  0.0000  0.0000 </r>
       </set>
       <set comment="band 3">
        <r>  0.0095  0.2093  0.0000  0.0000  0.0000  0.0000  0.0000  0.0000  0.0000 </r>
        <r>  0.0095  0.2093  0.0000  0.0000  0.0000  0.0000  0.0000  0.0000  0.0000 </r>
       </set>
       <set comment="band 4">
        <r>  0.0000  0.0000  0.2107  0.0038  0.0000  0.0000  0.0000  0.0000  0.0000 </r>
        <r>  0.0000  0.0000  0.2107  0.0038  0.0000  0.0000  0.0000  0.0000  0.0000 </r>
       </set>
       <set comment="band 5">
        <r>  0.0012  0.1496  0.0000  0.0000  0.0000  0.0000  0.0000  0.0000  0.0000 </r>
        <r>  0.0012  0.1496  0.0000  0.0000  0.0000  0.0000  0.0000  0.0000  0.0000 </r>
       </set>
       <set comment="band 6">
        <r>  0.0000  0.0000  0.1477  0.0051  0.0000  0.0000  0.0000  0.0000  0.0000 </r>
        <r>  0.0000  0.0000  0.1477  0.0051  0.0000  0.0000  0.0000  0.0000  0.0000 </r>
       </set>
       <set comment="band 7">
        <r>  0.0000  0.0000  0.0052  0.1468  0.0000  0.0000  0.0000  0.0000  0.0000 </r>
        <r>  0.0000  0.0000  0.0052  0.1468  0.0000  0.0000  0.0000  0.0000  0.0000 </r>
       </set>
       <set comment="band 8">
        <r>  0.3490  0.0072  0.0000  0.0000  0.0000  0.0000  0.0000  0.0000  0.0000 </r>
        <r>  0.3490  0.0072  0.0000  0.0000  0.0000  0.0000  0.0000  0.0000  0.0000 </r>
       </set>
      </set>
      <set comment="kpoint 44">
       <set comment="band 1">
        <r>  0.2130  0.0003  0.0000  0.0000  0.0000  0.0000  0.0000  0.0000  0.0000 </r>
        <r>  0.2130  0.0003  0.0000  0.0000  0.0000  0.0000  0.0000  0.0000  0.0000 </r>
       </set>
       <set comment="band 2">
        <r>  0.0198  0.2021  0.0000  0.0000  0.0000  0.0000  0.0000  0.0000  0.0000 </r>
        <r>  0.0198  0.2021  0.0000  0.0000  0.0000  0.0000  0.0000  0.0000  0.0000 </r>
       </set>
       <set comment="band 3">
        <r>  0.0000  0.0000  0.0079  0.2059  0.0000  0.0000  0.0000  0.0000  0.0000 </r>
        <r>  0.0000  0.0000  0.0079  0.2059  0.0000  0.0000  0.0000  0.0000  0.0000 </r>
       </set>
       <set comment="band 4">
        <r>  0.0000  0.0000  0.2052  0.0080  0.0000  0.0000  0.0000  0.0000  0.0000 </r>
        <r>  0.0000  0.0000  0.2052  0.0080  0.0000  0.0000  0.0000  0.0000  0.0000 </r>
       </set>
       <set comment="band 5">
        <r>  0.0027  0.1472  0.0000  0.0000  0.0000  0.0000  0.0000  0.0000  0.0000 </r>
        <r>  0.0027  0.1472  0.0000  0.0000  0.0000  0.0000  0.0000  0.0000  0.0000 </r>
       </set>
       <set comment="band 6">
        <r>  0.0000  0.0000  0.1435  0.0106  0.0000  0.0000  0.0000  0.0000  0.0000 </r>
        <r>  0.0000  0.0000  0.1435  0.0106  0.0000  0.0000  0.0000  0.0000  0.0000 </r>
       </set>
       <set comment="band 7">
        <r>  0.0000  0.0000  0.0108  0.1425  0.0000  0.0000  0.0000  0.0000  0.0000 </r>
        <r>  0.0000  0.0000  0.0108  0.1425  0.0000  0.0000  0.0000  0.0000  0.0000 </r>
       </set>
       <set comment="band 8">
        <r>  0.3382  0.0150  0.0000  0.0000  0.0000  0.0000  0.0000  0.0000  0.0000 </r>
        <r>  0.3383  0.0150  0.0000  0.0000  0.0000  0.0000  0.0000  0.0000  0.0000 </r>
       </set>
      </set>
      <set comment="kpoint 45">
       <set comment="band 1">
        <r>  0.2128  0.0005  0.0000  0.0000  0.0000  0.0000  0.0000  0.0000  0.0000 </r>
        <r>  0.2128  0.0005  0.0000  0.0000  0.0000  0.0000  0.0000  0.0000  0.0000 </r>
       </set>
       <set comment="band 2">
        <r>  0.0320  0.1937  0.0000  0.0000  0.0000  0.0000  0.0000  0.0000  0.0000 </r>
        <r>  0.0320  0.1937  0.0000  0.0000  0.0000  0.0000  0.0000  0.0000  0.0000 </r>
       </set>
       <set comment="band 3">
        <r>  0.0000  0.0000  0.0129  0.1994  0.0000  0.0000  0.0000  0.0000  0.0000 </r>
        <r>  0.0000  0.0000  0.0129  0.1994  0.0000  0.0000  0.0000  0.0000  0.0000 </r>
       </set>
       <set comment="band 4">
        <r>  0.0000  0.0000  0.1986  0.0131  0.0000  0.0000  0.0000  0.0000  0.0000 </r>
        <r>  0.0000  0.0000  0.1986  0.0131  0.0000  0.0000  0.0000  0.0000  0.0000 </r>
       </set>
       <set comment="band 5">
        <r>  0.0047  0.1441  0.0000  0.0000  0.0000  0.0000  0.0000  0.0000  0.0000 </r>
        <r>  0.0047  0.1441  0.0000  0.0000  0.0000  0.0000  0.0000  0.0000  0.0000 </r>
       </set>
       <set comment="band 6">
        <r>  0.0000  0.0000  0.1384  0.0173  0.0000  0.0000  0.0000  0.0000  0.0000 </r>
        <r>  0.0000  0.0000  0.1384  0.0173  0.0000  0.0000  0.0000  0.0000  0.0000 </r>
       </set>
       <set comment="band 7">
        <r>  0.0000  0.0000  0.0175  0.1373  0.0000  0.0000  0.0000  0.0000  0.0000 </r>
        <r>  0.0000  0.0000  0.0175  0.1373  0.0000  0.0000  0.0000  0.0000  0.0000 </r>
       </set>
       <set comment="band 8">
        <r>  0.3252  0.0245  0.0000  0.0000  0.0000  0.0000  0.0000  0.0000  0.0000 </r>
        <r>  0.3252  0.0245  0.0000  0.0000  0.0000  0.0000  0.0000  0.0000  0.0000 </r>
       </set>
      </set>
      <set comment="kpoint 46">
       <set comment="band 1">
        <r>  0.2127  0.0008  0.0000  0.0000  0.0000  0.0000  0.0000  0.0000  0.0000 </r>
        <r>  0.2127  0.0008  0.0000  0.0000  0.0000  0.0000  0.0000  0.0000  0.0000 </r>
       </set>
       <set comment="band 2">
        <r>  0.0447  0.1848  0.0000  0.0000  0.0000  0.0000  0.0000  0.0000  0.0000 </r>
        <r>  0.0447  0.1848  0.0000  0.0000  0.0000  0.0000  0.0000  0.0000  0.0000 </r>
       </set>
       <set comment="band 3">
        <r>  0.0000  0.0000  0.0182  0.1924  0.0000  0.0000  0.0000  0.0000  0.0000 </r>
        <r>  0.0000  0.0000  0.0182  0.1924  0.0000  0.0000  0.0000  0.0000  0.0000 </r>
       </set>
       <set comment="band 4">
        <r>  0.0000  0.0000  0.1916  0.0184  0.0000  0.0000  0.0000  0.0000  0.0000 </r>
        <r>  0.0000  0.0000  0.1916  0.0184  0.0000  0.0000  0.0000  0.0000  0.0000 </r>
       </set>
       <set comment="band 5">
        <r>  0.0070  0.1403  0.0000  0.0000  0.0000  0.0000  0.0000  0.0000  0.0000 </r>
        <r>  0.0070  0.1403  0.0000  0.0000  0.0000  0.0000  0.0000  0.0000  0.0000 </r>
       </set>
       <set comment="band 6">
        <r>  0.0000  0.0000  0.1329  0.0244  0.0000  0.0000  0.0000  0.0000  0.0000 </r>
        <r>  0.0000  0.0000  0.1329  0.0244  0.0000  0.0000  0.0000  0.0000  0.0000 </r>
       </set>
       <set comment="band 7">
        <r>  0.0000  0.0000  0.0247  0.1318  0.0000  0.0000  0.0000  0.0000  0.0000 </r>
        <r>  0.0000  0.0000  0.0247  0.1318  0.0000  0.0000  0.0000  0.0000  0.0000 </r>
       </set>
       <set comment="band 8">
        <r>  0.3110  0.0348  0.0000  0.0000  0.0000  0.0000  0.0000  0.0000  0.0000 </r>
        <r>  0.3110  0.0348  0.0000  0.0000  0.0000  0.0000  0.0000  0.0000  0.0000 </r>
       </set>
      </set>
      <set comment="kpoint 47">
       <set comment="band 1">
        <r>  0.2125  0.0011  0.0000  0.0000  0.0000  0.0000  0.0000  0.0000  0.0000 </r>
        <r>  0.2125  0.0011  0.0000  0.0000  0.0000  0.0000  0.0000  0.0000  0.0000 </r>
       </set>
       <set comment="band 2">
        <r>  0.0573  0.1759  0.0000  0.0000  0.0000  0.0000  0.0000  0.0000  0.0000 </r>
        <r>  0.0573  0.1759  0.0000  0.0000  0.0000  0.0000  0.0000  0.0000  0.0000 </r>
       </set>
       <set comment="band 3">
        <r>  0.0000  0.0000  0.0235  0.1855  0.0000  0.0000  0.0000  0.0000  0.0000 </r>
        <r>  0.0000  0.0000  0.0235  0.1855  0.0000  0.0000  0.0000  0.0000  0.0000 </r>
       </set>
       <set comment="band 4">
        <r>  0.0000  0.0000  0.1846  0.0238  0.0000  0.0000  0.0000  0.0000  0.0000 </r>
        <r>  0.0000  0.0000  0.1846  0.0238  0.0000  0.0000  0.0000  0.0000  0.0000 </r>
       </set>
       <set comment="band 5">
        <r>  0.0096  0.1361  0.0000  0.0000  0.0000  0.0000  0.0000  0.0000  0.0000 </r>
        <r>  0.0096  0.1361  0.0000  0.0000  0.0000  0.0000  0.0000  0.0000  0.0000 </r>
       </set>
       <set comment="band 6">
        <r>  0.0000  0.0000  0.1273  0.0315  0.0000  0.0000  0.0000  0.0000  0.0000 </r>
        <r>  0.0000  0.0000  0.1273  0.0315  0.0000  0.0000  0.0000  0.0000  0.0000 </r>
       </set>
       <set comment="band 7">
        <r>  0.0000  0.0000  0.0319  0.1263  0.0000  0.0000  0.0000  0.0000  0.0000 </r>
        <r>  0.0000  0.0000  0.0319  0.1263  0.0000  0.0000  0.0000  0.0000  0.0000 </r>
       </set>
       <set comment="band 8">
        <r>  0.2959  0.0451  0.0000  0.0000  0.0000  0.0000  0.0000  0.0000  0.0000 </r>
        <r>  0.2959  0.0451  0.0000  0.0000  0.0000  0.0000  0.0000  0.0000  0.0000 </r>
       </set>
      </set>
      <set comment="kpoint 48">
       <set comment="band 1">
        <r>  0.2124  0.0015  0.0000  0.0000  0.0000  0.0000  0.0000  0.0000  0.0000 </r>
        <r>  0.2124  0.0015  0.0000  0.0000  0.0000  0.0000  0.0000  0.0000  0.0000 </r>
       </set>
       <set comment="band 2">
        <r>  0.0693  0.1674  0.0000  0.0000  0.0000  0.0000  0.0000  0.0000  0.0000 </r>
        <r>  0.0693  0.1674  0.0000  0.0000  0.0000  0.0000  0.0000  0.0000  0.0000 </r>
       </set>
       <set comment="band 3">
        <r>  0.0000  0.0000  0.0287  0.1789  0.0000  0.0000  0.0000  0.0000  0.0000 </r>
        <r>  0.0000  0.0000  0.0287  0.1789  0.0000  0.0000  0.0000  0.0000  0.0000 </r>
       </set>
       <set comment="band 4">
        <r>  0.0000  0.0000  0.1780  0.0289  0.0000  0.0000  0.0000  0.0000  0.0000 </r>
        <r>  0.0000  0.0000  0.1780  0.0289  0.0000  0.0000  0.0000  0.0000  0.0000 </r>
       </set>
       <set comment="band 5">
        <r>  0.0124  0.1316  0.0000  0.0000  0.0000  0.0000  0.0000  0.0000  0.0000 </r>
        <r>  0.0124  0.1316  0.0000  0.0000  0.0000  0.0000  0.0000  0.0000  0.0000 </r>
       </set>
       <set comment="band 6">
        <r>  0.0000  0.0000  0.1219  0.0384  0.0000  0.0000  0.0000  0.0000  0.0000 </r>
        <r>  0.0000  0.0000  0.1219  0.0384  0.0000  0.0000  0.0000  0.0000  0.0000 </r>
       </set>
       <set comment="band 7">
        <r>  0.0000  0.0000  0.0387  0.1209  0.0000  0.0000  0.0000  0.0000  0.0000 </r>
        <r>  0.0000  0.0000  0.0387  0.1209  0.0000  0.0000  0.0000  0.0000  0.0000 </r>
       </set>
       <set comment="band 8">
        <r>  0.2797  0.0552  0.0000  0.0000  0.0000  0.0000  0.0000  0.0000  0.0000 </r>
        <r>  0.2797  0.0552  0.0000  0.0000  0.0000  0.0000  0.0000  0.0000  0.0000 </r>
       </set>
      </set>
      <set comment="kpoint 49">
       <set comment="band 1">
        <r>  0.2121  0.0020  0.0000  0.0000  0.0000  0.0000  0.0000  0.0000  0.0000 </r>
        <r>  0.2121  0.0020  0.0000  0.0000  0.0000  0.0000  0.0000  0.0000  0.0000 </r>
       </set>
       <set comment="band 2">
        <r>  0.0804  0.1595  0.0000  0.0000  0.0000  0.0000  0.0000  0.0000  0.0000 </r>
        <r>  0.0804  0.1595  0.0000  0.0000  0.0000  0.0000  0.0000  0.0000  0.0000 </r>
       </set>
       <set comment="band 3">
        <r>  0.0000  0.0000  0.0335  0.1727  0.0000  0.0000  0.0000  0.0000  0.0000 </r>
        <r>  0.0000  0.0000  0.0335  0.1727  0.0000  0.0000  0.0000  0.0000  0.0000 </r>
       </set>
       <set comment="band 4">
        <r>  0.0000  0.0000  0.1718  0.0337  0.0000  0.0000  0.0000  0.0000  0.0000 </r>
        <r>  0.0000  0.0000  0.1718  0.0337  0.0000  0.0000  0.0000  0.0000  0.0000 </r>
       </set>
       <set comment="band 5">
        <r>  0.0153  0.1268  0.0000  0.0000  0.0000  0.0000  0.0000  0.0000  0.0000 </r>
        <r>  0.0153  0.1268  0.0000  0.0000  0.0000  0.0000  0.0000  0.0000  0.0000 </r>
       </set>
       <set comment="band 6">
        <r>  0.0000  0.0000  0.1168  0.0448  0.0000  0.0000  0.0000  0.0000  0.0000 </r>
        <r>  0.0000  0.0000  0.1168  0.0448  0.0000  0.0000  0.0000  0.0000  0.0000 </r>
       </set>
       <set comment="band 7">
        <r>  0.0000  0.0000  0.0451  0.1158  0.0000  0.0000  0.0000  0.0000  0.0000 </r>
        <r>  0.0000  0.0000  0.0451  0.1158  0.0000  0.0000  0.0000  0.0000  0.0000 </r>
       </set>
       <set comment="band 8">
        <r>  0.2614  0.0643  0.0000  0.0000  0.0000  0.0000  0.0000  0.0000  0.0000 </r>
        <r>  0.2614  0.0643  0.0000  0.0000  0.0000  0.0000  0.0000  0.0000  0.0000 </r>
       </set>
      </set>
      <set comment="kpoint 50">
       <set comment="band 1">
        <r>  0.2119  0.0025  0.0000  0.0000  0.0000  0.0000  0.0000  0.0000  0.0000 </r>
        <r>  0.2119  0.0025  0.0000  0.0000  0.0000  0.0000  0.0000  0.0000  0.0000 </r>
       </set>
       <set comment="band 2">
        <r>  0.0906  0.1521  0.0000  0.0000  0.0000  0.0000  0.0000  0.0000  0.0000 </r>
        <r>  0.0906  0.1521  0.0000  0.0000  0.0000  0.0000  0.0000  0.0000  0.0000 </r>
       </set>
       <set comment="band 3">
        <r>  0.0000  0.0000  0.0380  0.1670  0.0000  0.0000  0.0000  0.0000  0.0000 </r>
        <r>  0.0000  0.0000  0.0380  0.1670  0.0000  0.0000  0.0000  0.0000  0.0000 </r>
       </set>
       <set comment="band 4">
        <r>  0.0000  0.0000  0.1661  0.0382  0.0000  0.0000  0.0000  0.0000  0.0000 </r>
        <r>  0.0000  0.0000  0.1661  0.0382  0.0000  0.0000  0.0000  0.0000  0.0000 </r>
       </set>
       <set comment="band 5">
        <r>  0.0182  0.1220  0.0000  0.0000  0.0000  0.0000  0.0000  0.0000  0.0000 </r>
        <r>  0.0182  0.1220  0.0000  0.0000  0.0000  0.0000  0.0000  0.0000  0.0000 </r>
       </set>
       <set comment="band 6">
        <r>  0.0000  0.0000  0.1120  0.0508  0.0000  0.0000  0.0000  0.0000  0.0000 </r>
        <r>  0.0000  0.0000  0.1120  0.0508  0.0000  0.0000  0.0000  0.0000  0.0000 </r>
       </set>
       <set comment="band 7">
        <r>  0.0000  0.0000  0.0510  0.1110  0.0000  0.0000  0.0000  0.0000  0.0000 </r>
        <r>  0.0000  0.0000  0.0510  0.1110  0.0000  0.0000  0.0000  0.0000  0.0000 </r>
       </set>
       <set comment="band 8">
        <r>  0.2395  0.0718  0.0000  0.0000  0.0000  0.0000  0.0000  0.0000  0.0000 </r>
        <r>  0.2395  0.0718  0.0000  0.0000  0.0000  0.0000  0.0000  0.0000  0.0000 </r>
       </set>
      </set>
      <set comment="kpoint 51">
       <set comment="band 1">
        <r>  0.2116  0.0031  0.0000  0.0000  0.0000  0.0000  0.0000  0.0000  0.0000 </r>
        <r>  0.2116  0.0031  0.0000  0.0000  0.0000  0.0000  0.0000  0.0000  0.0000 </r>
       </set>
       <set comment="band 2">
        <r>  0.0998  0.1453  0.0000  0.0000  0.0000  0.0000  0.0000  0.0000  0.0000 </r>
        <r>  0.0998  0.1453  0.0000  0.0000  0.0000  0.0000  0.0000  0.0000  0.0000 </r>
       </set>
       <set comment="band 3">
        <r>  0.0000  0.0000  0.0422  0.1617  0.0000  0.0000  0.0000  0.0000  0.0000 </r>
        <r>  0.0000  0.0000  0.0422  0.1617  0.0000  0.0000  0.0000  0.0000  0.0000 </r>
       </set>
       <set comment="band 4">
        <r>  0.0000  0.0000  0.1610  0.0424  0.0000  0.0000  0.0000  0.0000  0.0000 </r>
        <r>  0.0000  0.0000  0.1610  0.0424  0.0000  0.0000  0.0000  0.0000  0.0000 </r>
       </set>
       <set comment="band 5">
        <r>  0.0211  0.1171  0.0000  0.0000  0.0000  0.0000  0.0000  0.0000  0.0000 </r>
        <r>  0.0211  0.1171  0.0000  0.0000  0.0000  0.0000  0.0000  0.0000  0.0000 </r>
       </set>
       <set comment="band 6">
        <r>  0.0000  0.0000  0.1075  0.0563  0.0000  0.0000  0.0000  0.0000  0.0000 </r>
        <r>  0.0000  0.0000  0.1075  0.0563  0.0000  0.0000  0.0000  0.0000  0.0000 </r>
       </set>
       <set comment="band 7">
        <r>  0.0000  0.0000  0.0565  0.1066  0.0000  0.0000  0.0000  0.0000  0.0000 </r>
        <r>  0.0000  0.0000  0.0565  0.1066  0.0000  0.0000  0.0000  0.0000  0.0000 </r>
       </set>
       <set comment="band 8">
        <r>  0.2128  0.0763  0.0000  0.0000  0.0000  0.0000  0.0000  0.0000  0.0000 </r>
        <r>  0.2129  0.0763  0.0000  0.0000  0.0000  0.0000  0.0000  0.0000  0.0000 </r>
       </set>
      </set>
      <set comment="kpoint 52">
       <set comment="band 1">
        <r>  0.2113  0.0038  0.0000  0.0000  0.0000  0.0000  0.0000  0.0000  0.0000 </r>
        <r>  0.2113  0.0038  0.0000  0.0000  0.0000  0.0000  0.0000  0.0000  0.0000 </r>
       </set>
       <set comment="band 2">
        <r>  0.1083  0.1390  0.0000  0.0000  0.0000  0.0000  0.0000  0.0000  0.0000 </r>
        <r>  0.1083  0.1390  0.0000  0.0000  0.0000  0.0000  0.0000  0.0000  0.0000 </r>
       </set>
       <set comment="band 3">
        <r>  0.0000  0.0000  0.0460  0.1570  0.0000  0.0000  0.0000  0.0000  0.0000 </r>
        <r>  0.0000  0.0000  0.0460  0.1570  0.0000  0.0000  0.0000  0.0000  0.0000 </r>
       </set>
       <set comment="band 4">
        <r>  0.0000  0.0000  0.1563  0.0461  0.0000  0.0000  0.0000  0.0000  0.0000 </r>
        <r>  0.0000  0.0000  0.1563  0.0461  0.0000  0.0000  0.0000  0.0000  0.0000 </r>
       </set>
       <set comment="band 5">
        <r>  0.0239  0.1125  0.0000  0.0000  0.0000  0.0000  0.0000  0.0000  0.0000 </r>
        <r>  0.0239  0.1125  0.0000  0.0000  0.0000  0.0000  0.0000  0.0000  0.0000 </r>
       </set>
       <set comment="band 6">
        <r>  0.0000  0.0000  0.1033  0.0614  0.0000  0.0000  0.0000  0.0000  0.0000 </r>
        <r>  0.0000  0.0000  0.1033  0.0614  0.0000  0.0000  0.0000  0.0000  0.0000 </r>
       </set>
       <set comment="band 7">
        <r>  0.0000  0.0000  0.0615  0.1025  0.0000  0.0000  0.0000  0.0000  0.0000 </r>
        <r>  0.0000  0.0000  0.0615  0.1025  0.0000  0.0000  0.0000  0.0000  0.0000 </r>
       </set>
       <set comment="band 8">
        <r>  0.1809  0.0766  0.0000  0.0000  0.0000  0.0000  0.0000  0.0000  0.0000 </r>
        <r>  0.1809  0.0766  0.0000  0.0000  0.0000  0.0000  0.0000  0.0000  0.0000 </r>
       </set>
      </set>
      <set comment="kpoint 53">
       <set comment="band 1">
        <r>  0.2110  0.0045  0.0000  0.0000  0.0000  0.0000  0.0000  0.0000  0.0000 </r>
        <r>  0.2110  0.0045  0.0000  0.0000  0.0000  0.0000  0.0000  0.0000  0.0000 </r>
       </set>
       <set comment="band 2">
        <r>  0.1159  0.1332  0.0000  0.0000  0.0000  0.0000  0.0000  0.0000  0.0000 </r>
        <r>  0.1159  0.1332  0.0000  0.0000  0.0000  0.0000  0.0000  0.0000  0.0000 </r>
       </set>
       <set comment="band 3">
        <r>  0.0000  0.0000  0.0495  0.1527  0.0000  0.0000  0.0000  0.0000  0.0000 </r>
        <r>  0.0000  0.0000  0.0495  0.1527  0.0000  0.0000  0.0000  0.0000  0.0000 </r>
       </set>
       <set comment="band 4">
        <r>  0.0000  0.0000  0.1520  0.0496  0.0000  0.0000  0.0000  0.0000  0.0000 </r>
        <r>  0.0000  0.0000  0.1520  0.0496  0.0000  0.0000  0.0000  0.0000  0.0000 </r>
       </set>
       <set comment="band 5">
        <r>  0.0266  0.1078  0.0000  0.0000  0.0000  0.0000  0.0000  0.0000  0.0000 </r>
        <r>  0.0266  0.1078  0.0000  0.0000  0.0000  0.0000  0.0000  0.0000  0.0000 </r>
       </set>
       <set comment="band 6">
        <r>  0.0000  0.0000  0.0995  0.0661  0.0000  0.0000  0.0000  0.0000  0.0000 </r>
        <r>  0.0000  0.0000  0.0994  0.0661  0.0000  0.0000  0.0000  0.0000  0.0000 </r>
       </set>
       <set comment="band 7">
        <r>  0.0000  0.0000  0.0661  0.0987  0.0000  0.0000  0.0000  0.0000  0.0000 </r>
        <r>  0.0000  0.0000  0.0661  0.0987  0.0000  0.0000  0.0000  0.0000  0.0000 </r>
       </set>
       <set comment="band 8">
        <r>  0.1486  0.0730  0.0000  0.0000  0.0000  0.0000  0.0000  0.0000  0.0000 </r>
        <r>  0.1486  0.0730  0.0000  0.0000  0.0000  0.0000  0.0000  0.0000  0.0000 </r>
       </set>
      </set>
      <set comment="kpoint 54">
       <set comment="band 1">
        <r>  0.2106  0.0053  0.0000  0.0000  0.0000  0.0000  0.0000  0.0000  0.0000 </r>
        <r>  0.2106  0.0053  0.0000  0.0000  0.0000  0.0000  0.0000  0.0000  0.0000 </r>
       </set>
       <set comment="band 2">
        <r>  0.1229  0.1278  0.0000  0.0000  0.0000  0.0000  0.0000  0.0000  0.0000 </r>
        <r>  0.1229  0.1278  0.0000  0.0000  0.0000  0.0000  0.0000  0.0000  0.0000 </r>
       </set>
       <set comment="band 3">
        <r>  0.0000  0.0000  0.0528  0.1487  0.0000  0.0000  0.0000  0.0000  0.0000 </r>
        <r>  0.0000  0.0000  0.0528  0.1487  0.0000  0.0000  0.0000  0.0000  0.0000 </r>
       </set>
       <set comment="band 4">
        <r>  0.0000  0.0000  0.1481  0.0529  0.0000  0.0000  0.0000  0.0000  0.0000 </r>
        <r>  0.0000  0.0000  0.1481  0.0529  0.0000  0.0000  0.0000  0.0000  0.0000 </r>
       </set>
       <set comment="band 5">
        <r>  0.0292  0.1032  0.0000  0.0000  0.0000  0.0000  0.0000  0.0000  0.0000 </r>
        <r>  0.0292  0.1032  0.0000  0.0000  0.0000  0.0000  0.0000  0.0000  0.0000 </r>
       </set>
       <set comment="band 6">
        <r>  0.1198  0.0672  0.0000  0.0000  0.0000  0.0000  0.0000  0.0000  0.0000 </r>
        <r>  0.1198  0.0672  0.0000  0.0000  0.0000  0.0000  0.0000  0.0000  0.0000 </r>
       </set>
       <set comment="band 7">
        <r>  0.0000  0.0000  0.0958  0.0703  0.0000  0.0000  0.0000  0.0000  0.0000 </r>
        <r>  0.0000  0.0000  0.0958  0.0703  0.0000  0.0000  0.0000  0.0000  0.0000 </r>
       </set>
       <set comment="band 8">
        <r>  0.0000  0.0000  0.0703  0.0951  0.0000  0.0000  0.0000  0.0000  0.0000 </r>
        <r>  0.0000  0.0000  0.0703  0.0951  0.0000  0.0000  0.0000  0.0000  0.0000 </r>
       </set>
      </set>
      <set comment="kpoint 55">
       <set comment="band 1">
        <r>  0.2102  0.0061  0.0000  0.0000  0.0000  0.0000  0.0000  0.0000  0.0000 </r>
        <r>  0.2102  0.0061  0.0000  0.0000  0.0000  0.0000  0.0000  0.0000  0.0000 </r>
       </set>
       <set comment="band 2">
        <r>  0.1292  0.1225  0.0000  0.0000  0.0000  0.0000  0.0000  0.0000  0.0000 </r>
        <r>  0.1292  0.1225  0.0000  0.0000  0.0000  0.0000  0.0000  0.0000  0.0000 </r>
       </set>
       <set comment="band 3">
        <r>  0.0000  0.0000  0.0559  0.1451  0.0000  0.0000  0.0000  0.0000  0.0000 </r>
        <r>  0.0000  0.0000  0.0559  0.1451  0.0000  0.0000  0.0000  0.0000  0.0000 </r>
       </set>
       <set comment="band 4">
        <r>  0.0000  0.0000  0.1445  0.0559  0.0000  0.0000  0.0000  0.0000  0.0000 </r>
        <r>  0.0000  0.0000  0.1445  0.0559  0.0000  0.0000  0.0000  0.0000  0.0000 </r>
       </set>
       <set comment="band 5">
        <r>  0.0317  0.0988  0.0000  0.0000  0.0000  0.0000  0.0000  0.0000  0.0000 </r>
        <r>  0.0317  0.0988  0.0000  0.0000  0.0000  0.0000  0.0000  0.0000  0.0000 </r>
       </set>
       <set comment="band 6">
        <r>  0.0973  0.0604  0.0000  0.0000  0.0000  0.0000  0.0000  0.0000  0.0000 </r>
        <r>  0.0973  0.0604  0.0000  0.0000  0.0000  0.0000  0.0000  0.0000  0.0000 </r>
       </set>
       <set comment="band 7">
        <r>  0.0000  0.0000  0.0923  0.0742  0.0000  0.0000  0.0000  0.0000  0.0000 </r>
        <r>  0.0000  0.0000  0.0923  0.0742  0.0000  0.0000  0.0000  0.0000  0.0000 </r>
       </set>
       <set comment="band 8">
        <r>  0.0000  0.0000  0.0741  0.0917  0.0000  0.0000  0.0000  0.0000  0.0000 </r>
        <r>  0.0000  0.0000  0.0741  0.0916  0.0000  0.0000  0.0000  0.0000  0.0000 </r>
       </set>
      </set>
      <set comment="kpoint 56">
       <set comment="band 1">
        <r>  0.2099  0.0070  0.0000  0.0000  0.0000  0.0000  0.0000  0.0000  0.0000 </r>
        <r>  0.2099  0.0070  0.0000  0.0000  0.0000  0.0000  0.0000  0.0000  0.0000 </r>
       </set>
       <set comment="band 2">
        <r>  0.1351  0.1177  0.0000  0.0000  0.0000  0.0000  0.0000  0.0000  0.0000 </r>
        <r>  0.1351  0.1177  0.0000  0.0000  0.0000  0.0000  0.0000  0.0000  0.0000 </r>
       </set>
       <set comment="band 3">
        <r>  0.0000  0.0000  0.0586  0.1417  0.0000  0.0000  0.0000  0.0000  0.0000 </r>
        <r>  0.0000  0.0000  0.0586  0.1417  0.0000  0.0000  0.0000  0.0000  0.0000 </r>
       </set>
       <set comment="band 4">
        <r>  0.0000  0.0000  0.1412  0.0586  0.0000  0.0000  0.0000  0.0000  0.0000 </r>
        <r>  0.0000  0.0000  0.1412  0.0586  0.0000  0.0000  0.0000  0.0000  0.0000 </r>
       </set>
       <set comment="band 5">
        <r>  0.0340  0.0944  0.0000  0.0000  0.0000  0.0000  0.0000  0.0000  0.0000 </r>
        <r>  0.0340  0.0944  0.0000  0.0000  0.0000  0.0000  0.0000  0.0000  0.0000 </r>
       </set>
       <set comment="band 6">
        <r>  0.0809  0.0547  0.0000  0.0000  0.0000  0.0000  0.0000  0.0000  0.0000 </r>
        <r>  0.0809  0.0547  0.0000  0.0000  0.0000  0.0000  0.0000  0.0000  0.0000 </r>
       </set>
       <set comment="band 7">
        <r>  0.0000  0.0000  0.0890  0.0778  0.0000  0.0000  0.0000  0.0000  0.0000 </r>
        <r>  0.0000  0.0000  0.0890  0.0778  0.0000  0.0000  0.0000  0.0000  0.0000 </r>
       </set>
       <set comment="band 8">
        <r>  0.0000  0.0000  0.0776  0.0885  0.0000  0.0000  0.0000  0.0000  0.0000 </r>
        <r>  0.0000  0.0000  0.0776  0.0885  0.0000  0.0000  0.0000  0.0000  0.0000 </r>
       </set>
      </set>
      <set comment="kpoint 57">
       <set comment="band 1">
        <r>  0.2094  0.0080  0.0000  0.0000  0.0000  0.0000  0.0000  0.0000  0.0000 </r>
        <r>  0.2094  0.0080  0.0000  0.0000  0.0000  0.0000  0.0000  0.0000  0.0000 </r>
       </set>
       <set comment="band 2">
        <r>  0.1404  0.1133  0.0000  0.0000  0.0000  0.0000  0.0000  0.0000  0.0000 </r>
        <r>  0.1404  0.1133  0.0000  0.0000  0.0000  0.0000  0.0000  0.0000  0.0000 </r>
       </set>
       <set comment="band 3">
        <r>  0.0000  0.0000  0.0613  0.1386  0.0000  0.0000  0.0000  0.0000  0.0000 </r>
        <r>  0.0000  0.0000  0.0613  0.1386  0.0000  0.0000  0.0000  0.0000  0.0000 </r>
       </set>
       <set comment="band 4">
        <r>  0.0000  0.0000  0.1382  0.0612  0.0000  0.0000  0.0000  0.0000  0.0000 </r>
        <r>  0.0000  0.0000  0.1382  0.0612  0.0000  0.0000  0.0000  0.0000  0.0000 </r>
       </set>
       <set comment="band 5">
        <r>  0.0362  0.0903  0.0000  0.0000  0.0000  0.0000  0.0000  0.0000  0.0000 </r>
        <r>  0.0362  0.0903  0.0000  0.0000  0.0000  0.0000  0.0000  0.0000  0.0000 </r>
       </set>
       <set comment="band 6">
        <r>  0.0692  0.0499  0.0000  0.0000  0.0000  0.0000  0.0000  0.0000  0.0000 </r>
        <r>  0.0692  0.0499  0.0000  0.0000  0.0000  0.0000  0.0000  0.0000  0.0000 </r>
       </set>
       <set comment="band 7">
        <r>  0.0000  0.0000  0.0860  0.0810  0.0000  0.0000  0.0000  0.0000  0.0000 </r>
        <r>  0.0000  0.0000  0.0860  0.0810  0.0000  0.0000  0.0000  0.0000  0.0000 </r>
       </set>
       <set comment="band 8">
        <r>  0.0000  0.0000  0.0809  0.0855  0.0000  0.0000  0.0000  0.0000  0.0000 </r>
        <r>  0.0000  0.0000  0.0809  0.0855  0.0000  0.0000  0.0000  0.0000  0.0000 </r>
       </set>
      </set>
      <set comment="kpoint 58">
       <set comment="band 1">
        <r>  0.2090  0.0090  0.0000  0.0000  0.0000  0.0000  0.0000  0.0000  0.0000 </r>
        <r>  0.2090  0.0090  0.0000  0.0000  0.0000  0.0000  0.0000  0.0000  0.0000 </r>
       </set>
       <set comment="band 2">
        <r>  0.1453  0.1091  0.0000  0.0000  0.0000  0.0000  0.0000  0.0000  0.0000 </r>
        <r>  0.1453  0.1091  0.0000  0.0000  0.0000  0.0000  0.0000  0.0000  0.0000 </r>
       </set>
       <set comment="band 3">
        <r>  0.0000  0.0000  0.0637  0.1358  0.0000  0.0000  0.0000  0.0000  0.0000 </r>
        <r>  0.0000  0.0000  0.0637  0.1358  0.0000  0.0000  0.0000  0.0000  0.0000 </r>
       </set>
       <set comment="band 4">
        <r>  0.0000  0.0000  0.1354  0.0637  0.0000  0.0000  0.0000  0.0000  0.0000 </r>
        <r>  0.0000  0.0000  0.1354  0.0637  0.0000  0.0000  0.0000  0.0000  0.0000 </r>
       </set>
       <set comment="band 5">
        <r>  0.0383  0.0864  0.0000  0.0000  0.0000  0.0000  0.0000  0.0000  0.0000 </r>
        <r>  0.0383  0.0864  0.0000  0.0000  0.0000  0.0000  0.0000  0.0000  0.0000 </r>
       </set>
       <set comment="band 6">
        <r>  0.0610  0.0461  0.0000  0.0000  0.0000  0.0000  0.0000  0.0000  0.0000 </r>
        <r>  0.0610  0.0461  0.0000  0.0000  0.0000  0.0000  0.0000  0.0000  0.0000 </r>
       </set>
       <set comment="band 7">
        <r>  0.0000  0.0000  0.0831  0.0840  0.0000  0.0000  0.0000  0.0000  0.0000 </r>
        <r>  0.0000  0.0000  0.0830  0.0840  0.0000  0.0000  0.0000  0.0000  0.0000 </r>
       </set>
       <set comment="band 8">
        <r>  0.0000  0.0000  0.0838  0.0826  0.0000  0.0000  0.0000  0.0000  0.0000 </r>
        <r>  0.0000  0.0000  0.0838  0.0826  0.0000  0.0000  0.0000  0.0000  0.0000 </r>
       </set>
      </set>
      <set comment="kpoint 59">
       <set comment="band 1">
        <r>  0.2085  0.0101  0.0000  0.0000  0.0000  0.0000  0.0000  0.0000  0.0000 </r>
        <r>  0.2085  0.0101  0.0000  0.0000  0.0000  0.0000  0.0000  0.0000  0.0000 </r>
       </set>
       <set comment="band 2">
        <r>  0.1497  0.1051  0.0000  0.0000  0.0000  0.0000  0.0000  0.0000  0.0000 </r>
        <r>  0.1497  0.1051  0.0000  0.0000  0.0000  0.0000  0.0000  0.0000  0.0000 </r>
       </set>
       <set comment="band 3">
        <r>  0.0000  0.0000  0.0661  0.1331  0.0000  0.0000  0.0000  0.0000  0.0000 </r>
        <r>  0.0000  0.0000  0.0661  0.1331  0.0000  0.0000  0.0000  0.0000  0.0000 </r>
       </set>
       <set comment="band 4">
        <r>  0.0000  0.0000  0.1327  0.0660  0.0000  0.0000  0.0000  0.0000  0.0000 </r>
        <r>  0.0000  0.0000  0.1327  0.0660  0.0000  0.0000  0.0000  0.0000  0.0000 </r>
       </set>
       <set comment="band 5">
        <r>  0.0402  0.0826  0.0000  0.0000  0.0000  0.0000  0.0000  0.0000  0.0000 </r>
        <r>  0.0402  0.0826  0.0000  0.0000  0.0000  0.0000  0.0000  0.0000  0.0000 </r>
       </set>
       <set comment="band 6">
        <r>  0.0552  0.0429  0.0000  0.0000  0.0000  0.0000  0.0000  0.0000  0.0000 </r>
        <r>  0.0552  0.0429  0.0000  0.0000  0.0000  0.0000  0.0000  0.0000  0.0000 </r>
       </set>
       <set comment="band 7">
        <r>  0.0000  0.0000  0.0803  0.0869  0.0000  0.0000  0.0000  0.0000  0.0000 </r>
        <r>  0.0000  0.0000  0.0803  0.0869  0.0000  0.0000  0.0000  0.0000  0.0000 </r>
       </set>
       <set comment="band 8">
        <r>  0.0000  0.0000  0.0866  0.0799  0.0000  0.0000  0.0000  0.0000  0.0000 </r>
        <r>  0.0000  0.0000  0.0866  0.0799  0.0000  0.0000  0.0000  0.0000  0.0000 </r>
       </set>
      </set>
      <set comment="kpoint 60">
       <set comment="band 1">
        <r>  0.2080  0.0112  0.0000  0.0000  0.0000  0.0000  0.0000  0.0000  0.0000 </r>
        <r>  0.2080  0.0112  0.0000  0.0000  0.0000  0.0000  0.0000  0.0000  0.0000 </r>
       </set>
       <set comment="band 2">
        <r>  0.1538  0.1013  0.0000  0.0000  0.0000  0.0000  0.0000  0.0000  0.0000 </r>
        <r>  0.1538  0.1013  0.0000  0.0000  0.0000  0.0000  0.0000  0.0000  0.0000 </r>
       </set>
       <set comment="band 3">
        <r>  0.0000  0.0000  0.0683  0.1306  0.0000  0.0000  0.0000  0.0000  0.0000 </r>
        <r>  0.0000  0.0000  0.0683  0.1306  0.0000  0.0000  0.0000  0.0000  0.0000 </r>
       </set>
       <set comment="band 4">
        <r>  0.0000  0.0000  0.1303  0.0682  0.0000  0.0000  0.0000  0.0000  0.0000 </r>
        <r>  0.0000  0.0000  0.1303  0.0682  0.0000  0.0000  0.0000  0.0000  0.0000 </r>
       </set>
       <set comment="band 5">
        <r>  0.0419  0.0790  0.0000  0.0000  0.0000  0.0000  0.0000  0.0000  0.0000 </r>
        <r>  0.0419  0.0790  0.0000  0.0000  0.0000  0.0000  0.0000  0.0000  0.0000 </r>
       </set>
       <set comment="band 6">
        <r>  0.0511  0.0403  0.0000  0.0000  0.0000  0.0000  0.0000  0.0000  0.0000 </r>
        <r>  0.0511  0.0403  0.0000  0.0000  0.0000  0.0000  0.0000  0.0000  0.0000 </r>
       </set>
       <set comment="band 7">
        <r>  0.0000  0.0000  0.0777  0.0894  0.0000  0.0000  0.0000  0.0000  0.0000 </r>
        <r>  0.0000  0.0000  0.0777  0.0894  0.0000  0.0000  0.0000  0.0000  0.0000 </r>
       </set>
       <set comment="band 8">
        <r>  0.0000  0.0000  0.0891  0.0774  0.0000  0.0000  0.0000  0.0000  0.0000 </r>
        <r>  0.0000  0.0000  0.0891  0.0774  0.0000  0.0000  0.0000  0.0000  0.0000 </r>
       </set>
      </set>
      <set comment="kpoint 61">
       <set comment="band 1">
        <r>  0.2074  0.0124  0.0000  0.0000  0.0000  0.0000  0.0000  0.0000  0.0000 </r>
        <r>  0.2074  0.0124  0.0000  0.0000  0.0000  0.0000  0.0000  0.0000  0.0000 </r>
       </set>
       <set comment="band 2">
        <r>  0.1576  0.0976  0.0000  0.0000  0.0000  0.0000  0.0000  0.0000  0.0000 </r>
        <r>  0.1576  0.0976  0.0000  0.0000  0.0000  0.0000  0.0000  0.0000  0.0000 </r>
       </set>
       <set comment="band 3">
        <r>  0.0000  0.0000  0.0703  0.1283  0.0000  0.0000  0.0000  0.0000  0.0000 </r>
        <r>  0.0000  0.0000  0.0703  0.1283  0.0000  0.0000  0.0000  0.0000  0.0000 </r>
       </set>
       <set comment="band 4">
        <r>  0.0000  0.0000  0.1281  0.0702  0.0000  0.0000  0.0000  0.0000  0.0000 </r>
        <r>  0.0000  0.0000  0.1281  0.0702  0.0000  0.0000  0.0000  0.0000  0.0000 </r>
       </set>
       <set comment="band 5">
        <r>  0.0436  0.0755  0.0000  0.0000  0.0000  0.0000  0.0000  0.0000  0.0000 </r>
        <r>  0.0436  0.0755  0.0000  0.0000  0.0000  0.0000  0.0000  0.0000  0.0000 </r>
       </set>
       <set comment="band 6">
        <r>  0.0482  0.0382  0.0000  0.0000  0.0000  0.0000  0.0000  0.0000  0.0000 </r>
        <r>  0.0482  0.0382  0.0000  0.0000  0.0000  0.0000  0.0000  0.0000  0.0000 </r>
       </set>
       <set comment="band 7">
        <r>  0.0000  0.0000  0.0752  0.0917  0.0000  0.0000  0.0000  0.0000  0.0000 </r>
        <r>  0.0000  0.0000  0.0752  0.0916  0.0000  0.0000  0.0000  0.0000  0.0000 </r>
       </set>
       <set comment="band 8">
        <r>  0.0000  0.0000  0.0914  0.0750  0.0000  0.0000  0.0000  0.0000  0.0000 </r>
        <r>  0.0000  0.0000  0.0914  0.0750  0.0000  0.0000  0.0000  0.0000  0.0000 </r>
       </set>
      </set>
      <set comment="kpoint 62">
       <set comment="band 1">
        <r>  0.2069  0.0137  0.0000  0.0000  0.0000  0.0000  0.0000  0.0000  0.0000 </r>
        <r>  0.2069  0.0137  0.0000  0.0000  0.0000  0.0000  0.0000  0.0000  0.0000 </r>
       </set>
       <set comment="band 2">
        <r>  0.1611  0.0942  0.0000  0.0000  0.0000  0.0000  0.0000  0.0000  0.0000 </r>
        <r>  0.1611  0.0942  0.0000  0.0000  0.0000  0.0000  0.0000  0.0000  0.0000 </r>
       </set>
       <set comment="band 3">
        <r>  0.0000  0.0000  0.0723  0.1261  0.0000  0.0000  0.0000  0.0000  0.0000 </r>
        <r>  0.0000  0.0000  0.0723  0.1261  0.0000  0.0000  0.0000  0.0000  0.0000 </r>
       </set>
       <set comment="band 4">
        <r>  0.0000  0.0000  0.1259  0.0722  0.0000  0.0000  0.0000  0.0000  0.0000 </r>
        <r>  0.0000  0.0000  0.1259  0.0722  0.0000  0.0000  0.0000  0.0000  0.0000 </r>
       </set>
       <set comment="band 5">
        <r>  0.0450  0.0722  0.0000  0.0000  0.0000  0.0000  0.0000  0.0000  0.0000 </r>
        <r>  0.0450  0.0722  0.0000  0.0000  0.0000  0.0000  0.0000  0.0000  0.0000 </r>
       </set>
       <set comment="band 6">
        <r>  0.0463  0.0365  0.0000  0.0000  0.0000  0.0000  0.0000  0.0000  0.0000 </r>
        <r>  0.0463  0.0365  0.0000  0.0000  0.0000  0.0000  0.0000  0.0000  0.0000 </r>
       </set>
       <set comment="band 7">
        <r>  0.0000  0.0000  0.0729  0.0938  0.0000  0.0000  0.0000  0.0000  0.0000 </r>
        <r>  0.0000  0.0000  0.0729  0.0937  0.0000  0.0000  0.0000  0.0000  0.0000 </r>
       </set>
       <set comment="band 8">
        <r>  0.0000  0.0000  0.0934  0.0728  0.0000  0.0000  0.0000  0.0000  0.0000 </r>
        <r>  0.0000  0.0000  0.0934  0.0728  0.0000  0.0000  0.0000  0.0000  0.0000 </r>
       </set>
      </set>
      <set comment="kpoint 63">
       <set comment="band 1">
        <r>  0.2064  0.0150  0.0000  0.0000  0.0000  0.0000  0.0000  0.0000  0.0000 </r>
        <r>  0.2064  0.0150  0.0000  0.0000  0.0000  0.0000  0.0000  0.0000  0.0000 </r>
       </set>
       <set comment="band 2">
        <r>  0.1643  0.0908  0.0000  0.0000  0.0000  0.0000  0.0000  0.0000  0.0000 </r>
        <r>  0.1643  0.0908  0.0000  0.0000  0.0000  0.0000  0.0000  0.0000  0.0000 </r>
       </set>
       <set comment="band 3">
        <r>  0.0000  0.0000  0.0741  0.1241  0.0000  0.0000  0.0000  0.0000  0.0000 </r>
        <r>  0.0000  0.0000  0.0741  0.1241  0.0000  0.0000  0.0000  0.0000  0.0000 </r>
       </set>
       <set comment="band 4">
        <r>  0.0000  0.0000  0.1239  0.0740  0.0000  0.0000  0.0000  0.0000  0.0000 </r>
        <r>  0.0000  0.0000  0.1239  0.0740  0.0000  0.0000  0.0000  0.0000  0.0000 </r>
       </set>
       <set comment="band 5">
        <r>  0.0463  0.0692  0.0000  0.0000  0.0000  0.0000  0.0000  0.0000  0.0000 </r>
        <r>  0.0463  0.0692  0.0000  0.0000  0.0000  0.0000  0.0000  0.0000  0.0000 </r>
       </set>
       <set comment="band 6">
        <r>  0.0449  0.0351  0.0000  0.0000  0.0000  0.0000  0.0000  0.0000  0.0000 </r>
        <r>  0.0449  0.0351  0.0000  0.0000  0.0000  0.0000  0.0000  0.0000  0.0000 </r>
       </set>
       <set comment="band 7">
        <r>  0.0000  0.0000  0.0709  0.0957  0.0000  0.0000  0.0000  0.0000  0.0000 </r>
        <r>  0.0000  0.0000  0.0709  0.0957  0.0000  0.0000  0.0000  0.0000  0.0000 </r>
       </set>
       <set comment="band 8">
        <r>  0.0000  0.0000  0.0954  0.0707  0.0000  0.0000  0.0000  0.0000  0.0000 </r>
        <r>  0.0000  0.0000  0.0954  0.0708  0.0000  0.0000  0.0000  0.0000  0.0000 </r>
       </set>
      </set>
      <set comment="kpoint 64">
       <set comment="band 1">
        <r>  0.2058  0.0164  0.0000  0.0000  0.0000  0.0000  0.0000  0.0000  0.0000 </r>
        <r>  0.2058  0.0164  0.0000  0.0000  0.0000  0.0000  0.0000  0.0000  0.0000 </r>
       </set>
       <set comment="band 2">
        <r>  0.1672  0.0876  0.0000  0.0000  0.0000  0.0000  0.0000  0.0000  0.0000 </r>
        <r>  0.1672  0.0876  0.0000  0.0000  0.0000  0.0000  0.0000  0.0000  0.0000 </r>
       </set>
       <set comment="band 3">
        <r>  0.0000  0.0000  0.0759  0.1222  0.0000  0.0000  0.0000  0.0000  0.0000 </r>
        <r>  0.0000  0.0000  0.0759  0.1222  0.0000  0.0000  0.0000  0.0000  0.0000 </r>
       </set>
       <set comment="band 4">
        <r>  0.0000  0.0000  0.1220  0.0758  0.0000  0.0000  0.0000  0.0000  0.0000 </r>
        <r>  0.0000  0.0000  0.1220  0.0758  0.0000  0.0000  0.0000  0.0000  0.0000 </r>
       </set>
       <set comment="band 5">
        <r>  0.0476  0.0662  0.0000  0.0000  0.0000  0.0000  0.0000  0.0000  0.0000 </r>
        <r>  0.0476  0.0662  0.0000  0.0000  0.0000  0.0000  0.0000  0.0000  0.0000 </r>
       </set>
       <set comment="band 6">
        <r>  0.0441  0.0339  0.0000  0.0000  0.0000  0.0000  0.0000  0.0000  0.0000 </r>
        <r>  0.0441  0.0339  0.0000  0.0000  0.0000  0.0000  0.0000  0.0000  0.0000 </r>
       </set>
       <set comment="band 7">
        <r>  0.0000  0.0000  0.0689  0.0974  0.0000  0.0000  0.0000  0.0000  0.0000 </r>
        <r>  0.0000  0.0000  0.0689  0.0974  0.0000  0.0000  0.0000  0.0000  0.0000 </r>
       </set>
       <set comment="band 8">
        <r>  0.0000  0.0000  0.0973  0.0688  0.0000  0.0000  0.0000  0.0000  0.0000 </r>
        <r>  0.0000  0.0000  0.0973  0.0688  0.0000  0.0000  0.0000  0.0000  0.0000 </r>
       </set>
      </set>
      <set comment="kpoint 65">
       <set comment="band 1">
        <r>  0.2052  0.0178  0.0000  0.0000  0.0000  0.0000  0.0000  0.0000  0.0000 </r>
        <r>  0.2052  0.0178  0.0000  0.0000  0.0000  0.0000  0.0000  0.0000  0.0000 </r>
       </set>
       <set comment="band 2">
        <r>  0.1699  0.0844  0.0000  0.0000  0.0000  0.0000  0.0000  0.0000  0.0000 </r>
        <r>  0.1699  0.0844  0.0000  0.0000  0.0000  0.0000  0.0000  0.0000  0.0000 </r>
       </set>
       <set comment="band 3">
        <r>  0.0000  0.0000  0.0776  0.1203  0.0000  0.0000  0.0000  0.0000  0.0000 </r>
        <r>  0.0000  0.0000  0.0776  0.1203  0.0000  0.0000  0.0000  0.0000  0.0000 </r>
       </set>
       <set comment="band 4">
        <r>  0.0000  0.0000  0.1202  0.0775  0.0000  0.0000  0.0000  0.0000  0.0000 </r>
        <r>  0.0000  0.0000  0.1202  0.0775  0.0000  0.0000  0.0000  0.0000  0.0000 </r>
       </set>
       <set comment="band 5">
        <r>  0.0487  0.0634  0.0000  0.0000  0.0000  0.0000  0.0000  0.0000  0.0000 </r>
        <r>  0.0487  0.0634  0.0000  0.0000  0.0000  0.0000  0.0000  0.0000  0.0000 </r>
       </set>
       <set comment="band 6">
        <r>  0.0438  0.0330  0.0000  0.0000  0.0000  0.0000  0.0000  0.0000  0.0000 </r>
        <r>  0.0438  0.0330  0.0000  0.0000  0.0000  0.0000  0.0000  0.0000  0.0000 </r>
       </set>
       <set comment="band 7">
        <r>  0.0000  0.0000  0.0670  0.0990  0.0000  0.0000  0.0000  0.0000  0.0000 </r>
        <r>  0.0000  0.0000  0.0670  0.0990  0.0000  0.0000  0.0000  0.0000  0.0000 </r>
       </set>
       <set comment="band 8">
        <r>  0.0000  0.0000  0.0989  0.0670  0.0000  0.0000  0.0000  0.0000  0.0000 </r>
        <r>  0.0000  0.0000  0.0989  0.0670  0.0000  0.0000  0.0000  0.0000  0.0000 </r>
       </set>
      </set>
      <set comment="kpoint 66">
       <set comment="band 1">
        <r>  0.2046  0.0192  0.0000  0.0000  0.0000  0.0000  0.0000  0.0000  0.0000 </r>
        <r>  0.2046  0.0192  0.0000  0.0000  0.0000  0.0000  0.0000  0.0000  0.0000 </r>
       </set>
       <set comment="band 2">
        <r>  0.1724  0.0813  0.0000  0.0000  0.0000  0.0000  0.0000  0.0000  0.0000 </r>
        <r>  0.1724  0.0813  0.0000  0.0000  0.0000  0.0000  0.0000  0.0000  0.0000 </r>
       </set>
       <set comment="band 3">
        <r>  0.0000  0.0000  0.0793  0.1186  0.0000  0.0000  0.0000  0.0000  0.0000 </r>
        <r>  0.0000  0.0000  0.0793  0.1186  0.0000  0.0000  0.0000  0.0000  0.0000 </r>
       </set>
       <set comment="band 4">
        <r>  0.0000  0.0000  0.1185  0.0791  0.0000  0.0000  0.0000  0.0000  0.0000 </r>
        <r>  0.0000  0.0000  0.1185  0.0791  0.0000  0.0000  0.0000  0.0000  0.0000 </r>
       </set>
       <set comment="band 5">
        <r>  0.0496  0.0607  0.0000  0.0000  0.0000  0.0000  0.0000  0.0000  0.0000 </r>
        <r>  0.0496  0.0607  0.0000  0.0000  0.0000  0.0000  0.0000  0.0000  0.0000 </r>
       </set>
       <set comment="band 6">
        <r>  0.0436  0.0323  0.0000  0.0000  0.0000  0.0000  0.0000  0.0000  0.0000 </r>
        <r>  0.0436  0.0323  0.0000  0.0000  0.0000  0.0000  0.0000  0.0000  0.0000 </r>
       </set>
       <set comment="band 7">
        <r>  0.0000  0.0000  0.0653  0.1006  0.0000  0.0000  0.0000  0.0000  0.0000 </r>
        <r>  0.0000  0.0000  0.0653  0.1006  0.0000  0.0000  0.0000  0.0000  0.0000 </r>
       </set>
       <set comment="band 8">
        <r>  0.0000  0.0000  0.1003  0.0653  0.0000  0.0000  0.0000  0.0000  0.0000 </r>
        <r>  0.0000  0.0000  0.1003  0.0654  0.0000  0.0000  0.0000  0.0000  0.0000 </r>
       </set>
      </set>
      <set comment="kpoint 67">
       <set comment="band 1">
        <r>  0.2039  0.0208  0.0000  0.0000  0.0000  0.0000  0.0000  0.0000  0.0000 </r>
        <r>  0.2039  0.0208  0.0000  0.0000  0.0000  0.0000  0.0000  0.0000  0.0000 </r>
       </set>
       <set comment="band 2">
        <r>  0.1747  0.0784  0.0000  0.0000  0.0000  0.0000  0.0000  0.0000  0.0000 </r>
        <r>  0.1747  0.0784  0.0000  0.0000  0.0000  0.0000  0.0000  0.0000  0.0000 </r>
       </set>
       <set comment="band 3">
        <r>  0.0000  0.0000  0.0809  0.1169  0.0000  0.0000  0.0000  0.0000  0.0000 </r>
        <r>  0.0000  0.0000  0.0809  0.1169  0.0000  0.0000  0.0000  0.0000  0.0000 </r>
       </set>
       <set comment="band 4">
        <r>  0.0000  0.0000  0.1168  0.0807  0.0000  0.0000  0.0000  0.0000  0.0000 </r>
        <r>  0.0000  0.0000  0.1168  0.0807  0.0000  0.0000  0.0000  0.0000  0.0000 </r>
       </set>
       <set comment="band 5">
        <r>  0.0505  0.0581  0.0000  0.0000  0.0000  0.0000  0.0000  0.0000  0.0000 </r>
        <r>  0.0505  0.0581  0.0000  0.0000  0.0000  0.0000  0.0000  0.0000  0.0000 </r>
       </set>
       <set comment="band 6">
        <r>  0.0438  0.0317  0.0000  0.0000  0.0000  0.0000  0.0000  0.0000  0.0000 </r>
        <r>  0.0438  0.0317  0.0000  0.0000  0.0000  0.0000  0.0000  0.0000  0.0000 </r>
       </set>
       <set comment="band 7">
        <r>  0.0000  0.0000  0.0637  0.1019  0.0000  0.0000  0.0000  0.0000  0.0000 </r>
        <r>  0.0000  0.0000  0.0637  0.1019  0.0000  0.0000  0.0000  0.0000  0.0000 </r>
       </set>
       <set comment="band 8">
        <r>  0.0000  0.0000  0.1016  0.0638  0.0000  0.0000  0.0000  0.0000  0.0000 </r>
        <r>  0.0000  0.0000  0.1016  0.0639  0.0000  0.0000  0.0000  0.0000  0.0000 </r>
       </set>
      </set>
      <set comment="kpoint 68">
       <set comment="band 1">
        <r>  0.2032  0.0223  0.0000  0.0000  0.0000  0.0000  0.0000  0.0000  0.0000 </r>
        <r>  0.2032  0.0223  0.0000  0.0000  0.0000  0.0000  0.0000  0.0000  0.0000 </r>
       </set>
       <set comment="band 2">
        <r>  0.1768  0.0755  0.0000  0.0000  0.0000  0.0000  0.0000  0.0000  0.0000 </r>
        <r>  0.1768  0.0755  0.0000  0.0000  0.0000  0.0000  0.0000  0.0000  0.0000 </r>
       </set>
       <set comment="band 3">
        <r>  0.0000  0.0000  0.0825  0.1152  0.0000  0.0000  0.0000  0.0000  0.0000 </r>
        <r>  0.0000  0.0000  0.0825  0.1152  0.0000  0.0000  0.0000  0.0000  0.0000 </r>
       </set>
       <set comment="band 4">
        <r>  0.0000  0.0000  0.1152  0.0823  0.0000  0.0000  0.0000  0.0000  0.0000 </r>
        <r>  0.0000  0.0000  0.1152  0.0823  0.0000  0.0000  0.0000  0.0000  0.0000 </r>
       </set>
       <set comment="band 5">
        <r>  0.0512  0.0557  0.0000  0.0000  0.0000  0.0000  0.0000  0.0000  0.0000 </r>
        <r>  0.0512  0.0557  0.0000  0.0000  0.0000  0.0000  0.0000  0.0000  0.0000 </r>
       </set>
       <set comment="band 6">
        <r>  0.0440  0.0313  0.0000  0.0000  0.0000  0.0000  0.0000  0.0000  0.0000 </r>
        <r>  0.0440  0.0313  0.0000  0.0000  0.0000  0.0000  0.0000  0.0000  0.0000 </r>
       </set>
       <set comment="band 7">
        <r>  0.0000  0.0000  0.0623  0.1032  0.0000  0.0000  0.0000  0.0000  0.0000 </r>
        <r>  0.0000  0.0000  0.0623  0.1032  0.0000  0.0000  0.0000  0.0000  0.0000 </r>
       </set>
       <set comment="band 8">
        <r>  0.0000  0.0000  0.1029  0.0625  0.0000  0.0000  0.0000  0.0000  0.0000 </r>
        <r>  0.0000  0.0000  0.1029  0.0625  0.0000  0.0000  0.0000  0.0000  0.0000 </r>
       </set>
      </set>
      <set comment="kpoint 69">
       <set comment="band 1">
        <r>  0.2025  0.0240  0.0000  0.0000  0.0000  0.0000  0.0000  0.0000  0.0000 </r>
        <r>  0.2025  0.0240  0.0000  0.0000  0.0000  0.0000  0.0000  0.0000  0.0000 </r>
       </set>
       <set comment="band 2">
        <r>  0.1788  0.0726  0.0000  0.0000  0.0000  0.0000  0.0000  0.0000  0.0000 </r>
        <r>  0.1788  0.0726  0.0000  0.0000  0.0000  0.0000  0.0000  0.0000  0.0000 </r>
       </set>
       <set comment="band 3">
        <r>  0.0000  0.0000  0.0840  0.1136  0.0000  0.0000  0.0000  0.0000  0.0000 </r>
        <r>  0.0000  0.0000  0.0840  0.1136  0.0000  0.0000  0.0000  0.0000  0.0000 </r>
       </set>
       <set comment="band 4">
        <r>  0.0000  0.0000  0.1136  0.0838  0.0000  0.0000  0.0000  0.0000  0.0000 </r>
        <r>  0.0000  0.0000  0.1136  0.0838  0.0000  0.0000  0.0000  0.0000  0.0000 </r>
       </set>
       <set comment="band 5">
        <r>  0.0518  0.0533  0.0000  0.0000  0.0000  0.0000  0.0000  0.0000  0.0000 </r>
        <r>  0.0518  0.0533  0.0000  0.0000  0.0000  0.0000  0.0000  0.0000  0.0000 </r>
       </set>
       <set comment="band 6">
        <r>  0.0445  0.0310  0.0000  0.0000  0.0000  0.0000  0.0000  0.0000  0.0000 </r>
        <r>  0.0445  0.0310  0.0000  0.0000  0.0000  0.0000  0.0000  0.0000  0.0000 </r>
       </set>
       <set comment="band 7">
        <r>  0.0000  0.0000  0.0611  0.1044  0.0000  0.0000  0.0000  0.0000  0.0000 </r>
        <r>  0.0000  0.0000  0.0611  0.1044  0.0000  0.0000  0.0000  0.0000  0.0000 </r>
       </set>
       <set comment="band 8">
        <r>  0.0000  0.0000  0.1042  0.0614  0.0000  0.0000  0.0000  0.0000  0.0000 </r>
        <r>  0.0000  0.0000  0.1042  0.0614  0.0000  0.0000  0.0000  0.0000  0.0000 </r>
       </set>
      </set>
      <set comment="kpoint 70">
       <set comment="band 1">
        <r>  0.2018  0.0256  0.0000  0.0000  0.0000  0.0000  0.0000  0.0000  0.0000 </r>
        <r>  0.2018  0.0256  0.0000  0.0000  0.0000  0.0000  0.0000  0.0000  0.0000 </r>
       </set>
       <set comment="band 2">
        <r>  0.1806  0.0699  0.0000  0.0000  0.0000  0.0000  0.0000  0.0000  0.0000 </r>
        <r>  0.1806  0.0699  0.0000  0.0000  0.0000  0.0000  0.0000  0.0000  0.0000 </r>
       </set>
       <set comment="band 3">
        <r>  0.0000  0.0000  0.0855  0.1121  0.0000  0.0000  0.0000  0.0000  0.0000 </r>
        <r>  0.0000  0.0000  0.0855  0.1121  0.0000  0.0000  0.0000  0.0000  0.0000 </r>
       </set>
       <set comment="band 4">
        <r>  0.0000  0.0000  0.1121  0.0852  0.0000  0.0000  0.0000  0.0000  0.0000 </r>
        <r>  0.0000  0.0000  0.1121  0.0852  0.0000  0.0000  0.0000  0.0000  0.0000 </r>
       </set>
       <set comment="band 5">
        <r>  0.0523  0.0511  0.0000  0.0000  0.0000  0.0000  0.0000  0.0000  0.0000 </r>
        <r>  0.0523  0.0511  0.0000  0.0000  0.0000  0.0000  0.0000  0.0000  0.0000 </r>
       </set>
       <set comment="band 6">
        <r>  0.0450  0.0309  0.0000  0.0000  0.0000  0.0000  0.0000  0.0000  0.0000 </r>
        <r>  0.0450  0.0309  0.0000  0.0000  0.0000  0.0000  0.0000  0.0000  0.0000 </r>
       </set>
       <set comment="band 7">
        <r>  0.0000  0.0000  0.0601  0.1054  0.0000  0.0000  0.0000  0.0000  0.0000 </r>
        <r>  0.0000  0.0000  0.0601  0.1054  0.0000  0.0000  0.0000  0.0000  0.0000 </r>
       </set>
       <set comment="band 8">
        <r>  0.0000  0.0000  0.1052  0.0606  0.0000  0.0000  0.0000  0.0000  0.0000 </r>
        <r>  0.0000  0.0000  0.1052  0.0605  0.0000  0.0000  0.0000  0.0000  0.0000 </r>
       </set>
      </set>
      <set comment="kpoint 71">
       <set comment="band 1">
        <r>  0.2011  0.0274  0.0000  0.0000  0.0000  0.0000  0.0000  0.0000  0.0000 </r>
        <r>  0.2011  0.0274  0.0000  0.0000  0.0000  0.0000  0.0000  0.0000  0.0000 </r>
       </set>
       <set comment="band 2">
        <r>  0.1823  0.0672  0.0000  0.0000  0.0000  0.0000  0.0000  0.0000  0.0000 </r>
        <r>  0.1823  0.0672  0.0000  0.0000  0.0000  0.0000  0.0000  0.0000  0.0000 </r>
       </set>
       <set comment="band 3">
        <r>  0.0000  0.0000  0.0869  0.1106  0.0000  0.0000  0.0000  0.0000  0.0000 </r>
        <r>  0.0000  0.0000  0.0869  0.1106  0.0000  0.0000  0.0000  0.0000  0.0000 </r>
       </set>
       <set comment="band 4">
        <r>  0.0000  0.0000  0.1107  0.0867  0.0000  0.0000  0.0000  0.0000  0.0000 </r>
        <r>  0.0000  0.0000  0.1107  0.0867  0.0000  0.0000  0.0000  0.0000  0.0000 </r>
       </set>
       <set comment="band 5">
        <r>  0.0527  0.0491  0.0000  0.0000  0.0000  0.0000  0.0000  0.0000  0.0000 </r>
        <r>  0.0527  0.0491  0.0000  0.0000  0.0000  0.0000  0.0000  0.0000  0.0000 </r>
       </set>
       <set comment="band 6">
        <r>  0.0456  0.0308  0.0000  0.0000  0.0000  0.0000  0.0000  0.0000  0.0000 </r>
        <r>  0.0456  0.0308  0.0000  0.0000  0.0000  0.0000  0.0000  0.0000  0.0000 </r>
       </set>
       <set comment="band 7">
        <r>  0.0000  0.0000  0.0594  0.1063  0.0000  0.0000  0.0000  0.0000  0.0000 </r>
        <r>  0.0000  0.0000  0.0593  0.1064  0.0000  0.0000  0.0000  0.0000  0.0000 </r>
       </set>
       <set comment="band 8">
        <r>  0.0000  0.0000  0.1063  0.0599  0.0000  0.0000  0.0000  0.0000  0.0000 </r>
        <r>  0.0000  0.0000  0.1062  0.0599  0.0000  0.0000  0.0000  0.0000  0.0000 </r>
       </set>
      </set>
      <set comment="kpoint 72">
       <set comment="band 1">
        <r>  0.2004  0.0292  0.0000  0.0000  0.0000  0.0000  0.0000  0.0000  0.0000 </r>
        <r>  0.2004  0.0292  0.0000  0.0000  0.0000  0.0000  0.0000  0.0000  0.0000 </r>
       </set>
       <set comment="band 2">
        <r>  0.1839  0.0645  0.0000  0.0000  0.0000  0.0000  0.0000  0.0000  0.0000 </r>
        <r>  0.1839  0.0645  0.0000  0.0000  0.0000  0.0000  0.0000  0.0000  0.0000 </r>
       </set>
       <set comment="band 3">
        <r>  0.0000  0.0000  0.0883  0.1092  0.0000  0.0000  0.0000  0.0000  0.0000 </r>
        <r>  0.0000  0.0000  0.0883  0.1092  0.0000  0.0000  0.0000  0.0000  0.0000 </r>
       </set>
       <set comment="band 4">
        <r>  0.0000  0.0000  0.1093  0.0881  0.0000  0.0000  0.0000  0.0000  0.0000 </r>
        <r>  0.0000  0.0000  0.1093  0.0881  0.0000  0.0000  0.0000  0.0000  0.0000 </r>
       </set>
       <set comment="band 5">
        <r>  0.0529  0.0472  0.0000  0.0000  0.0000  0.0000  0.0000  0.0000  0.0000 </r>
        <r>  0.0529  0.0472  0.0000  0.0000  0.0000  0.0000  0.0000  0.0000  0.0000 </r>
       </set>
       <set comment="band 6">
        <r>  0.0463  0.0309  0.0000  0.0000  0.0000  0.0000  0.0000  0.0000  0.0000 </r>
        <r>  0.0463  0.0309  0.0000  0.0000  0.0000  0.0000  0.0000  0.0000  0.0000 </r>
       </set>
       <set comment="band 7">
        <r>  0.0000  0.0000  0.0592  0.1074  0.0000  0.0000  0.0000  0.0000  0.0000 </r>
        <r>  0.0000  0.0000  0.0592  0.1074  0.0000  0.0000  0.0000  0.0000  0.0000 </r>
       </set>
       <set comment="band 8">
        <r>  0.0000  0.0000  0.1073  0.0598  0.0000  0.0000  0.0000  0.0000  0.0000 </r>
        <r>  0.0000  0.0000  0.1073  0.0598  0.0000  0.0000  0.0000  0.0000  0.0000 </r>
       </set>
      </set>
      <set comment="kpoint 73">
       <set comment="band 1">
        <r>  0.1996  0.0310  0.0000  0.0000  0.0000  0.0000  0.0000  0.0000  0.0000 </r>
        <r>  0.1996  0.0310  0.0000  0.0000  0.0000  0.0000  0.0000  0.0000  0.0000 </r>
       </set>
       <set comment="band 2">
        <r>  0.1854  0.0619  0.0000  0.0000  0.0000  0.0000  0.0000  0.0000  0.0000 </r>
        <r>  0.1854  0.0619  0.0000  0.0000  0.0000  0.0000  0.0000  0.0000  0.0000 </r>
       </set>
       <set comment="band 3">
        <r>  0.0000  0.0000  0.0896  0.1078  0.0000  0.0000  0.0000  0.0000  0.0000 </r>
        <r>  0.0000  0.0000  0.0896  0.1078  0.0000  0.0000  0.0000  0.0000  0.0000 </r>
       </set>
       <set comment="band 4">
        <r>  0.0000  0.0000  0.1079  0.0894  0.0000  0.0000  0.0000  0.0000  0.0000 </r>
        <r>  0.0000  0.0000  0.1079  0.0894  0.0000  0.0000  0.0000  0.0000  0.0000 </r>
       </set>
       <set comment="band 5">
        <r>  0.0530  0.0453  0.0000  0.0000  0.0000  0.0000  0.0000  0.0000  0.0000 </r>
        <r>  0.0530  0.0453  0.0000  0.0000  0.0000  0.0000  0.0000  0.0000  0.0000 </r>
       </set>
       <set comment="band 6">
        <r>  0.0470  0.0311  0.0000  0.0000  0.0000  0.0000  0.0000  0.0000  0.0000 </r>
        <r>  0.0470  0.0311  0.0000  0.0000  0.0000  0.0000  0.0000  0.0000  0.0000 </r>
       </set>
       <set comment="band 7">
        <r>  0.0000  0.0000  0.0593  0.1085  0.0000  0.0000  0.0000  0.0000  0.0000 </r>
        <r>  0.0000  0.0000  0.0594  0.1084  0.0000  0.0000  0.0000  0.0000  0.0000 </r>
       </set>
       <set comment="band 8">
        <r>  0.0000  0.0000  0.1087  0.0603  0.0000  0.0000  0.0000  0.0000  0.0000 </r>
        <r>  0.0000  0.0000  0.1086  0.0604  0.0000  0.0000  0.0000  0.0000  0.0000 </r>
       </set>
      </set>
      <set comment="kpoint 74">
       <set comment="band 1">
        <r>  0.1989  0.0329  0.0000  0.0000  0.0000  0.0000  0.0000  0.0000  0.0000 </r>
        <r>  0.1989  0.0329  0.0000  0.0000  0.0000  0.0000  0.0000  0.0000  0.0000 </r>
       </set>
       <set comment="band 2">
        <r>  0.1867  0.0594  0.0000  0.0000  0.0000  0.0000  0.0000  0.0000  0.0000 </r>
        <r>  0.1867  0.0594  0.0000  0.0000  0.0000  0.0000  0.0000  0.0000  0.0000 </r>
       </set>
       <set comment="band 3">
        <r>  0.0000  0.0000  0.0910  0.1064  0.0000  0.0000  0.0000  0.0000  0.0000 </r>
        <r>  0.0000  0.0000  0.0910  0.1064  0.0000  0.0000  0.0000  0.0000  0.0000 </r>
       </set>
       <set comment="band 4">
        <r>  0.0000  0.0000  0.1065  0.0907  0.0000  0.0000  0.0000  0.0000  0.0000 </r>
        <r>  0.0000  0.0000  0.1065  0.0907  0.0000  0.0000  0.0000  0.0000  0.0000 </r>
       </set>
       <set comment="band 5">
        <r>  0.0531  0.0436  0.0000  0.0000  0.0000  0.0000  0.0000  0.0000  0.0000 </r>
        <r>  0.0531  0.0436  0.0000  0.0000  0.0000  0.0000  0.0000  0.0000  0.0000 </r>
       </set>
       <set comment="band 6">
        <r>  0.0477  0.0314  0.0000  0.0000  0.0000  0.0000  0.0000  0.0000  0.0000 </r>
        <r>  0.0477  0.0314  0.0000  0.0000  0.0000  0.0000  0.0000  0.0000  0.0000 </r>
       </set>
       <set comment="band 7">
        <r>  0.0000  0.0000  0.0600  0.1097  0.0000  0.0000  0.0000  0.0000  0.0000 </r>
        <r>  0.0000  0.0000  0.0601  0.1097  0.0000  0.0000  0.0000  0.0000  0.0000 </r>
       </set>
       <set comment="band 8">
        <r>  0.0000  0.0000  0.1102  0.0613  0.0000  0.0000  0.0000  0.0000  0.0000 </r>
        <r>  0.0000  0.0000  0.1102  0.0614  0.0000  0.0000  0.0000  0.0000  0.0000 </r>
       </set>
      </set>
      <set comment="kpoint 75">
       <set comment="band 1">
        <r>  0.1980  0.0349  0.0000  0.0000  0.0000  0.0000  0.0000  0.0000  0.0000 </r>
        <r>  0.1980  0.0349  0.0000  0.0000  0.0000  0.0000  0.0000  0.0000  0.0000 </r>
       </set>
       <set comment="band 2">
        <r>  0.1880  0.0569  0.0000  0.0000  0.0000  0.0000  0.0000  0.0000  0.0000 </r>
        <r>  0.1880  0.0569  0.0000  0.0000  0.0000  0.0000  0.0000  0.0000  0.0000 </r>
       </set>
       <set comment="band 3">
        <r>  0.0000  0.0000  0.0923  0.1051  0.0000  0.0000  0.0000  0.0000  0.0000 </r>
        <r>  0.0000  0.0000  0.0923  0.1051  0.0000  0.0000  0.0000  0.0000  0.0000 </r>
       </set>
       <set comment="band 4">
        <r>  0.0000  0.0000  0.1052  0.0921  0.0000  0.0000  0.0000  0.0000  0.0000 </r>
        <r>  0.0000  0.0000  0.1052  0.0921  0.0000  0.0000  0.0000  0.0000  0.0000 </r>
       </set>
       <set comment="band 5">
        <r>  0.0531  0.0420  0.0000  0.0000  0.0000  0.0000  0.0000  0.0000  0.0000 </r>
        <r>  0.0531  0.0420  0.0000  0.0000  0.0000  0.0000  0.0000  0.0000  0.0000 </r>
       </set>
       <set comment="band 6">
        <r>  0.0484  0.0318  0.0000  0.0000  0.0000  0.0000  0.0000  0.0000  0.0000 </r>
        <r>  0.0484  0.0318  0.0000  0.0000  0.0000  0.0000  0.0000  0.0000  0.0000 </r>
       </set>
       <set comment="band 7">
        <r>  0.0000  0.0000  0.0617  0.1115  0.0000  0.0000  0.0000  0.0000  0.0000 </r>
        <r>  0.0000  0.0000  0.0616  0.1115  0.0000  0.0000  0.0000  0.0000  0.0000 </r>
       </set>
       <set comment="band 8">
        <r>  0.0000  0.0000  0.1120  0.0636  0.0000  0.0000  0.0000  0.0000  0.0000 </r>
        <r>  0.0000  0.0000  0.1121  0.0634  0.0000  0.0000  0.0000  0.0000  0.0000 </r>
       </set>
      </set>
      <set comment="kpoint 76">
       <set comment="band 1">
        <r>  0.1972  0.0368  0.0000  0.0000  0.0000  0.0000  0.0000  0.0000  0.0000 </r>
        <r>  0.1972  0.0368  0.0000  0.0000  0.0000  0.0000  0.0000  0.0000  0.0000 </r>
       </set>
       <set comment="band 2">
        <r>  0.1893  0.0545  0.0000  0.0000  0.0000  0.0000  0.0000  0.0000  0.0000 </r>
        <r>  0.1893  0.0545  0.0000  0.0000  0.0000  0.0000  0.0000  0.0000  0.0000 </r>
       </set>
       <set comment="band 3">
        <r>  0.0000  0.0000  0.0936  0.1038  0.0000  0.0000  0.0000  0.0000  0.0000 </r>
        <r>  0.0000  0.0000  0.0936  0.1038  0.0000  0.0000  0.0000  0.0000  0.0000 </r>
       </set>
       <set comment="band 4">
        <r>  0.0000  0.0000  0.1039  0.0934  0.0000  0.0000  0.0000  0.0000  0.0000 </r>
        <r>  0.0000  0.0000  0.1039  0.0934  0.0000  0.0000  0.0000  0.0000  0.0000 </r>
       </set>
       <set comment="band 5">
        <r>  0.0529  0.0405  0.0000  0.0000  0.0000  0.0000  0.0000  0.0000  0.0000 </r>
        <r>  0.0529  0.0405  0.0000  0.0000  0.0000  0.0000  0.0000  0.0000  0.0000 </r>
       </set>
       <set comment="band 6">
        <r>  0.0491  0.0323  0.0000  0.0000  0.0000  0.0000  0.0000  0.0000  0.0000 </r>
        <r>  0.0491  0.0323  0.0000  0.0000  0.0000  0.0000  0.0000  0.0000  0.0000 </r>
       </set>
       <set comment="band 7">
        <r>  0.0000  0.0000  0.0645  0.1136  0.0000  0.0000  0.0000  0.0000  0.0000 </r>
        <r>  0.0000  0.0000  0.0645  0.1136  0.0000  0.0000  0.0000  0.0000  0.0000 </r>
       </set>
       <set comment="band 8">
        <r>  0.0000  0.0000  0.1147  0.0673  0.0000  0.0000  0.0000  0.0000  0.0000 </r>
        <r>  0.0000  0.0000  0.1147  0.0672  0.0000  0.0000  0.0000  0.0000  0.0000 </r>
       </set>
      </set>
      <set comment="kpoint 77">
       <set comment="band 1">
        <r>  0.1963  0.0389  0.0000  0.0000  0.0000  0.0000  0.0000  0.0000  0.0000 </r>
        <r>  0.1963  0.0389  0.0000  0.0000  0.0000  0.0000  0.0000  0.0000  0.0000 </r>
       </set>
       <set comment="band 2">
        <r>  0.1904  0.0521  0.0000  0.0000  0.0000  0.0000  0.0000  0.0000  0.0000 </r>
        <r>  0.1904  0.0521  0.0000  0.0000  0.0000  0.0000  0.0000  0.0000  0.0000 </r>
       </set>
       <set comment="band 3">
        <r>  0.0000  0.0000  0.0949  0.1025  0.0000  0.0000  0.0000  0.0000  0.0000 </r>
        <r>  0.0000  0.0000  0.0949  0.1025  0.0000  0.0000  0.0000  0.0000  0.0000 </r>
       </set>
       <set comment="band 4">
        <r>  0.0000  0.0000  0.1026  0.0947  0.0000  0.0000  0.0000  0.0000  0.0000 </r>
        <r>  0.0000  0.0000  0.1026  0.0947  0.0000  0.0000  0.0000  0.0000  0.0000 </r>
       </set>
       <set comment="band 5">
        <r>  0.0527  0.0391  0.0000  0.0000  0.0000  0.0000  0.0000  0.0000  0.0000 </r>
        <r>  0.0527  0.0391  0.0000  0.0000  0.0000  0.0000  0.0000  0.0000  0.0000 </r>
       </set>
       <set comment="band 6">
        <r>  0.0498  0.0330  0.0000  0.0000  0.0000  0.0000  0.0000  0.0000  0.0000 </r>
        <r>  0.0498  0.0330  0.0000  0.0000  0.0000  0.0000  0.0000  0.0000  0.0000 </r>
       </set>
       <set comment="band 7">
        <r>  0.0000  0.0000  0.0697  0.1168  0.0000  0.0000  0.0000  0.0000  0.0000 </r>
        <r>  0.0000  0.0000  0.0697  0.1168  0.0000  0.0000  0.0000  0.0000  0.0000 </r>
       </set>
       <set comment="band 8">
        <r>  0.0000  0.0000  0.1183  0.0740  0.0000  0.0000  0.0000  0.0000  0.0000 </r>
        <r>  0.0000  0.0000  0.1185  0.0739  0.0000  0.0000  0.0000  0.0000  0.0000 </r>
       </set>
      </set>
      <set comment="kpoint 78">
       <set comment="band 1">
        <r>  0.1954  0.0410  0.0000  0.0000  0.0000  0.0000  0.0000  0.0000  0.0000 </r>
        <r>  0.1954  0.0410  0.0000  0.0000  0.0000  0.0000  0.0000  0.0000  0.0000 </r>
       </set>
       <set comment="band 2">
        <r>  0.1915  0.0498  0.0000  0.0000  0.0000  0.0000  0.0000  0.0000  0.0000 </r>
        <r>  0.1915  0.0498  0.0000  0.0000  0.0000  0.0000  0.0000  0.0000  0.0000 </r>
       </set>
       <set comment="band 3">
        <r>  0.0000  0.0000  0.0962  0.1012  0.0000  0.0000  0.0000  0.0000  0.0000 </r>
        <r>  0.0000  0.0000  0.0962  0.1012  0.0000  0.0000  0.0000  0.0000  0.0000 </r>
       </set>
       <set comment="band 4">
        <r>  0.0000  0.0000  0.1013  0.0960  0.0000  0.0000  0.0000  0.0000  0.0000 </r>
        <r>  0.0000  0.0000  0.1013  0.0960  0.0000  0.0000  0.0000  0.0000  0.0000 </r>
       </set>
       <set comment="band 5">
        <r>  0.0524  0.0378  0.0000  0.0000  0.0000  0.0000  0.0000  0.0000  0.0000 </r>
        <r>  0.0524  0.0378  0.0000  0.0000  0.0000  0.0000  0.0000  0.0000  0.0000 </r>
       </set>
       <set comment="band 6">
        <r>  0.0505  0.0337  0.0000  0.0000  0.0000  0.0000  0.0000  0.0000  0.0000 </r>
        <r>  0.0505  0.0337  0.0000  0.0000  0.0000  0.0000  0.0000  0.0000  0.0000 </r>
       </set>
       <set comment="band 7">
        <r>  0.0000  0.0000  0.0783  0.1204  0.0000  0.0000  0.0000  0.0000  0.0000 </r>
        <r>  0.0000  0.0000  0.0781  0.1213  0.0000  0.0000  0.0000  0.0000  0.0000 </r>
       </set>
       <set comment="band 8">
        <r>  0.0000  0.0000  0.1235  0.0857  0.0000  0.0000  0.0000  0.0000  0.0000 </r>
        <r>  0.0000  0.0000  0.1230  0.0858  0.0000  0.0000  0.0000  0.0000  0.0000 </r>
       </set>
      </set>
      <set comment="kpoint 79">
       <set comment="band 1">
        <r>  0.1945  0.0431  0.0000  0.0000  0.0000  0.0000  0.0000  0.0000  0.0000 </r>
        <r>  0.1945  0.0431  0.0000  0.0000  0.0000  0.0000  0.0000  0.0000  0.0000 </r>
       </set>
       <set comment="band 2">
        <r>  0.1925  0.0475  0.0000  0.0000  0.0000  0.0000  0.0000  0.0000  0.0000 </r>
        <r>  0.1925  0.0475  0.0000  0.0000  0.0000  0.0000  0.0000  0.0000  0.0000 </r>
       </set>
       <set comment="band 3">
        <r>  0.0000  0.0000  0.0975  0.0999  0.0000  0.0000  0.0000  0.0000  0.0000 </r>
        <r>  0.0000  0.0000  0.0975  0.0999  0.0000  0.0000  0.0000  0.0000  0.0000 </r>
       </set>
       <set comment="band 4">
        <r>  0.0000  0.0000  0.1000  0.0973  0.0000  0.0000  0.0000  0.0000  0.0000 </r>
        <r>  0.0000  0.0000  0.1000  0.0973  0.0000  0.0000  0.0000  0.0000  0.0000 </r>
       </set>
       <set comment="band 5">
        <r>  0.0520  0.0366  0.0000  0.0000  0.0000  0.0000  0.0000  0.0000  0.0000 </r>
        <r>  0.0520  0.0366  0.0000  0.0000  0.0000  0.0000  0.0000  0.0000  0.0000 </r>
       </set>
       <set comment="band 6">
        <r>  0.0510  0.0346  0.0000  0.0000  0.0000  0.0000  0.0000  0.0000  0.0000 </r>
        <r>  0.0510  0.0346  0.0000  0.0000  0.0000  0.0000  0.0000  0.0000  0.0000 </r>
       </set>
       <set comment="band 7">
        <r>  0.0000  0.0000  0.0952  0.1258  0.0000  0.0000  0.0000  0.0000  0.0000 </r>
        <r>  0.0000  0.0000  0.0941  0.1257  0.0000  0.0000  0.0000  0.0000  0.0000 </r>
       </set>
       <set comment="band 8">
        <r>  0.0000  0.0000  0.1254  0.1072  0.0000  0.0000  0.0000  0.0000  0.0000 </r>
        <r>  0.0000  0.0000  0.1270  0.1059  0.0000  0.0000  0.0000  0.0000  0.0000 </r>
       </set>
      </set>
      <set comment="kpoint 80">
       <set comment="band 1">
        <r>  0.3870  0.0000  0.0000  0.0000  0.0000  0.0000  0.0000  0.0000  0.0000 </r>
        <r>  0.0001  0.0905  0.0000  0.0000  0.0000  0.0000  0.0000  0.0000  0.0000 </r>
       </set>
       <set comment="band 2">
        <r>  0.0001  0.0905  0.0000  0.0000  0.0000  0.0000  0.0000  0.0000  0.0000 </r>
        <r>  0.3870  0.0000  0.0000  0.0000  0.0000  0.0000  0.0000  0.0000  0.0000 </r>
       </set>
       <set comment="band 3">
        <r>  0.0000  0.0000  0.1076  0.0898  0.0000  0.0000  0.0000  0.0000  0.0000 </r>
        <r>  0.0000  0.0000  0.0900  0.1073  0.0000  0.0000  0.0000  0.0000  0.0000 </r>
       </set>
       <set comment="band 4">
        <r>  0.0000  0.0000  0.0900  0.1073  0.0000  0.0000  0.0000  0.0000  0.0000 </r>
        <r>  0.0000  0.0000  0.1076  0.0898  0.0000  0.0000  0.0000  0.0000  0.0000 </r>
       </set>
       <set comment="band 5">
        <r>  0.0356  0.0465  0.0000  0.0000  0.0000  0.0000  0.0000  0.0000  0.0000 </r>
        <r>  0.0675  0.0245  0.0000  0.0000  0.0000  0.0000  0.0000  0.0000  0.0000 </r>
       </set>
       <set comment="band 6">
        <r>  0.0675  0.0245  0.0000  0.0000  0.0000  0.0000  0.0000  0.0000  0.0000 </r>
        <r>  0.0356  0.0465  0.0000  0.0000  0.0000  0.0000  0.0000  0.0000  0.0000 </r>
       </set>
       <set comment="band 7">
        <r>  0.0000  0.0000  0.0965  0.1440  0.0000  0.0000  0.0000  0.0000  0.0000 </r>
        <r>  0.0000  0.0000  0.1342  0.1026  0.0000  0.0000  0.0000  0.0000  0.0000 </r>
       </set>
       <set comment="band 8">
        <r>  0.0000  0.0000  0.1336  0.1044  0.0000  0.0000  0.0000  0.0000  0.0000 </r>
        <r>  0.0000  0.0000  0.0920  0.1433  0.0000  0.0000  0.0000  0.0000  0.0000 </r>
       </set>
      </set>
     </set>
    </set>
   </array>
  </projected>
 </calculation>
 <structure name="finalpos" >
  <crystal>
   <varray name="basis" >
    <v>       0.00000000       2.71500000       2.71500000 </v>
    <v>       2.72857500       0.00000000       2.71500000 </v>
    <v>       2.72857500       2.71500000       0.00000000 </v>
   </varray>
   <i name="volume">     40.22588051 </i>
   <varray name="rec_basis" >
    <v>      -0.18324583       0.18416206       0.18416206 </v>
    <v>       0.18324583      -0.18416206       0.18416206 </v>
    <v>       0.18324583       0.18416206      -0.18416206 </v>
   </varray>
  </crystal>
  <varray name="positions" >
   <v>       0.00000000       0.00000000       0.00000000 </v>
   <v>       0.25000000       0.25000000       0.25000000 </v>
  </varray>
 </structure>
</modeling>
