       N       E                     dE             d eps       ncg     rms          rms(c)
DAV:   1     0.904560824557E+01    0.90456E+01   -0.25017E+03  1288   0.503E+02
DAV:   2    -0.523376548556E+01   -0.14279E+02   -0.13466E+02  2104   0.669E+01
DAV:   3    -0.542160223293E+01   -0.18784E+00   -0.18784E+00  1664   0.964E+00
DAV:   4    -0.542229946061E+01   -0.69723E-03   -0.69723E-03  2040   0.596E-01
DAV:   5    -0.542230109416E+01   -0.16336E-05   -0.16336E-05  1640   0.189E-02
DAV:   6    -0.542230112206E+01   -0.27895E-07   -0.27895E-07  1456   0.188E-03
   1 F= -.54223011E+01 E0= -.54223011E+01  d E =-.361616E-13
