<?xml version="1.0" encoding="ISO-8859-1"?>
<modeling>
 <generator>
  <i name="program" type="string">vasp </i>
  <i name="version" type="string">6.3.0  </i>
  <i name="subversion" type="string">20Jan22 (build Mar 29 2022 17:59:55) complex                          parallel </i>
  <i name="platform" type="string">IFC91_ompi </i>
  <i name="date" type="string">2026 07 23 </i>
  <i name="time" type="string">12:37:31 </i>
 </generator>
 <incar>
  <i type="int" name="ISTART">     0</i>
  <i type="string" name="PREC">Accurate</i>
  <i type="int" name="ICHARG">    11</i>
  <i type="int" name="ISYM">     0</i>
  <i name="ENCUT">    320.00000000</i>
  <i type="int" name="ISMEAR">     0</i>
  <i name="SIGMA">      0.05000000</i>
  <i type="int" name="LORBIT">    11</i>
  <i type="string" name="GGA">PE</i>
 </incar>
 <primitive_cell>
  <structure name="primitive_cell" >
   <crystal>
    <varray name="basis" >
     <v>       0.00000000       2.71500000       2.71500000 </v>
     <v>       2.68785000       0.00000000       2.71500000 </v>
     <v>       2.68785000       2.71500000       0.00000000 </v>
    </varray>
    <i name="volume">     39.62549423 </i>
    <varray name="rec_basis" >
     <v>      -0.18602229       0.18416206       0.18416206 </v>
     <v>       0.18602229      -0.18416206       0.18416206 </v>
     <v>       0.18602229       0.18416206      -0.18416206 </v>
    </varray>
   </crystal>
   <varray name="positions" >
    <v>       0.00000000       0.00000000       0.00000000 </v>
    <v>       0.25000000       0.25000000       0.25000000 </v>
   </varray>
  </structure>
  <varray name="primitive_index" >
   <v type="int" >        1 </v>
   <v type="int" >        2 </v>
  </varray>
 </primitive_cell>
 <kpoints>
  <generation param="listgenerated">
   <i name="divisions" type="int">      40 </i>
   <v>       0.00000000       0.50000000       0.50000000 </v>
   <v>       0.00000000       0.00000000       0.00000000 </v>
   <v>       0.50000000       0.00000000       0.50000000 </v>
  </generation>
  <varray name="kpointlist" >
   <v>       0.00000000       0.50000000       0.50000000 </v>
   <v>       0.00000000       0.48717949       0.48717949 </v>
   <v>       0.00000000       0.47435897       0.47435897 </v>
   <v>       0.00000000       0.46153846       0.46153846 </v>
   <v>       0.00000000       0.44871795       0.44871795 </v>
   <v>       0.00000000       0.43589744       0.43589744 </v>
   <v>       0.00000000       0.42307692       0.42307692 </v>
   <v>       0.00000000       0.41025641       0.41025641 </v>
   <v>       0.00000000       0.39743590       0.39743590 </v>
   <v>       0.00000000       0.38461538       0.38461538 </v>
   <v>       0.00000000       0.37179487       0.37179487 </v>
   <v>       0.00000000       0.35897436       0.35897436 </v>
   <v>       0.00000000       0.34615385       0.34615385 </v>
   <v>       0.00000000       0.33333333       0.33333333 </v>
   <v>       0.00000000       0.32051282       0.32051282 </v>
   <v>       0.00000000       0.30769231       0.30769231 </v>
   <v>       0.00000000       0.29487179       0.29487179 </v>
   <v>       0.00000000       0.28205128       0.28205128 </v>
   <v>       0.00000000       0.26923077       0.26923077 </v>
   <v>       0.00000000       0.25641026       0.25641026 </v>
   <v>       0.00000000       0.24358974       0.24358974 </v>
   <v>       0.00000000       0.23076923       0.23076923 </v>
   <v>       0.00000000       0.21794872       0.21794872 </v>
   <v>       0.00000000       0.20512821       0.20512821 </v>
   <v>       0.00000000       0.19230769       0.19230769 </v>
   <v>       0.00000000       0.17948718       0.17948718 </v>
   <v>       0.00000000       0.16666667       0.16666667 </v>
   <v>       0.00000000       0.15384615       0.15384615 </v>
   <v>       0.00000000       0.14102564       0.14102564 </v>
   <v>       0.00000000       0.12820513       0.12820513 </v>
   <v>       0.00000000       0.11538462       0.11538462 </v>
   <v>       0.00000000       0.10256410       0.10256410 </v>
   <v>       0.00000000       0.08974359       0.08974359 </v>
   <v>       0.00000000       0.07692308       0.07692308 </v>
   <v>       0.00000000       0.06410256       0.06410256 </v>
   <v>       0.00000000       0.05128205       0.05128205 </v>
   <v>       0.00000000       0.03846154       0.03846154 </v>
   <v>       0.00000000       0.02564103       0.02564103 </v>
   <v>       0.00000000       0.01282051       0.01282051 </v>
   <v>       0.00000000       0.00000000       0.00000000 </v>
   <v>       0.00000000       0.00000000       0.00000000 </v>
   <v>       0.01282051       0.00000000       0.01282051 </v>
   <v>       0.02564103       0.00000000       0.02564103 </v>
   <v>       0.03846154       0.00000000       0.03846154 </v>
   <v>       0.05128205       0.00000000       0.05128205 </v>
   <v>       0.06410256       0.00000000       0.06410256 </v>
   <v>       0.07692308       0.00000000       0.07692308 </v>
   <v>       0.08974359       0.00000000       0.08974359 </v>
   <v>       0.10256410       0.00000000       0.10256410 </v>
   <v>       0.11538462       0.00000000       0.11538462 </v>
   <v>       0.12820513       0.00000000       0.12820513 </v>
   <v>       0.14102564       0.00000000       0.14102564 </v>
   <v>       0.15384615       0.00000000       0.15384615 </v>
   <v>       0.16666667       0.00000000       0.16666667 </v>
   <v>       0.17948718       0.00000000       0.17948718 </v>
   <v>       0.19230769       0.00000000       0.19230769 </v>
   <v>       0.20512821       0.00000000       0.20512821 </v>
   <v>       0.21794872       0.00000000       0.21794872 </v>
   <v>       0.23076923       0.00000000       0.23076923 </v>
   <v>       0.24358974       0.00000000       0.24358974 </v>
   <v>       0.25641026       0.00000000       0.25641026 </v>
   <v>       0.26923077       0.00000000       0.26923077 </v>
   <v>       0.28205128       0.00000000       0.28205128 </v>
   <v>       0.29487179       0.00000000       0.29487179 </v>
   <v>       0.30769231       0.00000000       0.30769231 </v>
   <v>       0.32051282       0.00000000       0.32051282 </v>
   <v>       0.33333333       0.00000000       0.33333333 </v>
   <v>       0.34615385       0.00000000       0.34615385 </v>
   <v>       0.35897436       0.00000000       0.35897436 </v>
   <v>       0.37179487       0.00000000       0.37179487 </v>
   <v>       0.38461538       0.00000000       0.38461538 </v>
   <v>       0.39743590       0.00000000       0.39743590 </v>
   <v>       0.41025641       0.00000000       0.41025641 </v>
   <v>       0.42307692       0.00000000       0.42307692 </v>
   <v>       0.43589744       0.00000000       0.43589744 </v>
   <v>       0.44871795       0.00000000       0.44871795 </v>
   <v>       0.46153846       0.00000000       0.46153846 </v>
   <v>       0.47435897       0.00000000       0.47435897 </v>
   <v>       0.48717949       0.00000000       0.48717949 </v>
   <v>       0.50000000       0.00000000       0.50000000 </v>
  </varray>
  <varray name="weights" >
   <v>       0.01250000 </v>
   <v>       0.01250000 </v>
   <v>       0.01250000 </v>
   <v>       0.01250000 </v>
   <v>       0.01250000 </v>
   <v>       0.01250000 </v>
   <v>       0.01250000 </v>
   <v>       0.01250000 </v>
   <v>       0.01250000 </v>
   <v>       0.01250000 </v>
   <v>       0.01250000 </v>
   <v>       0.01250000 </v>
   <v>       0.01250000 </v>
   <v>       0.01250000 </v>
   <v>       0.01250000 </v>
   <v>       0.01250000 </v>
   <v>       0.01250000 </v>
   <v>       0.01250000 </v>
   <v>       0.01250000 </v>
   <v>       0.01250000 </v>
   <v>       0.01250000 </v>
   <v>       0.01250000 </v>
   <v>       0.01250000 </v>
   <v>       0.01250000 </v>
   <v>       0.01250000 </v>
   <v>       0.01250000 </v>
   <v>       0.01250000 </v>
   <v>       0.01250000 </v>
   <v>       0.01250000 </v>
   <v>       0.01250000 </v>
   <v>       0.01250000 </v>
   <v>       0.01250000 </v>
   <v>       0.01250000 </v>
   <v>       0.01250000 </v>
   <v>       0.01250000 </v>
   <v>       0.01250000 </v>
   <v>       0.01250000 </v>
   <v>       0.01250000 </v>
   <v>       0.01250000 </v>
   <v>       0.01250000 </v>
   <v>       0.01250000 </v>
   <v>       0.01250000 </v>
   <v>       0.01250000 </v>
   <v>       0.01250000 </v>
   <v>       0.01250000 </v>
   <v>       0.01250000 </v>
   <v>       0.01250000 </v>
   <v>       0.01250000 </v>
   <v>       0.01250000 </v>
   <v>       0.01250000 </v>
   <v>       0.01250000 </v>
   <v>       0.01250000 </v>
   <v>       0.01250000 </v>
   <v>       0.01250000 </v>
   <v>       0.01250000 </v>
   <v>       0.01250000 </v>
   <v>       0.01250000 </v>
   <v>       0.01250000 </v>
   <v>       0.01250000 </v>
   <v>       0.01250000 </v>
   <v>       0.01250000 </v>
   <v>       0.01250000 </v>
   <v>       0.01250000 </v>
   <v>       0.01250000 </v>
   <v>       0.01250000 </v>
   <v>       0.01250000 </v>
   <v>       0.01250000 </v>
   <v>       0.01250000 </v>
   <v>       0.01250000 </v>
   <v>       0.01250000 </v>
   <v>       0.01250000 </v>
   <v>       0.01250000 </v>
   <v>       0.01250000 </v>
   <v>       0.01250000 </v>
   <v>       0.01250000 </v>
   <v>       0.01250000 </v>
   <v>       0.01250000 </v>
   <v>       0.01250000 </v>
   <v>       0.01250000 </v>
   <v>       0.01250000 </v>
  </varray>
  <kpoints_labels>
   <i name="X_par" type="int">       1 </i>
   <i name="\Gamma" type="int">       2 </i>
   <i name="\Gamma" type="int">       3 </i>
   <i name="X_perp" type="int">       4 </i>
  </kpoints_labels>
 </kpoints>
 <parameters>
  <separator name="general" >
   <i type="string" name="SYSTEM">unknown system</i>
   <i type="logical" name="LCOMPAT"> F  </i>
  </separator>
  <separator name="electronic" >
   <i type="string" name="PREC">accura</i>
   <i name="ENMAX">    320.00000000</i>
   <i name="ENAUG">    322.06900000</i>
   <i name="EDIFF">      0.00010000</i>
   <i type="int" name="IALGO">    38</i>
   <i type="int" name="IWAVPR">    10</i>
   <i type="int" name="NBANDS">     8</i>
   <i type="int" name="NBANDSLOW">    -1</i>
   <i type="int" name="NBANDSHIGH">    -1</i>
   <i name="NELECT">      8.00000000</i>
   <i type="int" name="TURBO">     0</i>
   <i type="int" name="IRESTART">     0</i>
   <i type="int" name="NREBOOT">     0</i>
   <i type="int" name="NMIN">     0</i>
   <i name="EREF">      0.00000000</i>
   <separator name="electronic smearing" >
    <i type="int" name="ISMEAR">     0</i>
    <i name="SIGMA">      0.05000000</i>
    <i name="KSPACING">      0.50000000</i>
    <i type="logical" name="KGAMMA"> T  </i>
    <i type="logical" name="KBLOWUP"> T  </i>
   </separator>
   <separator name="electronic projectors" >
    <i type="logical" name="LREAL"> F  </i>
    <v name="ROPT">      0.00000000</v>
    <i type="int" name="LMAXPAW">  -100</i>
    <i type="int" name="LMAXMIX">     2</i>
    <i type="logical" name="NLSPLINE"> F  </i>
   </separator>
   <separator name="electronic startup" >
    <i type="int" name="ISTART">     0</i>
    <i type="int" name="ICHARG">    11</i>
    <i type="int" name="INIWAV">     1</i>
   </separator>
   <separator name="electronic spin" >
    <i type="int" name="ISPIN">     1</i>
    <i type="logical" name="LNONCOLLINEAR"> F  </i>
    <v name="MAGMOM">      1.00000000      1.00000000</v>
    <i name="NUPDOWN">     -1.00000000</i>
    <i type="logical" name="LSORBIT"> F  </i>
    <v name="SAXIS">      0.00000000      0.00000000      1.00000000</v>
    <i type="logical" name="LSPIRAL"> F  </i>
    <v name="QSPIRAL">      0.00000000      0.00000000      0.00000000</v>
    <i type="logical" name="LZEROZ"> F  </i>
   </separator>
   <separator name="electronic exchange-correlation" >
    <i type="logical" name="LASPH"> F  </i>
    <i type="logical" name="LMETAGGA"> F  </i>
   </separator>
   <separator name="electronic convergence" >
    <i type="int" name="NELM">    60</i>
    <i type="int" name="NELMDL">    -5</i>
    <i type="int" name="NELMIN">     2</i>
    <i name="ENINI">    320.00000000</i>
    <separator name="electronic convergence detail" >
     <i type="logical" name="LDIAG"> T  </i>
     <i type="logical" name="LSUBROT"> F  </i>
     <i name="WEIMIN">      0.00000000</i>
     <i name="EBREAK">      0.00000313</i>
     <i name="DEPER">      0.30000000</i>
     <i type="int" name="NRMM">     4</i>
     <i name="TIME">      0.40000000</i>
    </separator>
   </separator>
   <separator name="electronic mixer" >
    <i name="AMIX">      0.40000000</i>
    <i name="BMIX">      1.00000000</i>
    <i name="AMIN">      0.10000000</i>
    <i name="AMIX_MAG">      1.60000000</i>
    <i name="BMIX_MAG">      1.00000000</i>
    <separator name="electronic mixer details" >
     <i type="int" name="IMIX">     4</i>
     <i type="logical" name="MIXFIRST"> F  </i>
     <i type="int" name="MAXMIX">   -45</i>
     <i name="WC">    100.00000000</i>
     <i type="int" name="INIMIX">     1</i>
     <i type="int" name="MIXPRE">     1</i>
     <i type="int" name="MREMOVE">     5</i>
    </separator>
   </separator>
   <separator name="electronic dipolcorrection" >
    <i type="logical" name="LDIPOL"> F  </i>
    <i type="logical" name="LMONO"> F  </i>
    <i type="int" name="IDIPOL">     0</i>
    <i name="EPSILON">      1.00000000</i>
    <v name="DIPOL">   -100.00000000   -100.00000000   -100.00000000</v>
    <i name="EFIELD">      0.00000000</i>
   </separator>
  </separator>
  <separator name="grids" >
   <i type="int" name="NGX">    24</i>
   <i type="int" name="NGY">    24</i>
   <i type="int" name="NGZ">    24</i>
   <i type="int" name="NGXF">    48</i>
   <i type="int" name="NGYF">    48</i>
   <i type="int" name="NGZF">    48</i>
   <i type="logical" name="ADDGRID"> F  </i>
  </separator>
  <separator name="ionic" >
   <i type="int" name="NSW">     0</i>
   <i type="int" name="IBRION">    -1</i>
   <i type="int" name="MDALGO">     0</i>
   <i type="int" name="ISIF">     2</i>
   <i name="PSTRESS">      0.00000000</i>
   <i name="EDIFFG">      0.00100000</i>
   <i type="int" name="NFREE">     0</i>
   <i name="POTIM">      0.50000000</i>
   <i name="SMASS">     -3.00000000</i>
   <i name="SCALEE">      1.00000000</i>
  </separator>
  <separator name="ionic md" >
   <i name="TEBEG">      0.00010000</i>
   <i name="TEEND">      0.00010000</i>
   <i type="int" name="NBLOCK">     1</i>
   <i type="int" name="KBLOCK">     1</i>
   <i type="int" name="NPACO">   256</i>
   <i name="APACO">     10.00000000</i>
  </separator>
  <separator name="symmetry" >
   <i type="int" name="ISYM">     0</i>
   <i name="SYMPREC">      0.00001000</i>
  </separator>
  <separator name="dos" >
   <i type="int" name="LORBIT">    11</i>
   <v name="RWIGS">     -1.00000000</v>
   <i type="int" name="NEDOS">   301</i>
   <i name="EMIN">     10.00000000</i>
   <i name="EMAX">    -10.00000000</i>
   <i name="EFERMI">      0.00000000</i>
  </separator>
  <separator name="writing" >
   <i type="int" name="NWRITE">     2</i>
   <i type="logical" name="LWAVE"> T  </i>
   <i type="logical" name="LDOWNSAMPLE"> F  </i>
   <i type="logical" name="LCHARG"> T  </i>
   <i type="logical" name="LPARD"> F  </i>
   <i type="logical" name="LVTOT"> F  </i>
   <i type="logical" name="LVHAR"> F  </i>
   <i type="logical" name="LELF"> F  </i>
   <i type="logical" name="LOPTICS"> F  </i>
   <v name="STM">      0.00000000      0.00000000      0.00000000      0.00000000      0.00000000      0.00000000      0.00000000</v>
  </separator>
  <separator name="performance" >
   <i type="int" name="NPAR">     1</i>
   <i type="int" name="NSIM">     4</i>
   <i type="int" name="NBLK">    -1</i>
   <i type="logical" name="LPLANE"> T  </i>
   <i type="logical" name="LSCALAPACK"> T  </i>
   <i type="logical" name="LSCAAWARE"> F  </i>
   <i type="logical" name="LSCALU"> F  </i>
   <i type="logical" name="LASYNC"> F  </i>
   <i type="logical" name="LORBITALREAL"> F  </i>
  </separator>
  <separator name="miscellaneous" >
   <i type="int" name="IDIOT">     3</i>
   <i type="int" name="PHON_NSTRUCT">    -1</i>
   <i type="logical" name="LMUSIC"> F  </i>
   <v name="POMASS">     28.08500000</v>
   <v name="DARWINR">      0.00000000</v>
   <v name="DARWINV">      1.00000000</v>
   <i type="logical" name="LCORR"> T  </i>
  </separator>
  <i type="logical" name="GGA_COMPAT"> T  </i>
  <i type="logical" name="LBERRY"> F  </i>
  <i type="int" name="ICORELEVEL">     0</i>
  <i type="logical" name="LDAU"> F  </i>
  <i type="int" name="I_CONSTRAINED_M">     0</i>
  <separator name="electronic exchange-correlation" >
   <i type="string" name="GGA">PE</i>
   <i type="int" name="VOSKOWN">     0</i>
   <i type="logical" name="LHFCALC"> F  </i>
   <i type="string" name="PRECFOCK"></i>
   <i type="logical" name="LSYMGRAD"> F  </i>
   <i type="logical" name="LHFONE"> F  </i>
   <i type="logical" name="LRHFCALC"> F  </i>
   <i type="logical" name="LTHOMAS"> F  </i>
   <i type="logical" name="LMODELHF"> F  </i>
   <i type="logical" name="LFOCKACE"> F  </i>
   <i name="ENCUT4O">     -1.00000000</i>
   <i type="int" name="EXXOEP">     0</i>
   <i type="int" name="FOURORBIT">     0</i>
   <i name="AEXX">      0.00000000</i>
   <i name="HFALPHA">      0.00000000</i>
   <i name="MCALPHA">      0.00000000</i>
   <i name="ALDAX">      1.00000000</i>
   <i name="AGGAX">      1.00000000</i>
   <i name="ALDAC">      1.00000000</i>
   <i name="AGGAC">      1.00000000</i>
   <i type="int" name="NKREDX">     1</i>
   <i type="int" name="NKREDY">     1</i>
   <i type="int" name="NKREDZ">     1</i>
   <i type="logical" name="SHIFTRED"> F  </i>
   <i type="logical" name="ODDONLY"> F  </i>
   <i type="logical" name="EVENONLY"> F  </i>
   <i type="int" name="LMAXFOCK">     0</i>
   <i type="int" name="NMAXFOCKAE">     0</i>
   <i type="logical" name="LFOCKAEDFT"> F  </i>
   <i name="HFSCREEN">      0.00000000</i>
   <i name="HFSCREENC">      0.00000000</i>
   <i type="int" name="NBANDSGWLOW">     0</i>
  </separator>
  <separator name="vdW DFT" >
   <i type="logical" name="LUSE_VDW"> F  </i>
   <i name="Zab_VDW">     -0.84910000</i>
   <i name="PARAM1">      0.12340000</i>
   <i name="PARAM2">      1.00000000</i>
   <i name="PARAM3">      0.00000000</i>
  </separator>
  <separator name="model GW" >
   <i type="int" name="MODEL_GW">     0</i>
   <i name="MODEL_EPS0">     11.88764827</i>
   <i name="MODEL_ALPHA">      1.00000000</i>
  </separator>
  <separator name="linear response parameters" >
   <i type="logical" name="LEPSILON"> F  </i>
   <i type="logical" name="LRPA"> F  </i>
   <i type="logical" name="LNABLA"> F  </i>
   <i type="logical" name="LVEL"> F  </i>
   <i name="CSHIFT">      0.10000000</i>
   <i name="OMEGAMAX">     -1.00000000</i>
   <i name="DEG_THRESHOLD">      0.00200000</i>
   <i name="RTIME">     -0.10000000</i>
   <i name="WPLASMAI">      0.00000000</i>
   <v name="DFIELD">      0.00000000      0.00000000      0.00000000</v>
   <v name="WPLASMA">      0.00000000      0.00000000      0.00000000      0.00000000      0.00000000      0.00000000      0.00000000      0.00000000      0.00000000</v>
  </separator>
  <separator name="orbital magnetization" >
   <i type="logical" name="NUCIND"> F  </i>
   <v name="MAGPOS">      0.00000000      0.00000000      0.00000000</v>
   <i type="logical" name="LNICSALL"> T  </i>
   <i type="logical" name="ORBITALMAG"> F  </i>
   <i type="logical" name="LMAGBLOCH"> F  </i>
   <i type="logical" name="LCHIMAG"> F  </i>
   <i type="logical" name="LGAUGE"> T  </i>
   <i type="int" name="MAGATOM">     0</i>
   <v name="MAGDIPOL">      0.00000000      0.00000000      0.00000000</v>
   <v name="AVECCONST">      0.00000000      0.00000000      0.00000000</v>
  </separator>
  <separator name="response functions" >
   <i type="logical" name="LFINITE_TEMPERATURE"> F  </i>
   <i type="logical" name="LADDER"> F  </i>
   <i type="logical" name="LRPAFORCE"> F  </i>
   <i type="logical" name="LFXC"> F  </i>
   <i type="logical" name="LHARTREE"> T  </i>
   <i type="int" name="IBSE">     0</i>
   <v type="int" name="KPOINT">    -1     0     0     0</v>
   <i type="logical" name="LTCTC"> F  </i>
   <i type="logical" name="LTCTE"> F  </i>
   <i type="logical" name="LTETE"> F  </i>
   <i type="logical" name="LTRIPLET"> F  </i>
   <i type="logical" name="LFXCEPS"> F  </i>
   <i type="logical" name="LFXHEG"> F  </i>
   <i type="int" name="NATURALO">     2</i>
   <i type="logical" name="LHOLEGF"> F  </i>
   <i type="logical" name="L2ORDER"> F  </i>
   <i type="logical" name="LDMP1"> F  </i>
   <i type="logical" name="LMP2LT"> F  </i>
   <i type="logical" name="LSMP2LT"> F  </i>
   <i type="logical" name="LGWLF"> F  </i>
   <i name="ENCUTGW">     -2.00000000</i>
   <i name="ENCUTGWSOFT">     -2.00000000</i>
   <i name="ENCUTLF">     -1.00000000</i>
   <i type="logical" name="LESF_SPLINES"> F  </i>
   <i type="int" name="LMAXMP2">    -1</i>
   <i name="SCISSOR">      0.00000000</i>
   <i type="int" name="NOMEGA">     0</i>
   <i type="int" name="NOMEGAR">     0</i>
   <i type="int" name="NBANDSGW">    -1</i>
   <i type="int" name="NBANDSO">    -1</i>
   <i type="int" name="NBANDSV">    -1</i>
   <i type="int" name="NELMGW">     1</i>
   <i type="int" name="NELMHF">     1</i>
   <i type="int" name="DIM">     3</i>
   <i type="int" name="IESPILON">     4</i>
   <i type="int" name="ANTIRES">     0</i>
   <i name="OMEGAMAX">    -30.00000000</i>
   <i name="OMEGAMIN">    -30.00000000</i>
   <i name="OMEGATL">   -200.00000000</i>
   <i type="int" name="OMEGAGRID">     0</i>
   <i name="CSHIFT">     -0.10000000</i>
   <i type="logical" name="LSELFENERGY"> F  </i>
   <i type="logical" name="LSPECTRAL"> F  </i>
   <i type="logical" name="LSPECTRALGW"> F  </i>
   <i type="logical" name="LSINGLES"> F  </i>
   <i type="logical" name="LFERMIGW"> F  </i>
   <i type="logical" name="ODDONLYGW"> F  </i>
   <i type="logical" name="EVENONLYGW"> F  </i>
   <i type="int" name="NKREDLFX">     1</i>
   <i type="int" name="NKREDLFY">     1</i>
   <i type="int" name="NKREDLFZ">     1</i>
   <i type="int" name="MAXMEM">  2800</i>
   <i type="int" name="TELESCOPE">     0</i>
   <i type="int" name="NTAUPAR">    -1</i>
   <i type="int" name="NOMEGAPAR">    -1</i>
   <i name="DAMP_NEWTON">      0.80000001</i>
   <i name="LAMBDA">      1.00000000</i>
  </separator>
  <separator name="External order field" >
   <i name="OFIELD_KAPPA">      0.00000000</i>
   <v name="OFIELD_K">      0.00000000      0.00000000      0.00000000</v>
   <i name="OFIELD_Q6_NEAR">      0.00000000</i>
   <i name="OFIELD_Q6_FAR">      0.00000000</i>
   <i name="OFIELD_A">      0.00000000</i>
  </separator>
  <separator name="optional k-points parameters" >
   <i type="int" name="KPOINTS_OPT_MODE">     1</i>
   <i type="logical" name="LKPOINTS_OPT"> F  </i>
  </separator>
 </parameters>
 <atominfo>
  <atoms>       2 </atoms>
  <types>       1 </types>
  <array name="atoms" >
   <dimension dim="1">ion</dimension>
   <field type="string">element</field>
   <field type="int">atomtype</field>
   <set>
    <rc><c>Si</c><c>   1</c></rc>
    <rc><c>Si</c><c>   1</c></rc>
   </set>
  </array>
  <array name="atomtypes" >
   <dimension dim="1">type</dimension>
   <field type="int">atomspertype</field>
   <field type="string">element</field>
   <field>mass</field>
   <field>valence</field>
   <field type="string">pseudopotential</field>
   <set>
    <rc><c>   2</c><c>Si</c><c>     28.08500000</c><c>      4.00000000</c><c>  PAW_PBE Si 05Jan2001                  </c></rc>
   </set>
  </array>
 </atominfo>
 <structure name="initialpos" >
  <crystal>
   <varray name="basis" >
    <v>       0.00000000       2.71500000       2.71500000 </v>
    <v>       2.68785000       0.00000000       2.71500000 </v>
    <v>       2.68785000       2.71500000       0.00000000 </v>
   </varray>
   <i name="volume">     39.62549423 </i>
   <varray name="rec_basis" >
    <v>      -0.18602229       0.18416206       0.18416206 </v>
    <v>       0.18602229      -0.18416206       0.18416206 </v>
    <v>       0.18602229       0.18416206      -0.18416206 </v>
   </varray>
  </crystal>
  <varray name="positions" >
   <v>       0.00000000       0.00000000       0.00000000 </v>
   <v>       0.25000000       0.25000000       0.25000000 </v>
  </varray>
 </structure>
 <calculation>
  <scstep>
   <time name="dav">    0.87    0.87</time>
   <time name="total">    0.92    0.92</time>
   <energy>
    <i name="alphaZ">      3.39812855 </i>
    <i name="ewald">   -229.33406331 </i>
    <i name="hartreedc">    -14.80643549 </i>
    <i name="XCdc">    -17.91292280 </i>
    <i name="pawpsdc">    913.92803357 </i>
    <i name="pawaedc">   -878.97638670 </i>
    <i name="eentropy">     -0.00159755 </i>
    <i name="bandstr">     26.13723924 </i>
    <i name="atom">    206.13066687 </i>
    <i name="e_fr_energy">      8.56266236 </i>
    <i name="e_wo_entrp">      8.56425991 </i>
    <i name="e_0_energy">      8.56346114 </i>
   </energy>
  </scstep>
  <scstep>
   <time name="dav">    1.30    1.30</time>
   <time name="total">    1.30    1.30</time>
   <energy>
    <i name="e_fr_energy">     -5.07924077 </i>
    <i name="e_wo_entrp">     -5.07924077 </i>
    <i name="e_0_energy">     -5.07924077 </i>
   </energy>
  </scstep>
  <scstep>
   <time name="dav">    1.05    1.05</time>
   <time name="total">    1.05    1.05</time>
   <energy>
    <i name="e_fr_energy">     -5.24033799 </i>
    <i name="e_wo_entrp">     -5.24033799 </i>
    <i name="e_0_energy">     -5.24033799 </i>
   </energy>
  </scstep>
  <scstep>
   <time name="dav">    1.24    1.24</time>
   <time name="total">    1.24    1.24</time>
   <energy>
    <i name="e_fr_energy">     -5.24088389 </i>
    <i name="e_wo_entrp">     -5.24088389 </i>
    <i name="e_0_energy">     -5.24088389 </i>
   </energy>
  </scstep>
  <scstep>
   <time name="dav">    1.04    1.04</time>
   <time name="total">    1.04    1.04</time>
   <energy>
    <i name="e_fr_energy">     -5.24088513 </i>
    <i name="e_wo_entrp">     -5.24088513 </i>
    <i name="e_0_energy">     -5.24088513 </i>
   </energy>
  </scstep>
  <scstep>
   <time name="dav">    0.96    0.96</time>
   <time name="total">    0.96    0.96</time>
   <energy>
    <i name="alphaZ">      3.39812855 </i>
    <i name="ewald">   -229.33406331 </i>
    <i name="hartreedc">    -14.80643549 </i>
    <i name="XCdc">    -17.91292280 </i>
    <i name="pawpsdc">    913.92803357 </i>
    <i name="pawaedc">   -878.97638670 </i>
    <i name="eentropy">     -0.00000000 </i>
    <i name="bandstr">     12.33209418 </i>
    <i name="atom">    206.13066687 </i>
    <i name="e_fr_energy">     -5.24088515 </i>
    <i name="e_wo_entrp">     -5.24088515 </i>
    <i name="e_0_energy">     -5.24088515 </i>
   </energy>
  </scstep>
  <structure>
   <crystal>
    <varray name="basis" >
     <v>       0.00000000       2.71500000       2.71500000 </v>
     <v>       2.68785000       0.00000000       2.71500000 </v>
     <v>       2.68785000       2.71500000       0.00000000 </v>
    </varray>
    <i name="volume">     39.62549423 </i>
    <varray name="rec_basis" >
     <v>      -0.18602229       0.18416206       0.18416206 </v>
     <v>       0.18602229      -0.18416206       0.18416206 </v>
     <v>       0.18602229       0.18416206      -0.18416206 </v>
    </varray>
   </crystal>
   <varray name="positions" >
    <v>       0.00000000       0.00000000       0.00000000 </v>
    <v>       0.25000000       0.25000000       0.25000000 </v>
   </varray>
  </structure>
  <varray name="forces" >
   <v>      -0.00000218       0.00000015       0.00000142 </v>
   <v>       0.00000218      -0.00000015      -0.00000142 </v>
  </varray>
  <varray name="stress" >
   <v>     261.88078779      -0.00012967      -0.00008993 </v>
   <v>      -0.00012972     252.02754617       0.00017671 </v>
   <v>      -0.00008998       0.00017674     346.09834039 </v>
  </varray>
  <energy>
   <i name="e_fr_energy">     -5.24088515 </i>
   <i name="e_wo_entrp">     -5.24088515 </i>
   <i name="e_0_energy">     -5.24088515 </i>
  </energy>
  <time name="totalsc">    7.12    7.12</time>
  <eigenvalues>
   <array>
    <dimension dim="1">band</dimension>
    <dimension dim="2">kpoint</dimension>
    <dimension dim="3">spin</dimension>
    <field>eigene</field>
    <field>occ</field>
    <set>
     <set comment="spin 1">
      <set comment="kpoint 1">
       <r>   -1.8733    1.0000 </r>
       <r>   -1.8733    1.0000 </r>
       <r>    3.0060    1.0000 </r>
       <r>    3.0060    1.0000 </r>
       <r>    6.5727    0.0000 </r>
       <r>    6.5727    0.0000 </r>
       <r>   16.1345    0.0000 </r>
       <r>   16.1460    0.0000 </r>
      </set>
      <set comment="kpoint 2">
       <r>   -2.0732    1.0000 </r>
       <r>   -1.6700    1.0000 </r>
       <r>    3.0086    1.0000 </r>
       <r>    3.0086    1.0000 </r>
       <r>    6.5293    0.0000 </r>
       <r>    6.6239    0.0000 </r>
       <r>   16.0594    0.0000 </r>
       <r>   16.0601    0.0000 </r>
      </set>
      <set comment="kpoint 3">
       <r>   -2.2694    1.0000 </r>
       <r>   -1.4636    1.0000 </r>
       <r>    3.0166    1.0000 </r>
       <r>    3.0166    1.0000 </r>
       <r>    6.4940    0.0000 </r>
       <r>    6.6833    0.0000 </r>
       <r>   15.8850    0.0000 </r>
       <r>   15.8851    0.0000 </r>
      </set>
      <set comment="kpoint 4">
       <r>   -2.4620    1.0000 </r>
       <r>   -1.2540    1.0000 </r>
       <r>    3.0298    1.0000 </r>
       <r>    3.0298    1.0000 </r>
       <r>    6.4665    0.0000 </r>
       <r>    6.7510    0.0000 </r>
       <r>   15.6688    0.0000 </r>
       <r>   15.6689    0.0000 </r>
      </set>
      <set comment="kpoint 5">
       <r>   -2.6506    1.0000 </r>
       <r>   -1.0416    1.0000 </r>
       <r>    3.0483    1.0000 </r>
       <r>    3.0483    1.0000 </r>
       <r>    6.4467    0.0000 </r>
       <r>    6.8270    0.0000 </r>
       <r>   15.4358    0.0000 </r>
       <r>   15.4358    0.0000 </r>
      </set>
      <set comment="kpoint 6">
       <r>   -2.8353    1.0000 </r>
       <r>   -0.8266    1.0000 </r>
       <r>    3.0722    1.0000 </r>
       <r>    3.0722    1.0000 </r>
       <r>    6.4343    0.0000 </r>
       <r>    6.9115    0.0000 </r>
       <r>   15.1956    0.0000 </r>
       <r>   15.1956    0.0000 </r>
      </set>
      <set comment="kpoint 7">
       <r>   -3.0158    1.0000 </r>
       <r>   -0.6090    1.0000 </r>
       <r>    3.1013    1.0000 </r>
       <r>    3.1013    1.0000 </r>
       <r>    6.4294    0.0000 </r>
       <r>    7.0046    0.0000 </r>
       <r>   14.9527    0.0000 </r>
       <r>   14.9527    0.0000 </r>
      </set>
      <set comment="kpoint 8">
       <r>   -3.1920    1.0000 </r>
       <r>   -0.3891    1.0000 </r>
       <r>    3.1356    1.0000 </r>
       <r>    3.1356    1.0000 </r>
       <r>    6.4317    0.0000 </r>
       <r>    7.1063    0.0000 </r>
       <r>   14.7084    0.0000 </r>
       <r>   14.7084    0.0000 </r>
      </set>
      <set comment="kpoint 9">
       <r>   -3.3638    1.0000 </r>
       <r>   -0.1672    1.0000 </r>
       <r>    3.1751    1.0000 </r>
       <r>    3.1751    1.0000 </r>
       <r>    6.4411    0.0000 </r>
       <r>    7.2167    0.0000 </r>
       <r>   14.4642    0.0000 </r>
       <r>   14.4642    0.0000 </r>
      </set>
      <set comment="kpoint 10">
       <r>   -3.5311    1.0000 </r>
       <r>    0.0566    1.0000 </r>
       <r>    3.2198    1.0000 </r>
       <r>    3.2198    1.0000 </r>
       <r>    6.4575    0.0000 </r>
       <r>    7.3358    0.0000 </r>
       <r>   14.2205    0.0000 </r>
       <r>   14.2206    0.0000 </r>
      </set>
      <set comment="kpoint 11">
       <r>   -3.6938    1.0000 </r>
       <r>    0.2821    1.0000 </r>
       <r>    3.2696    1.0000 </r>
       <r>    3.2696    1.0000 </r>
       <r>    6.4815    0.0000 </r>
       <r>    7.4635    0.0000 </r>
       <r>   13.9778    0.0000 </r>
       <r>   13.9778    0.0000 </r>
      </set>
      <set comment="kpoint 12">
       <r>   -3.8518    1.0000 </r>
       <r>    0.5091    1.0000 </r>
       <r>    3.3245    1.0000 </r>
       <r>    3.3245    1.0000 </r>
       <r>    6.5112    0.0000 </r>
       <r>    7.5999    0.0000 </r>
       <r>   13.7357    0.0000 </r>
       <r>   13.7357    0.0000 </r>
      </set>
      <set comment="kpoint 13">
       <r>   -4.0050    1.0000 </r>
       <r>    0.7373    1.0000 </r>
       <r>    3.3845    1.0000 </r>
       <r>    3.3845    1.0000 </r>
       <r>    6.5473    0.0000 </r>
       <r>    7.7447    0.0000 </r>
       <r>   13.4954    0.0000 </r>
       <r>   13.4954    0.0000 </r>
      </set>
      <set comment="kpoint 14">
       <r>   -4.1532    1.0000 </r>
       <r>    0.9665    1.0000 </r>
       <r>    3.4494    1.0000 </r>
       <r>    3.4494    1.0000 </r>
       <r>    6.5899    0.0000 </r>
       <r>    7.8982    0.0000 </r>
       <r>   13.2564    0.0000 </r>
       <r>   13.2564    0.0000 </r>
      </set>
      <set comment="kpoint 15">
       <r>   -4.2965    1.0000 </r>
       <r>    1.1967    1.0000 </r>
       <r>    3.5193    1.0000 </r>
       <r>    3.5193    1.0000 </r>
       <r>    6.6385    0.0000 </r>
       <r>    8.0600    0.0000 </r>
       <r>   13.0189    0.0000 </r>
       <r>   13.0190    0.0000 </r>
      </set>
      <set comment="kpoint 16">
       <r>   -4.4347    1.0000 </r>
       <r>    1.4274    1.0000 </r>
       <r>    3.5940    1.0000 </r>
       <r>    3.5940    1.0000 </r>
       <r>    6.6930    0.0000 </r>
       <r>    8.2298    0.0000 </r>
       <r>   12.7830    0.0000 </r>
       <r>   12.7830    0.0000 </r>
      </set>
      <set comment="kpoint 17">
       <r>   -4.5677    1.0000 </r>
       <r>    1.6587    1.0000 </r>
       <r>    3.6735    1.0000 </r>
       <r>    3.6735    1.0000 </r>
       <r>    6.7531    0.0000 </r>
       <r>    8.4073    0.0000 </r>
       <r>   12.5486    0.0000 </r>
       <r>   12.5486    0.0000 </r>
      </set>
      <set comment="kpoint 18">
       <r>   -4.6955    1.0000 </r>
       <r>    1.8902    1.0000 </r>
       <r>    3.7576    1.0000 </r>
       <r>    3.7576    1.0000 </r>
       <r>    6.8186    0.0000 </r>
       <r>    8.5918    0.0000 </r>
       <r>   12.3158    0.0000 </r>
       <r>   12.3158    0.0000 </r>
      </set>
      <set comment="kpoint 19">
       <r>   -4.8181    1.0000 </r>
       <r>    2.1218    1.0000 </r>
       <r>    3.8463    1.0000 </r>
       <r>    3.8463    1.0000 </r>
       <r>    6.8893    0.0000 </r>
       <r>    8.7827    0.0000 </r>
       <r>   12.0848    0.0000 </r>
       <r>   12.0848    0.0000 </r>
      </set>
      <set comment="kpoint 20">
       <r>   -4.9353    1.0000 </r>
       <r>    2.3532    1.0000 </r>
       <r>    3.9393    1.0000 </r>
       <r>    3.9393    1.0000 </r>
       <r>    6.9646    0.0000 </r>
       <r>    8.9788    0.0000 </r>
       <r>   11.8544    0.0000 </r>
       <r>   11.8544    0.0000 </r>
      </set>
      <set comment="kpoint 21">
       <r>   -5.0471    1.0000 </r>
       <r>    2.5844    1.0000 </r>
       <r>    4.0367    1.0000 </r>
       <r>    4.0367    1.0000 </r>
       <r>    7.0449    0.0000 </r>
       <r>    9.1795    0.0000 </r>
       <r>   11.6278    0.0000 </r>
       <r>   11.6278    0.0000 </r>
      </set>
      <set comment="kpoint 22">
       <r>   -5.1535    1.0000 </r>
       <r>    2.8150    1.0000 </r>
       <r>    4.1380    1.0000 </r>
       <r>    4.1380    1.0000 </r>
       <r>    7.1289    0.0000 </r>
       <r>    9.3824    0.0000 </r>
       <r>   11.4021    0.0000 </r>
       <r>   11.4021    0.0000 </r>
      </set>
      <set comment="kpoint 23">
       <r>   -5.2544    1.0000 </r>
       <r>    3.0448    1.0000 </r>
       <r>    4.2433    1.0000 </r>
       <r>    4.2433    1.0000 </r>
       <r>    7.2168    0.0000 </r>
       <r>    9.5853    0.0000 </r>
       <r>   11.1795    0.0000 </r>
       <r>   11.1795    0.0000 </r>
      </set>
      <set comment="kpoint 24">
       <r>   -5.3497    1.0000 </r>
       <r>    3.2739    1.0000 </r>
       <r>    4.3522    1.0000 </r>
       <r>    4.3522    1.0000 </r>
       <r>    7.3080    0.0000 </r>
       <r>    9.7862    0.0000 </r>
       <r>   10.9596    0.0000 </r>
       <r>   10.9596    0.0000 </r>
      </set>
      <set comment="kpoint 25">
       <r>   -5.4394    1.0000 </r>
       <r>    3.5014    1.0000 </r>
       <r>    4.4645    1.0000 </r>
       <r>    4.4645    1.0000 </r>
       <r>    7.4019    0.0000 </r>
       <r>    9.9764    0.0000 </r>
       <r>   10.7426    0.0000 </r>
       <r>   10.7426    0.0000 </r>
      </set>
      <set comment="kpoint 26">
       <r>   -5.5235    1.0000 </r>
       <r>    3.7272    1.0000 </r>
       <r>    4.5798    1.0000 </r>
       <r>    4.5798    1.0000 </r>
       <r>    7.4980    0.0000 </r>
       <r>   10.1505    0.0000 </r>
       <r>   10.5293    0.0000 </r>
       <r>   10.5293    0.0000 </r>
      </set>
      <set comment="kpoint 27">
       <r>   -5.6020    1.0000 </r>
       <r>    3.9508    1.0000 </r>
       <r>    4.6976    1.0000 </r>
       <r>    4.6976    1.0000 </r>
       <r>    7.5955    0.0000 </r>
       <r>   10.2966    0.0000 </r>
       <r>   10.3195    0.0000 </r>
       <r>   10.3195    0.0000 </r>
      </set>
      <set comment="kpoint 28">
       <r>   -5.6748    1.0000 </r>
       <r>    4.1718    1.0000 </r>
       <r>    4.8175    1.0000 </r>
       <r>    4.8175    1.0000 </r>
       <r>    7.6936    0.0000 </r>
       <r>   10.1141    0.0000 </r>
       <r>   10.1141    0.0000 </r>
       <r>   10.4013    0.0000 </r>
      </set>
      <set comment="kpoint 29">
       <r>   -5.7419    1.0000 </r>
       <r>    4.3892    1.0000 </r>
       <r>    4.9385    1.0000 </r>
       <r>    4.9385    1.0000 </r>
       <r>    7.7914    0.0000 </r>
       <r>    9.9136    0.0000 </r>
       <r>    9.9136    0.0000 </r>
       <r>   10.4509    0.0000 </r>
      </set>
      <set comment="kpoint 30">
       <r>   -5.8032    1.0000 </r>
       <r>    4.6023    1.0000 </r>
       <r>    5.0603    1.0000 </r>
       <r>    5.0603    1.0000 </r>
       <r>    7.8880    0.0000 </r>
       <r>    9.7194    0.0000 </r>
       <r>    9.7194    0.0000 </r>
       <r>   10.4389    0.0000 </r>
      </set>
      <set comment="kpoint 31">
       <r>   -5.8587    1.0000 </r>
       <r>    4.8099    1.0000 </r>
       <r>    5.1817    1.0000 </r>
       <r>    5.1817    1.0000 </r>
       <r>    7.9822    0.0000 </r>
       <r>    9.5322    0.0000 </r>
       <r>    9.5322    0.0000 </r>
       <r>   10.3709    0.0000 </r>
      </set>
      <set comment="kpoint 32">
       <r>   -5.9085    1.0000 </r>
       <r>    5.0104    1.0000 </r>
       <r>    5.3014    1.0000 </r>
       <r>    5.3014    1.0000 </r>
       <r>    8.0726    0.0000 </r>
       <r>    9.3534    0.0000 </r>
       <r>    9.3534    0.0000 </r>
       <r>   10.2616    0.0000 </r>
      </set>
      <set comment="kpoint 33">
       <r>   -5.9524    1.0000 </r>
       <r>    5.2017    1.0000 </r>
       <r>    5.4177    1.0000 </r>
       <r>    5.4177    1.0000 </r>
       <r>    8.1578    0.0000 </r>
       <r>    9.1841    0.0000 </r>
       <r>    9.1841    0.0000 </r>
       <r>   10.1274    0.0000 </r>
      </set>
      <set comment="kpoint 34">
       <r>   -5.9905    1.0000 </r>
       <r>    5.3813    1.0000 </r>
       <r>    5.5288    1.0000 </r>
       <r>    5.5288    1.0000 </r>
       <r>    8.2365    0.0000 </r>
       <r>    9.0275    0.0000 </r>
       <r>    9.0275    0.0000 </r>
       <r>    9.9827    0.0000 </r>
      </set>
      <set comment="kpoint 35">
       <r>   -6.0228    1.0000 </r>
       <r>    5.5459    1.0000 </r>
       <r>    5.6320    1.0000 </r>
       <r>    5.6320    1.0000 </r>
       <r>    8.3068    0.0000 </r>
       <r>    8.8858    0.0000 </r>
       <r>    8.8858    0.0000 </r>
       <r>    9.8389    0.0000 </r>
      </set>
      <set comment="kpoint 36">
       <r>   -6.0493    1.0000 </r>
       <r>    5.6912    1.0000 </r>
       <r>    5.7242    1.0000 </r>
       <r>    5.7242    1.0000 </r>
       <r>    8.3672    0.0000 </r>
       <r>    8.7619    0.0000 </r>
       <r>    8.7619    0.0000 </r>
       <r>    9.7056    0.0000 </r>
      </set>
      <set comment="kpoint 37">
       <r>   -6.0698    1.0000 </r>
       <r>    5.8019    1.0000 </r>
       <r>    5.8019    1.0000 </r>
       <r>    5.8125    1.0000 </r>
       <r>    8.4162    0.0000 </r>
       <r>    8.6595    0.0000 </r>
       <r>    8.6595    0.0000 </r>
       <r>    9.5908    0.0000 </r>
      </set>
      <set comment="kpoint 38">
       <r>   -6.0845    1.0000 </r>
       <r>    5.8612    1.0000 </r>
       <r>    5.8612    1.0000 </r>
       <r>    5.9045    1.0000 </r>
       <r>    8.4523    0.0000 </r>
       <r>    8.5826    0.0000 </r>
       <r>    8.5826    0.0000 </r>
       <r>    9.5023    0.0000 </r>
      </set>
      <set comment="kpoint 39">
       <r>   -6.0933    1.0000 </r>
       <r>    5.8986    1.0000 </r>
       <r>    5.8986    1.0000 </r>
       <r>    5.9621    1.0000 </r>
       <r>    8.4744    0.0000 </r>
       <r>    8.5347    0.0000 </r>
       <r>    8.5347    0.0000 </r>
       <r>    9.4462    0.0000 </r>
      </set>
      <set comment="kpoint 40">
       <r>   -6.0963    1.0000 </r>
       <r>    5.9113    1.0000 </r>
       <r>    5.9113    1.0000 </r>
       <r>    5.9818    1.0000 </r>
       <r>    8.4819    0.0000 </r>
       <r>    8.5184    0.0000 </r>
       <r>    8.5184    0.0000 </r>
       <r>    9.4270    0.0000 </r>
      </set>
      <set comment="kpoint 41">
       <r>   -6.0963    1.0000 </r>
       <r>    5.9113    1.0000 </r>
       <r>    5.9113    1.0000 </r>
       <r>    5.9818    1.0000 </r>
       <r>    8.4819    0.0000 </r>
       <r>    8.5184    0.0000 </r>
       <r>    8.5184    0.0000 </r>
       <r>    9.4270    0.0000 </r>
      </set>
      <set comment="kpoint 42">
       <r>   -6.0934    1.0000 </r>
       <r>    5.8919    1.0000 </r>
       <r>    5.8989    1.0000 </r>
       <r>    5.9688    1.0000 </r>
       <r>    8.4978    0.0000 </r>
       <r>    8.5112    0.0000 </r>
       <r>    8.5351    0.0000 </r>
       <r>    9.4460    0.0000 </r>
      </set>
      <set comment="kpoint 43">
       <r>   -6.0847    1.0000 </r>
       <r>    5.8350    1.0000 </r>
       <r>    5.8626    1.0000 </r>
       <r>    5.9308    1.0000 </r>
       <r>    8.4899    0.0000 </r>
       <r>    8.5447    0.0000 </r>
       <r>    8.5841    0.0000 </r>
       <r>    9.5017    0.0000 </r>
      </set>
      <set comment="kpoint 44">
       <r>   -6.0703    1.0000 </r>
       <r>    5.7441    1.0000 </r>
       <r>    5.8049    1.0000 </r>
       <r>    5.8706    1.0000 </r>
       <r>    8.4551    0.0000 </r>
       <r>    8.6199    0.0000 </r>
       <r>    8.6627    0.0000 </r>
       <r>    9.5899    0.0000 </r>
      </set>
      <set comment="kpoint 45">
       <r>   -6.0501    1.0000 </r>
       <r>    5.6239    1.0000 </r>
       <r>    5.7293    1.0000 </r>
       <r>    5.7919    1.0000 </r>
       <r>    8.4079    0.0000 </r>
       <r>    8.7201    0.0000 </r>
       <r>    8.7671    0.0000 </r>
       <r>    9.7043    0.0000 </r>
      </set>
      <set comment="kpoint 46">
       <r>   -6.0241    1.0000 </r>
       <r>    5.4796    1.0000 </r>
       <r>    5.6395    1.0000 </r>
       <r>    5.6988    1.0000 </r>
       <r>    8.3497    0.0000 </r>
       <r>    8.8415    0.0000 </r>
       <r>    8.8933    0.0000 </r>
       <r>    9.8379    0.0000 </r>
      </set>
      <set comment="kpoint 47">
       <r>   -5.9924    1.0000 </r>
       <r>    5.3160    1.0000 </r>
       <r>    5.5390    1.0000 </r>
       <r>    5.5949    1.0000 </r>
       <r>    8.2818    0.0000 </r>
       <r>    8.9805    0.0000 </r>
       <r>    9.0375    0.0000 </r>
       <r>    9.9824    0.0000 </r>
      </set>
      <set comment="kpoint 48">
       <r>   -5.9549    1.0000 </r>
       <r>    5.1371    1.0000 </r>
       <r>    5.4308    1.0000 </r>
       <r>    5.4833    1.0000 </r>
       <r>    8.2058    0.0000 </r>
       <r>    9.1340    0.0000 </r>
       <r>    9.1966    0.0000 </r>
       <r>   10.1283    0.0000 </r>
      </set>
      <set comment="kpoint 49">
       <r>   -5.9117    1.0000 </r>
       <r>    4.9462    1.0000 </r>
       <r>    5.3173    1.0000 </r>
       <r>    5.3666    1.0000 </r>
       <r>    8.1233    0.0000 </r>
       <r>    9.2997    0.0000 </r>
       <r>    9.3680    0.0000 </r>
       <r>   10.2637    0.0000 </r>
      </set>
      <set comment="kpoint 50">
       <r>   -5.8629    1.0000 </r>
       <r>    4.7459    1.0000 </r>
       <r>    5.2006    1.0000 </r>
       <r>    5.2468    1.0000 </r>
       <r>    8.0358    0.0000 </r>
       <r>    9.4754    0.0000 </r>
       <r>    9.5495    0.0000 </r>
       <r>   10.3736    0.0000 </r>
      </set>
      <set comment="kpoint 51">
       <r>   -5.8083    1.0000 </r>
       <r>    4.5384    1.0000 </r>
       <r>    5.0823    1.0000 </r>
       <r>    5.1256    1.0000 </r>
       <r>    7.9446    0.0000 </r>
       <r>    9.6597    0.0000 </r>
       <r>    9.7400    0.0000 </r>
       <r>   10.4397    0.0000 </r>
      </set>
      <set comment="kpoint 52">
       <r>   -5.7480    1.0000 </r>
       <r>    4.3250    1.0000 </r>
       <r>    4.9635    1.0000 </r>
       <r>    5.0041    1.0000 </r>
       <r>    7.8511    0.0000 </r>
       <r>    9.8513    0.0000 </r>
       <r>    9.9376    0.0000 </r>
       <r>   10.4465    0.0000 </r>
      </set>
      <set comment="kpoint 53">
       <r>   -5.6821    1.0000 </r>
       <r>    4.1071    1.0000 </r>
       <r>    4.8453    1.0000 </r>
       <r>    4.8833    1.0000 </r>
       <r>    7.7561    0.0000 </r>
       <r>   10.0484    0.0000 </r>
       <r>   10.1409    0.0000 </r>
       <r>   10.3891    0.0000 </r>
      </set>
      <set comment="kpoint 54">
       <r>   -5.6105    1.0000 </r>
       <r>    3.8856    1.0000 </r>
       <r>    4.7285    1.0000 </r>
       <r>    4.7640    1.0000 </r>
       <r>    7.6608    0.0000 </r>
       <r>   10.2505    0.0000 </r>
       <r>   10.2765    0.0000 </r>
       <r>   10.3495    0.0000 </r>
      </set>
      <set comment="kpoint 55">
       <r>   -5.5334    1.0000 </r>
       <r>    3.6610    1.0000 </r>
       <r>    4.6136    1.0000 </r>
       <r>    4.6469    1.0000 </r>
       <r>    7.5661    0.0000 </r>
       <r>   10.1234    0.0000 </r>
       <r>   10.4573    0.0000 </r>
       <r>   10.5626    0.0000 </r>
      </set>
      <set comment="kpoint 56">
       <r>   -5.4507    1.0000 </r>
       <r>    3.4344    1.0000 </r>
       <r>    4.5011    1.0000 </r>
       <r>    4.5324    1.0000 </r>
       <r>    7.4727    0.0000 </r>
       <r>    9.9471    0.0000 </r>
       <r>   10.6680    0.0000 </r>
       <r>   10.7799    0.0000 </r>
      </set>
      <set comment="kpoint 57">
       <r>   -5.3624    1.0000 </r>
       <r>    3.2060    1.0000 </r>
       <r>    4.3916    1.0000 </r>
       <r>    4.4208    1.0000 </r>
       <r>    7.3813    0.0000 </r>
       <r>    9.7567    0.0000 </r>
       <r>   10.8822    0.0000 </r>
       <r>   11.0007    0.0000 </r>
      </set>
      <set comment="kpoint 58">
       <r>   -5.2687    1.0000 </r>
       <r>    2.9763    1.0000 </r>
       <r>    4.2854    1.0000 </r>
       <r>    4.3127    1.0000 </r>
       <r>    7.2925    0.0000 </r>
       <r>    9.5595    0.0000 </r>
       <r>   11.0997    0.0000 </r>
       <r>   11.2254    0.0000 </r>
      </set>
      <set comment="kpoint 59">
       <r>   -5.1695    1.0000 </r>
       <r>    2.7455    1.0000 </r>
       <r>    4.1827    1.0000 </r>
       <r>    4.2082    1.0000 </r>
       <r>    7.2069    0.0000 </r>
       <r>    9.3600    0.0000 </r>
       <r>   11.3196    0.0000 </r>
       <r>   11.4523    0.0000 </r>
      </set>
      <set comment="kpoint 60">
       <r>   -5.0648    1.0000 </r>
       <r>    2.5140    1.0000 </r>
       <r>    4.0838    1.0000 </r>
       <r>    4.1076    1.0000 </r>
       <r>    7.1245    0.0000 </r>
       <r>    9.1615    0.0000 </r>
       <r>   11.5415    0.0000 </r>
       <r>   11.6810    0.0000 </r>
      </set>
      <set comment="kpoint 61">
       <r>   -4.9548    1.0000 </r>
       <r>    2.2821    1.0000 </r>
       <r>    3.9890    1.0000 </r>
       <r>    4.0111    1.0000 </r>
       <r>    7.0467    0.0000 </r>
       <r>    8.9664    0.0000 </r>
       <r>   11.7668    0.0000 </r>
       <r>   11.9128    0.0000 </r>
      </set>
      <set comment="kpoint 62">
       <r>   -4.8394    1.0000 </r>
       <r>    2.0498    1.0000 </r>
       <r>    3.8983    1.0000 </r>
       <r>    3.9189    1.0000 </r>
       <r>    6.9731    0.0000 </r>
       <r>    8.7758    0.0000 </r>
       <r>   11.9936    0.0000 </r>
       <r>   12.1470    0.0000 </r>
      </set>
      <set comment="kpoint 63">
       <r>   -4.7188    1.0000 </r>
       <r>    1.8176    1.0000 </r>
       <r>    3.8118    1.0000 </r>
       <r>    3.8310    1.0000 </r>
       <r>    6.9040    0.0000 </r>
       <r>    8.5909    0.0000 </r>
       <r>   12.2223    0.0000 </r>
       <r>   12.3826    0.0000 </r>
      </set>
      <set comment="kpoint 64">
       <r>   -4.5930    1.0000 </r>
       <r>    1.5855    1.0000 </r>
       <r>    3.7299    1.0000 </r>
       <r>    3.7476    1.0000 </r>
       <r>    6.8400    0.0000 </r>
       <r>    8.4126    0.0000 </r>
       <r>   12.4538    0.0000 </r>
       <r>   12.6201    0.0000 </r>
      </set>
      <set comment="kpoint 65">
       <r>   -4.4620    1.0000 </r>
       <r>    1.3539    1.0000 </r>
       <r>    3.6524    1.0000 </r>
       <r>    3.6688    1.0000 </r>
       <r>    6.7810    0.0000 </r>
       <r>    8.2414    0.0000 </r>
       <r>   12.6859    0.0000 </r>
       <r>   12.8590    0.0000 </r>
      </set>
      <set comment="kpoint 66">
       <r>   -4.3259    1.0000 </r>
       <r>    1.1229    1.0000 </r>
       <r>    3.5797    1.0000 </r>
       <r>    3.5948    1.0000 </r>
       <r>    6.7275    0.0000 </r>
       <r>    8.0778    0.0000 </r>
       <r>   12.9198    0.0000 </r>
       <r>   13.0995    0.0000 </r>
      </set>
      <set comment="kpoint 67">
       <r>   -4.1848    1.0000 </r>
       <r>    0.8926    1.0000 </r>
       <r>    3.5117    1.0000 </r>
       <r>    3.5255    1.0000 </r>
       <r>    6.6798    0.0000 </r>
       <r>    7.9222    0.0000 </r>
       <r>   13.1553    0.0000 </r>
       <r>   13.3415    0.0000 </r>
      </set>
      <set comment="kpoint 68">
       <r>   -4.0387    1.0000 </r>
       <r>    0.6635    1.0000 </r>
       <r>    3.4485    1.0000 </r>
       <r>    3.4611    1.0000 </r>
       <r>    6.6380    0.0000 </r>
       <r>    7.7747    0.0000 </r>
       <r>   13.3927    0.0000 </r>
       <r>   13.5848    0.0000 </r>
      </set>
      <set comment="kpoint 69">
       <r>   -3.8878    1.0000 </r>
       <r>    0.4355    1.0000 </r>
       <r>    3.3903    1.0000 </r>
       <r>    3.4017    1.0000 </r>
       <r>    6.6022    0.0000 </r>
       <r>    7.6354    0.0000 </r>
       <r>   13.6311    0.0000 </r>
       <r>   13.8293    0.0000 </r>
      </set>
      <set comment="kpoint 70">
       <r>   -3.7321    1.0000 </r>
       <r>    0.2090    1.0000 </r>
       <r>    3.3369    1.0000 </r>
       <r>    3.3472    1.0000 </r>
       <r>    6.5726    0.0000 </r>
       <r>    7.5045    0.0000 </r>
       <r>   13.8709    0.0000 </r>
       <r>   14.0749    0.0000 </r>
      </set>
      <set comment="kpoint 71">
       <r>   -3.5716    1.0000 </r>
       <r>   -0.0159    1.0000 </r>
       <r>    3.2885    1.0000 </r>
       <r>    3.2977    1.0000 </r>
       <r>    6.5495    0.0000 </r>
       <r>    7.3821    0.0000 </r>
       <r>   14.1121    0.0000 </r>
       <r>   14.3219    0.0000 </r>
      </set>
      <set comment="kpoint 72">
       <r>   -3.4066    1.0000 </r>
       <r>   -0.2389    1.0000 </r>
       <r>    3.2452    1.0000 </r>
       <r>    3.2533    1.0000 </r>
       <r>    6.5327    0.0000 </r>
       <r>    7.2682    0.0000 </r>
       <r>   14.3537    0.0000 </r>
       <r>   14.5686    0.0000 </r>
      </set>
      <set comment="kpoint 73">
       <r>   -3.2370    1.0000 </r>
       <r>   -0.4599    1.0000 </r>
       <r>    3.2069    1.0000 </r>
       <r>    3.2140    1.0000 </r>
       <r>    6.5229    0.0000 </r>
       <r>    7.1626    0.0000 </r>
       <r>   14.5968    0.0000 </r>
       <r>   14.8171    0.0000 </r>
      </set>
      <set comment="kpoint 74">
       <r>   -3.0630    1.0000 </r>
       <r>   -0.6786    1.0000 </r>
       <r>    3.1738    1.0000 </r>
       <r>    3.1797    1.0000 </r>
       <r>    6.5195    0.0000 </r>
       <r>    7.0653    0.0000 </r>
       <r>   14.8411    0.0000 </r>
       <r>   15.0633    0.0000 </r>
      </set>
      <set comment="kpoint 75">
       <r>   -2.8848    1.0000 </r>
       <r>   -0.8949    1.0000 </r>
       <r>    3.1457    1.0000 </r>
       <r>    3.1506    1.0000 </r>
       <r>    6.5235    0.0000 </r>
       <r>    6.9763    0.0000 </r>
       <r>   15.0843    0.0000 </r>
       <r>   15.3082    0.0000 </r>
      </set>
      <set comment="kpoint 76">
       <r>   -2.7023    1.0000 </r>
       <r>   -1.1086    1.0000 </r>
       <r>    3.1229    1.0000 </r>
       <r>    3.1268    1.0000 </r>
       <r>    6.5346    0.0000 </r>
       <r>    6.8956    0.0000 </r>
       <r>   15.3260    0.0000 </r>
       <r>   15.5489    0.0000 </r>
      </set>
      <set comment="kpoint 77">
       <r>   -2.5158    1.0000 </r>
       <r>   -1.3194    1.0000 </r>
       <r>    3.1051    1.0000 </r>
       <r>    3.1081    1.0000 </r>
       <r>    6.5530    0.0000 </r>
       <r>    6.8230    0.0000 </r>
       <r>   15.5636    0.0000 </r>
       <r>   15.7799    0.0000 </r>
      </set>
      <set comment="kpoint 78">
       <r>   -2.3254    1.0000 </r>
       <r>   -1.5272    1.0000 </r>
       <r>    3.0926    1.0000 </r>
       <r>    3.0945    1.0000 </r>
       <r>    6.5788    0.0000 </r>
       <r>    6.7584    0.0000 </r>
       <r>   15.7907    0.0000 </r>
       <r>   15.9864    0.0000 </r>
      </set>
      <set comment="kpoint 79">
       <r>   -2.1312    1.0000 </r>
       <r>   -1.7319    1.0000 </r>
       <r>    3.0853    1.0000 </r>
       <r>    3.0862    1.0000 </r>
       <r>    6.6121    0.0000 </r>
       <r>    6.7018    0.0000 </r>
       <r>   15.9939    0.0000 </r>
       <r>   16.1275    0.0000 </r>
      </set>
      <set comment="kpoint 80">
       <r>   -1.9333    1.0000 </r>
       <r>   -1.9333    1.0000 </r>
       <r>    3.0831    1.0000 </r>
       <r>    3.0831    1.0000 </r>
       <r>    6.6530    0.0000 </r>
       <r>    6.6530    0.0000 </r>
       <r>   16.1311    0.0000 </r>
       <r>   16.1324    0.0000 </r>
      </set>
     </set>
    </set>
   </array>
  </eigenvalues>
  <separator name="orbital magnetization" >
   <v name="MAGDIPOLOUT">      0.00000000      0.00000000      0.00000000</v>
  </separator>
  <dos>
   <i name="efermi">      6.21503692 </i>
   <total>
    <array>
     <dimension dim="1">gridpoints</dimension>
     <dimension dim="2">spin</dimension>
     <field>energy</field>
     <field>total</field>
     <field>integrated</field>
     <set>
      <set comment="spin 1">
       <r>    -7.2084     0.0000     0.0000 </r>
       <r>    -7.1268     0.0000     0.0000 </r>
       <r>    -7.0453     0.0000     0.0000 </r>
       <r>    -6.9637     0.0000     0.0000 </r>
       <r>    -6.8821     0.0000     0.0000 </r>
       <r>    -6.8006     0.0000     0.0000 </r>
       <r>    -6.7190     0.0000     0.0000 </r>
       <r>    -6.6375     0.0000     0.0000 </r>
       <r>    -6.5559     0.0000     0.0000 </r>
       <r>    -6.4744     0.0000     0.0000 </r>
       <r>    -6.3928     0.0000     0.0000 </r>
       <r>    -6.3113     0.0000     0.0000 </r>
       <r>    -6.2297     0.0001     0.0000 </r>
       <r>    -6.1482     0.1129     0.0092 </r>
       <r>    -6.0666     1.8815     0.1627 </r>
       <r>    -5.9850     2.0471     0.3296 </r>
       <r>    -5.9035     1.2348     0.4303 </r>
       <r>    -5.8219     0.9746     0.5098 </r>
       <r>    -5.7404     0.8355     0.5779 </r>
       <r>    -5.6588     0.7437     0.6386 </r>
       <r>    -5.5773     0.6769     0.6938 </r>
       <r>    -5.4957     0.6267     0.7449 </r>
       <r>    -5.4142     0.5886     0.7929 </r>
       <r>    -5.3326     0.5570     0.8383 </r>
       <r>    -5.2511     0.5227     0.8810 </r>
       <r>    -5.1695     0.4837     0.9204 </r>
       <r>    -5.0879     0.4666     0.9585 </r>
       <r>    -5.0064     0.4850     0.9980 </r>
       <r>    -4.9248     0.4617     1.0357 </r>
       <r>    -4.8433     0.3871     1.0672 </r>
       <r>    -4.7617     0.4244     1.1018 </r>
       <r>    -4.6802     0.4490     1.1385 </r>
       <r>    -4.5986     0.3330     1.1656 </r>
       <r>    -4.5171     0.4148     1.1994 </r>
       <r>    -4.4355     0.3945     1.2316 </r>
       <r>    -4.3539     0.3032     1.2563 </r>
       <r>    -4.2724     0.4415     1.2924 </r>
       <r>    -4.1908     0.2699     1.3144 </r>
       <r>    -4.1093     0.4066     1.3475 </r>
       <r>    -4.0277     0.3007     1.3721 </r>
       <r>    -3.9462     0.3429     1.4000 </r>
       <r>    -3.8646     0.3378     1.4276 </r>
       <r>    -3.7831     0.2914     1.4513 </r>
       <r>    -3.7015     0.3578     1.4805 </r>
       <r>    -3.6200     0.2614     1.5018 </r>
       <r>    -3.5384     0.3594     1.5311 </r>
       <r>    -3.4568     0.2508     1.5516 </r>
       <r>    -3.3753     0.3437     1.5796 </r>
       <r>    -3.2937     0.2597     1.6008 </r>
       <r>    -3.2122     0.3098     1.6261 </r>
       <r>    -3.1306     0.2892     1.6496 </r>
       <r>    -3.0491     0.2577     1.6707 </r>
       <r>    -2.9675     0.3352     1.6980 </r>
       <r>    -2.8860     0.1969     1.7141 </r>
       <r>    -2.8044     0.3791     1.7450 </r>
       <r>    -2.7229     0.1537     1.7575 </r>
       <r>    -2.6413     0.3867     1.7891 </r>
       <r>    -2.5597     0.1663     1.8026 </r>
       <r>    -2.4782     0.3295     1.8295 </r>
       <r>    -2.3966     0.2482     1.8497 </r>
       <r>    -2.3151     0.2218     1.8678 </r>
       <r>    -2.2335     0.3461     1.8961 </r>
       <r>    -2.1520     0.1375     1.9073 </r>
       <r>    -2.0704     0.3671     1.9372 </r>
       <r>    -1.9889     0.1902     1.9527 </r>
       <r>    -1.9073     0.5410     1.9968 </r>
       <r>    -1.8258     0.5975     2.0456 </r>
       <r>    -1.7442     0.1715     2.0595 </r>
       <r>    -1.6626     0.3604     2.0889 </r>
       <r>    -1.5811     0.1535     2.1015 </r>
       <r>    -1.4995     0.2696     2.1234 </r>
       <r>    -1.4180     0.2958     2.1476 </r>
       <r>    -1.3364     0.1293     2.1581 </r>
       <r>    -1.2549     0.3469     2.1864 </r>
       <r>    -1.1733     0.1734     2.2006 </r>
       <r>    -1.0918     0.2264     2.2190 </r>
       <r>    -1.0102     0.3219     2.2453 </r>
       <r>    -0.9287     0.1105     2.2543 </r>
       <r>    -0.8471     0.3131     2.2798 </r>
       <r>    -0.7655     0.2367     2.2991 </r>
       <r>    -0.6840     0.1508     2.3114 </r>
       <r>    -0.6024     0.3376     2.3389 </r>
       <r>    -0.5209     0.1466     2.3509 </r>
       <r>    -0.4393     0.2333     2.3699 </r>
       <r>    -0.3578     0.3107     2.3953 </r>
       <r>    -0.2762     0.1027     2.4036 </r>
       <r>    -0.1947     0.2965     2.4278 </r>
       <r>    -0.1131     0.2534     2.4485 </r>
       <r>    -0.0315     0.1211     2.4584 </r>
       <r>     0.0500     0.3248     2.4849 </r>
       <r>     0.1316     0.1848     2.4999 </r>
       <r>     0.2131     0.1761     2.5143 </r>
       <r>     0.2947     0.3246     2.5408 </r>
       <r>     0.3762     0.1264     2.5511 </r>
       <r>     0.4578     0.2348     2.5702 </r>
       <r>     0.5393     0.3046     2.5951 </r>
       <r>     0.6209     0.0954     2.6028 </r>
       <r>     0.7024     0.2799     2.6257 </r>
       <r>     0.7840     0.2699     2.6477 </r>
       <r>     0.8656     0.0969     2.6556 </r>
       <r>     0.9471     0.3083     2.6807 </r>
       <r>     1.0287     0.2252     2.6991 </r>
       <r>     1.1102     0.1236     2.7092 </r>
       <r>     1.1918     0.3224     2.7355 </r>
       <r>     1.2733     0.1769     2.7499 </r>
       <r>     1.3549     0.1640     2.7633 </r>
       <r>     1.4364     0.3247     2.7898 </r>
       <r>     1.5180     0.1325     2.8006 </r>
       <r>     1.5995     0.2080     2.8175 </r>
       <r>     1.6811     0.3165     2.8433 </r>
       <r>     1.7627     0.0997     2.8515 </r>
       <r>     1.8442     0.2490     2.8718 </r>
       <r>     1.9258     0.2976     2.8960 </r>
       <r>     2.0073     0.0836     2.9029 </r>
       <r>     2.0889     0.2840     2.9260 </r>
       <r>     2.1704     0.2682     2.9479 </r>
       <r>     2.2520     0.0869     2.9550 </r>
       <r>     2.3335     0.3118     2.9804 </r>
       <r>     2.4151     0.2286     2.9991 </r>
       <r>     2.4966     0.1092     3.0080 </r>
       <r>     2.5782     0.3302     3.0349 </r>
       <r>     2.6598     0.1825     3.0498 </r>
       <r>     2.7413     0.1471     3.0618 </r>
       <r>     2.8229     0.3381     3.0893 </r>
       <r>     2.9044     0.1382     3.1006 </r>
       <r>     2.9860     0.7462     3.1615 </r>
       <r>     3.0675     3.5235     3.4488 </r>
       <r>     3.1491     4.3725     3.8054 </r>
       <r>     3.2306     3.0676     4.0556 </r>
       <r>     3.3122     2.4263     4.2535 </r>
       <r>     3.3938     1.8843     4.4072 </r>
       <r>     3.4753     1.8993     4.5621 </r>
       <r>     3.5569     1.7097     4.7015 </r>
       <r>     3.6384     1.4437     4.8192 </r>
       <r>     3.7200     1.5973     4.9495 </r>
       <r>     3.8015     1.3820     5.0622 </r>
       <r>     3.8831     1.2945     5.1678 </r>
       <r>     3.9646     1.4428     5.2855 </r>
       <r>     4.0462     1.1683     5.3807 </r>
       <r>     4.1277     1.2385     5.4817 </r>
       <r>     4.2093     1.2808     5.5862 </r>
       <r>     4.2909     1.0563     5.6723 </r>
       <r>     4.3724     1.2569     5.7749 </r>
       <r>     4.4540     1.1138     5.8657 </r>
       <r>     4.5355     1.0483     5.9512 </r>
       <r>     4.6171     1.2456     6.0528 </r>
       <r>     4.6986     0.9663     6.1316 </r>
       <r>     4.7802     1.1288     6.2236 </r>
       <r>     4.8617     1.1526     6.3176 </r>
       <r>     4.9433     0.9739     6.3971 </r>
       <r>     5.0248     1.1645     6.4920 </r>
       <r>     5.1064     1.0423     6.5770 </r>
       <r>     5.1880     1.1345     6.6696 </r>
       <r>     5.2695     1.0556     6.7556 </r>
       <r>     5.3511     1.1892     6.8526 </r>
       <r>     5.4326     1.1687     6.9479 </r>
       <r>     5.5142     1.1740     7.0437 </r>
       <r>     5.5957     1.2876     7.1487 </r>
       <r>     5.6773     1.3909     7.2621 </r>
       <r>     5.7588     1.5801     7.3910 </r>
       <r>     5.8404     2.0077     7.5547 </r>
       <r>     5.9219     3.2201     7.8174 </r>
       <r>     6.0035     1.9729     7.9783 </r>
       <r>     6.0851     0.2653     7.9999 </r>
       <r>     6.1666     0.0013     8.0000 </r>
       <r>     6.2482     0.0000     8.0000 </r>
       <r>     6.3297     0.0023     8.0002 </r>
       <r>     6.4113     0.4252     8.0349 </r>
       <r>     6.4928     2.3180     8.2239 </r>
       <r>     6.5744     3.5473     8.5132 </r>
       <r>     6.6559     2.8300     8.7440 </r>
       <r>     6.7375     2.0070     8.9077 </r>
       <r>     6.8191     1.5770     9.0363 </r>
       <r>     6.9006     1.3967     9.1502 </r>
       <r>     6.9822     1.2705     9.2538 </r>
       <r>     7.0637     1.1792     9.3500 </r>
       <r>     7.1453     1.1172     9.4411 </r>
       <r>     7.2268     1.0481     9.5266 </r>
       <r>     7.3084     0.9921     9.6075 </r>
       <r>     7.3899     0.9829     9.6877 </r>
       <r>     7.4715     0.9012     9.7612 </r>
       <r>     7.5530     0.9096     9.8353 </r>
       <r>     7.6346     0.9295     9.9111 </r>
       <r>     7.7162     0.8053     9.9768 </r>
       <r>     7.7977     0.9583    10.0550 </r>
       <r>     7.8793     0.7434    10.1156 </r>
       <r>     7.9608     0.9656    10.1943 </r>
       <r>     8.0424     0.7440    10.2550 </r>
       <r>     8.1239     1.0044    10.3369 </r>
       <r>     8.2055     0.7751    10.4001 </r>
       <r>     8.2870     1.1201    10.4915 </r>
       <r>     8.3686     0.9187    10.5664 </r>
       <r>     8.4501     1.7549    10.7095 </r>
       <r>     8.5317     3.2091    10.9713 </r>
       <r>     8.6133     2.6479    11.1872 </r>
       <r>     8.6948     1.3245    11.2952 </r>
       <r>     8.7764     1.2338    11.3958 </r>
       <r>     8.8579     1.0416    11.4808 </r>
       <r>     8.9395     0.9305    11.5567 </r>
       <r>     9.0210     1.1050    11.6468 </r>
       <r>     9.1026     0.7159    11.7052 </r>
       <r>     9.1841     1.0331    11.7894 </r>
       <r>     9.2657     0.7830    11.8533 </r>
       <r>     9.3472     0.7562    11.9150 </r>
       <r>     9.4288     1.5346    12.0401 </r>
       <r>     9.5104     1.5714    12.1683 </r>
       <r>     9.5919     1.6889    12.3060 </r>
       <r>     9.6735     0.9172    12.3808 </r>
       <r>     9.7550     1.4253    12.4971 </r>
       <r>     9.8366     1.0282    12.5809 </r>
       <r>     9.9181     1.0505    12.6666 </r>
       <r>     9.9997     1.3539    12.7770 </r>
       <r>    10.0812     0.7554    12.8386 </r>
       <r>    10.1628     1.5975    12.9689 </r>
       <r>    10.2444     0.7847    13.0329 </r>
       <r>    10.3259     1.5181    13.1567 </r>
       <r>    10.4075     1.6268    13.2894 </r>
       <r>    10.4890     1.5599    13.4166 </r>
       <r>    10.5706     0.8227    13.4837 </r>
       <r>    10.6521     0.3014    13.5083 </r>
       <r>    10.7337     0.4702    13.5466 </r>
       <r>    10.8152     0.6025    13.5958 </r>
       <r>    10.8968     0.2778    13.6184 </r>
       <r>    10.9783     0.5908    13.6666 </r>
       <r>    11.0599     0.4338    13.7020 </r>
       <r>    11.1415     0.3349    13.7293 </r>
       <r>    11.2230     0.6391    13.7814 </r>
       <r>    11.3046     0.3283    13.8082 </r>
       <r>    11.3861     0.4057    13.8413 </r>
       <r>    11.4677     0.6045    13.8906 </r>
       <r>    11.5492     0.3023    13.9152 </r>
       <r>    11.6308     0.4688    13.9535 </r>
       <r>    11.7123     0.5268    13.9964 </r>
       <r>    11.7939     0.3089    14.0216 </r>
       <r>    11.8754     0.5296    14.0648 </r>
       <r>    11.9570     0.4440    14.1010 </r>
       <r>    12.0386     0.3215    14.1273 </r>
       <r>    12.1201     0.5572    14.1727 </r>
       <r>    12.2017     0.4020    14.2055 </r>
       <r>    12.2832     0.3365    14.2329 </r>
       <r>    12.3648     0.5612    14.2787 </r>
       <r>    12.4463     0.3794    14.3096 </r>
       <r>    12.5279     0.3558    14.3386 </r>
       <r>    12.6094     0.5414    14.3828 </r>
       <r>    12.6910     0.3777    14.4136 </r>
       <r>    12.7725     0.3755    14.4442 </r>
       <r>    12.8541     0.5099    14.4858 </r>
       <r>    12.9357     0.3815    14.5169 </r>
       <r>    13.0172     0.3959    14.5492 </r>
       <r>    13.0988     0.4765    14.5881 </r>
       <r>    13.1803     0.3858    14.6195 </r>
       <r>    13.2619     0.4146    14.6533 </r>
       <r>    13.3434     0.4466    14.6898 </r>
       <r>    13.4250     0.3884    14.7214 </r>
       <r>    13.5065     0.4305    14.7565 </r>
       <r>    13.5881     0.4228    14.7910 </r>
       <r>    13.6697     0.3909    14.8229 </r>
       <r>    13.7512     0.4405    14.8588 </r>
       <r>    13.8328     0.4049    14.8918 </r>
       <r>    13.9143     0.3928    14.9239 </r>
       <r>    13.9959     0.4443    14.9601 </r>
       <r>    14.0774     0.3933    14.9922 </r>
       <r>    14.1590     0.3965    15.0245 </r>
       <r>    14.2405     0.4472    15.0610 </r>
       <r>    14.3221     0.3815    15.0921 </r>
       <r>    14.4036     0.4026    15.1249 </r>
       <r>    14.4852     0.4476    15.1614 </r>
       <r>    14.5668     0.3727    15.1918 </r>
       <r>    14.6483     0.4080    15.2251 </r>
       <r>    14.7299     0.4472    15.2616 </r>
       <r>    14.8114     0.3587    15.2908 </r>
       <r>    14.8930     0.4202    15.3251 </r>
       <r>    14.9745     0.4494    15.3618 </r>
       <r>    15.0561     0.3552    15.3907 </r>
       <r>    15.1376     0.4258    15.4254 </r>
       <r>    15.2192     0.4552    15.4626 </r>
       <r>    15.3007     0.3520    15.4913 </r>
       <r>    15.3823     0.4308    15.5264 </r>
       <r>    15.4639     0.4680    15.5646 </r>
       <r>    15.5454     0.3613    15.5940 </r>
       <r>    15.6270     0.4366    15.6297 </r>
       <r>    15.7085     0.4856    15.6693 </r>
       <r>    15.7901     0.4118    15.7028 </r>
       <r>    15.8716     0.4831    15.7422 </r>
       <r>    15.9532     0.4776    15.7812 </r>
       <r>    16.0347     0.6243    15.8321 </r>
       <r>    16.1163     0.9651    15.9108 </r>
       <r>    16.1978     1.0347    15.9952 </r>
       <r>    16.2794     0.0590    16.0000 </r>
       <r>    16.3610     0.0000    16.0000 </r>
       <r>    16.4425     0.0000    16.0000 </r>
       <r>    16.5241     0.0000    16.0000 </r>
       <r>    16.6056     0.0000    16.0000 </r>
       <r>    16.6872     0.0000    16.0000 </r>
       <r>    16.7687     0.0000    16.0000 </r>
       <r>    16.8503     0.0000    16.0000 </r>
       <r>    16.9318     0.0000    16.0000 </r>
       <r>    17.0134     0.0000    16.0000 </r>
       <r>    17.0950     0.0000    16.0000 </r>
       <r>    17.1765     0.0000    16.0000 </r>
       <r>    17.2581     0.0000    16.0000 </r>
      </set>
     </set>
    </array>
   </total>
   <partial>
    <array>
     <dimension dim="1">gridpoints</dimension>
     <dimension dim="2">spin</dimension>
     <dimension dim="3">ion</dimension>
     <field>energy</field>
     <field>    s</field>
     <field>   py</field>
     <field>   pz</field>
     <field>   px</field>
     <field>  dxy</field>
     <field>  dyz</field>
     <field>  dz2</field>
     <field>  dxz</field>
     <field>x2-y2</field>
     <set>
      <set comment="ion 1">
       <set comment="spin 1">
        <r>    -7.2084     0.0000     0.0000     0.0000     0.0000     0.0000     0.0000     0.0000     0.0000     0.0000 </r>
        <r>    -7.1268     0.0000     0.0000     0.0000     0.0000     0.0000     0.0000     0.0000     0.0000     0.0000 </r>
        <r>    -7.0453     0.0000     0.0000     0.0000     0.0000     0.0000     0.0000     0.0000     0.0000     0.0000 </r>
        <r>    -6.9637     0.0000     0.0000     0.0000     0.0000     0.0000     0.0000     0.0000     0.0000     0.0000 </r>
        <r>    -6.8821     0.0000     0.0000     0.0000     0.0000     0.0000     0.0000     0.0000     0.0000     0.0000 </r>
        <r>    -6.8006     0.0000     0.0000     0.0000     0.0000     0.0000     0.0000     0.0000     0.0000     0.0000 </r>
        <r>    -6.7190     0.0000     0.0000     0.0000     0.0000     0.0000     0.0000     0.0000     0.0000     0.0000 </r>
        <r>    -6.6375     0.0000     0.0000     0.0000     0.0000     0.0000     0.0000     0.0000     0.0000     0.0000 </r>
        <r>    -6.5559     0.0000     0.0000     0.0000     0.0000     0.0000     0.0000     0.0000     0.0000     0.0000 </r>
        <r>    -6.4744     0.0000     0.0000     0.0000     0.0000     0.0000     0.0000     0.0000     0.0000     0.0000 </r>
        <r>    -6.3928     0.0000     0.0000     0.0000     0.0000     0.0000     0.0000     0.0000     0.0000     0.0000 </r>
        <r>    -6.3113     0.0000     0.0000     0.0000     0.0000     0.0000     0.0000     0.0000     0.0000     0.0000 </r>
        <r>    -6.2297     0.0000     0.0000     0.0000     0.0000     0.0000     0.0000     0.0000     0.0000     0.0000 </r>
        <r>    -6.1482     0.0242     0.0000     0.0000     0.0000     0.0000     0.0000     0.0000     0.0000     0.0000 </r>
        <r>    -6.0666     0.4028     0.0002     0.0000     0.0002     0.0000     0.0000     0.0000     0.0000     0.0000 </r>
        <r>    -5.9850     0.4378     0.0007     0.0000     0.0006     0.0000     0.0000     0.0000     0.0000     0.0000 </r>
        <r>    -5.9035     0.2635     0.0010     0.0000     0.0010     0.0000     0.0000     0.0000     0.0000     0.0000 </r>
        <r>    -5.8219     0.2075     0.0013     0.0000     0.0012     0.0000     0.0000     0.0000     0.0000     0.0000 </r>
        <r>    -5.7404     0.1775     0.0015     0.0000     0.0014     0.0000     0.0000     0.0000     0.0000     0.0000 </r>
        <r>    -5.6588     0.1577     0.0016     0.0000     0.0016     0.0000     0.0000     0.0000     0.0000     0.0000 </r>
        <r>    -5.5773     0.1433     0.0018     0.0000     0.0018     0.0000     0.0000     0.0000     0.0000     0.0000 </r>
        <r>    -5.4957     0.1324     0.0020     0.0000     0.0019     0.0000     0.0000     0.0000     0.0000     0.0000 </r>
        <r>    -5.4142     0.1241     0.0021     0.0000     0.0021     0.0000     0.0000     0.0000     0.0000     0.0000 </r>
        <r>    -5.3326     0.1172     0.0023     0.0000     0.0022     0.0000     0.0000     0.0000     0.0000     0.0000 </r>
        <r>    -5.2511     0.1097     0.0024     0.0000     0.0023     0.0000     0.0000     0.0000     0.0000     0.0000 </r>
        <r>    -5.1695     0.1014     0.0024     0.0000     0.0023     0.0000     0.0000     0.0000     0.0000     0.0000 </r>
        <r>    -5.0879     0.0976     0.0025     0.0000     0.0025     0.0000     0.0000     0.0000     0.0000     0.0000 </r>
        <r>    -5.0064     0.1012     0.0028     0.0000     0.0028     0.0000     0.0000     0.0000     0.0000     0.0000 </r>
        <r>    -4.9248     0.0962     0.0031     0.0000     0.0028     0.0000     0.0000     0.0000     0.0000     0.0000 </r>
        <r>    -4.8433     0.0805     0.0027     0.0000     0.0025     0.0000     0.0000     0.0000     0.0000     0.0000 </r>
        <r>    -4.7617     0.0881     0.0028     0.0000     0.0032     0.0000     0.0000     0.0000     0.0000     0.0000 </r>
        <r>    -4.6802     0.0930     0.0036     0.0000     0.0033     0.0000     0.0000     0.0000     0.0000     0.0000 </r>
        <r>    -4.5986     0.0688     0.0029     0.0000     0.0025     0.0000     0.0000     0.0000     0.0000     0.0000 </r>
        <r>    -4.5171     0.0856     0.0031     0.0000     0.0038     0.0000     0.0000     0.0000     0.0000     0.0000 </r>
        <r>    -4.4355     0.0812     0.0041     0.0000     0.0031     0.0000     0.0000     0.0000     0.0000     0.0000 </r>
        <r>    -4.3539     0.0623     0.0025     0.0000     0.0031     0.0000     0.0000     0.0000     0.0000     0.0000 </r>
        <r>    -4.2724     0.0906     0.0044     0.0000     0.0043     0.0000     0.0000     0.0000     0.0000     0.0000 </r>
        <r>    -4.1908     0.0552     0.0032     0.0000     0.0024     0.0000     0.0000     0.0000     0.0000     0.0000 </r>
        <r>    -4.1093     0.0831     0.0038     0.0000     0.0049     0.0000     0.0000     0.0000     0.0000     0.0000 </r>
        <r>    -4.0277     0.0613     0.0043     0.0000     0.0025     0.0000     0.0000     0.0000     0.0000     0.0000 </r>
        <r>    -3.9462     0.0699     0.0030     0.0000     0.0049     0.0000     0.0000     0.0000     0.0000     0.0000 </r>
        <r>    -3.8646     0.0686     0.0053     0.0000     0.0030     0.0000     0.0000     0.0000     0.0000     0.0000 </r>
        <r>    -3.7831     0.0592     0.0025     0.0000     0.0047     0.0000     0.0000     0.0000     0.0000     0.0000 </r>
        <r>    -3.7015     0.0724     0.0059     0.0000     0.0035     0.0000     0.0000     0.0000     0.0000     0.0000 </r>
        <r>    -3.6200     0.0529     0.0023     0.0000     0.0046     0.0000     0.0000     0.0000     0.0000     0.0000 </r>
        <r>    -3.5384     0.0724     0.0064     0.0000     0.0037     0.0000     0.0000     0.0000     0.0000     0.0000 </r>
        <r>    -3.4568     0.0506     0.0022     0.0000     0.0049     0.0000     0.0000     0.0000     0.0000     0.0000 </r>
        <r>    -3.3753     0.0690     0.0067     0.0000     0.0035     0.0000     0.0000     0.0000     0.0000     0.0000 </r>
        <r>    -3.2937     0.0522     0.0022     0.0000     0.0056     0.0000     0.0000     0.0000     0.0000     0.0000 </r>
        <r>    -3.2122     0.0619     0.0069     0.0000     0.0030     0.0000     0.0000     0.0000     0.0000     0.0000 </r>
        <r>    -3.1306     0.0579     0.0026     0.0000     0.0066     0.0000     0.0000     0.0000     0.0000     0.0000 </r>
        <r>    -3.0491     0.0513     0.0065     0.0000     0.0022     0.0000     0.0000     0.0000     0.0000     0.0000 </r>
        <r>    -2.9675     0.0668     0.0037     0.0000     0.0077     0.0000     0.0000     0.0000     0.0000     0.0000 </r>
        <r>    -2.8860     0.0390     0.0053     0.0000     0.0017     0.0000     0.0000     0.0000     0.0000     0.0000 </r>
        <r>    -2.8044     0.0752     0.0055     0.0000     0.0080     0.0000     0.0000     0.0000     0.0000     0.0000 </r>
        <r>    -2.7229     0.0304     0.0034     0.0000     0.0023     0.0000     0.0000     0.0000     0.0000     0.0000 </r>
        <r>    -2.6413     0.0763     0.0078     0.0000     0.0068     0.0000     0.0000     0.0000     0.0000     0.0000 </r>
        <r>    -2.5597     0.0328     0.0018     0.0000     0.0046     0.0000     0.0000     0.0000     0.0000     0.0000 </r>
        <r>    -2.4782     0.0647     0.0092     0.0000     0.0040     0.0000     0.0000     0.0000     0.0000     0.0000 </r>
        <r>    -2.3966     0.0488     0.0020     0.0000     0.0079     0.0000     0.0000     0.0000     0.0000     0.0000 </r>
        <r>    -2.3151     0.0433     0.0076     0.0000     0.0017     0.0000     0.0000     0.0000     0.0000     0.0000 </r>
        <r>    -2.2335     0.0677     0.0049     0.0000     0.0096     0.0000     0.0000     0.0000     0.0000     0.0000 </r>
        <r>    -2.1520     0.0268     0.0038     0.0000     0.0022     0.0000     0.0000     0.0000     0.0000     0.0000 </r>
        <r>    -2.0704     0.0714     0.0092     0.0000     0.0070     0.0000     0.0000     0.0000     0.0000     0.0000 </r>
        <r>    -1.9889     0.0370     0.0022     0.0000     0.0062     0.0000     0.0000     0.0000     0.0000     0.0000 </r>
        <r>    -1.9073     0.1045     0.0202     0.0000     0.0049     0.0000     0.0000     0.0000     0.0000     0.0000 </r>
        <r>    -1.8258     0.1158     0.0066     0.0000     0.0211     0.0000     0.0000     0.0000     0.0000     0.0000 </r>
        <r>    -1.7442     0.0330     0.0054     0.0000     0.0028     0.0000     0.0000     0.0000     0.0000     0.0000 </r>
        <r>    -1.6626     0.0694     0.0091     0.0000     0.0084     0.0000     0.0000     0.0000     0.0000     0.0000 </r>
        <r>    -1.5811     0.0296     0.0014     0.0000     0.0061     0.0000     0.0000     0.0000     0.0000     0.0000 </r>
        <r>    -1.4995     0.0515     0.0113     0.0000     0.0025     0.0000     0.0000     0.0000     0.0000     0.0000 </r>
        <r>    -1.4180     0.0567     0.0034     0.0000     0.0117     0.0000     0.0000     0.0000     0.0000     0.0000 </r>
        <r>    -1.3364     0.0246     0.0051     0.0000     0.0017     0.0000     0.0000     0.0000     0.0000     0.0000 </r>
        <r>    -1.2549     0.0660     0.0107     0.0000     0.0079     0.0000     0.0000     0.0000     0.0000     0.0000 </r>
        <r>    -1.1733     0.0331     0.0011     0.0000     0.0081     0.0000     0.0000     0.0000     0.0000     0.0000 </r>
        <r>    -1.0918     0.0427     0.0111     0.0000     0.0015     0.0000     0.0000     0.0000     0.0000     0.0000 </r>
        <r>    -1.0102     0.0610     0.0054     0.0000     0.0126     0.0000     0.0000     0.0000     0.0000     0.0000 </r>
        <r>    -0.9287     0.0208     0.0031     0.0000     0.0032     0.0000     0.0000     0.0000     0.0000     0.0000 </r>
        <r>    -0.8471     0.0587     0.0133     0.0000     0.0050     0.0000     0.0000     0.0000     0.0000     0.0000 </r>
        <r>    -0.7655     0.0446     0.0017     0.0000     0.0121     0.0000     0.0000     0.0000     0.0000     0.0000 </r>
        <r>    -0.6840     0.0280     0.0081     0.0000     0.0011     0.0000     0.0000     0.0000     0.0000     0.0000 </r>
        <r>    -0.6024     0.0629     0.0102     0.0000     0.0104     0.0000     0.0000     0.0000     0.0000     0.0000 </r>
        <r>    -0.5209     0.0274     0.0011     0.0000     0.0078     0.0000     0.0000     0.0000     0.0000     0.0000 </r>
        <r>    -0.4393     0.0430     0.0132     0.0000     0.0016     0.0000     0.0000     0.0000     0.0000     0.0000 </r>
        <r>    -0.3578     0.0576     0.0054     0.0000     0.0142     0.0000     0.0000     0.0000     0.0000     0.0000 </r>
        <r>    -0.2762     0.0189     0.0030     0.0000     0.0036     0.0000     0.0000     0.0000     0.0000     0.0000 </r>
        <r>    -0.1947     0.0543     0.0152     0.0000     0.0044     0.0000     0.0000     0.0000     0.0000     0.0000 </r>
        <r>    -0.1131     0.0467     0.0022     0.0000     0.0145     0.0000     0.0000     0.0000     0.0000     0.0000 </r>
        <r>    -0.0315     0.0220     0.0069     0.0000     0.0014     0.0000     0.0000     0.0000     0.0000     0.0000 </r>
        <r>     0.0500     0.0590     0.0135     0.0000     0.0088     0.0000     0.0000     0.0000     0.0000     0.0000 </r>
        <r>     0.1316     0.0337     0.0010     0.0000     0.0117     0.0000     0.0000     0.0000     0.0000     0.0000 </r>
        <r>     0.2131     0.0316     0.0117     0.0000     0.0009     0.0000     0.0000     0.0000     0.0000     0.0000 </r>
        <r>     0.2947     0.0585     0.0098     0.0000     0.0134     0.0000     0.0000     0.0000     0.0000     0.0000 </r>
        <r>     0.3762     0.0228     0.0012     0.0000     0.0078     0.0000     0.0000     0.0000     0.0000     0.0000 </r>
        <r>     0.4578     0.0417     0.0158     0.0000     0.0018     0.0000     0.0000     0.0000     0.0000     0.0000 </r>
        <r>     0.5393     0.0544     0.0060     0.0000     0.0166     0.0000     0.0000     0.0000     0.0000     0.0000 </r>
        <r>     0.6209     0.0170     0.0027     0.0000     0.0044     0.0000     0.0000     0.0000     0.0000     0.0000 </r>
        <r>     0.7024     0.0492     0.0179     0.0000     0.0038     0.0000     0.0000     0.0000     0.0000     0.0000 </r>
        <r>     0.7840     0.0477     0.0032     0.0000     0.0176     0.0000     0.0000     0.0000     0.0000     0.0000 </r>
        <r>     0.8656     0.0169     0.0055     0.0000     0.0022     0.0000     0.0000     0.0000     0.0000     0.0000 </r>
        <r>     0.9471     0.0535     0.0177     0.0000     0.0071     0.0000     0.0000     0.0000     0.0000     0.0000 </r>
        <r>     1.0287     0.0394     0.0016     0.0000     0.0164     0.0000     0.0000     0.0000     0.0000     0.0000 </r>
        <r>     1.1102     0.0212     0.0091     0.0000     0.0011     0.0000     0.0000     0.0000     0.0000     0.0000 </r>
        <r>     1.1918     0.0553     0.0157     0.0000     0.0111     0.0000     0.0000     0.0000     0.0000     0.0000 </r>
        <r>     1.2733     0.0305     0.0010     0.0000     0.0137     0.0000     0.0000     0.0000     0.0000     0.0000 </r>
        <r>     1.3549     0.0276     0.0133     0.0000     0.0009     0.0000     0.0000     0.0000     0.0000     0.0000 </r>
        <r>     1.4364     0.0549     0.0127     0.0000     0.0153     0.0000     0.0000     0.0000     0.0000     0.0000 </r>
        <r>     1.5180     0.0225     0.0010     0.0000     0.0104     0.0000     0.0000     0.0000     0.0000     0.0000 </r>
        <r>     1.5995     0.0344     0.0173     0.0000     0.0014     0.0000     0.0000     0.0000     0.0000     0.0000 </r>
        <r>     1.6811     0.0527     0.0095     0.0000     0.0189     0.0000     0.0000     0.0000     0.0000     0.0000 </r>
        <r>     1.7627     0.0166     0.0018     0.0000     0.0071     0.0000     0.0000     0.0000     0.0000     0.0000 </r>
        <r>     1.8442     0.0405     0.0205     0.0000     0.0028     0.0000     0.0000     0.0000     0.0000     0.0000 </r>
        <r>     1.9258     0.0487     0.0064     0.0000     0.0211     0.0000     0.0000     0.0000     0.0000     0.0000 </r>
        <r>     2.0073     0.0135     0.0034     0.0000     0.0045     0.0000     0.0000     0.0000     0.0000     0.0000 </r>
        <r>     2.0889     0.0453     0.0223     0.0000     0.0052     0.0000     0.0000     0.0000     0.0000     0.0000 </r>
        <r>     2.1704     0.0431     0.0040     0.0000     0.0217     0.0000     0.0000     0.0000     0.0000     0.0000 </r>
        <r>     2.2520     0.0136     0.0061     0.0000     0.0025     0.0000     0.0000     0.0000     0.0000     0.0000 </r>
        <r>     2.3335     0.0486     0.0225     0.0000     0.0088     0.0000     0.0000     0.0000     0.0000     0.0000 </r>
        <r>     2.4151     0.0359     0.0023     0.0000     0.0204     0.0000     0.0000     0.0000     0.0000     0.0000 </r>
        <r>     2.4966     0.0166     0.0099     0.0000     0.0014     0.0000     0.0000     0.0000     0.0000     0.0000 </r>
        <r>     2.5782     0.0503     0.0209     0.0000     0.0134     0.0000     0.0000     0.0000     0.0000     0.0000 </r>
        <r>     2.6598     0.0280     0.0014     0.0000     0.0175     0.0000     0.0000     0.0000     0.0000     0.0000 </r>
        <r>     2.7413     0.0217     0.0148     0.0000     0.0011     0.0000     0.0000     0.0000     0.0000     0.0000 </r>
        <r>     2.8229     0.0501     0.0177     0.0000     0.0187     0.0000     0.0000     0.0000     0.0000     0.0000 </r>
        <r>     2.9044     0.0201     0.0015     0.0003     0.0133     0.0000     0.0000     0.0000     0.0000     0.0000 </r>
        <r>     2.9860     0.0281     0.0745     0.0547     0.0022     0.0000     0.0000     0.0000     0.0000     0.0000 </r>
        <r>     3.0675     0.0476     0.2664     0.3176     0.0882     0.0000     0.0000     0.0000     0.0000     0.0000 </r>
        <r>     3.1491     0.0140     0.1699     0.4257     0.2672     0.0000     0.0000     0.0000     0.0000     0.0000 </r>
        <r>     3.2306     0.0345     0.1411     0.2807     0.1689     0.0000     0.0000     0.0000     0.0000     0.0000 </r>
        <r>     3.3122     0.0423     0.1043     0.2115     0.1424     0.0000     0.0000     0.0000     0.0000     0.0000 </r>
        <r>     3.3938     0.0111     0.0884     0.1797     0.1010     0.0000     0.0000     0.0000     0.0000     0.0000 </r>
        <r>     3.4753     0.0399     0.1032     0.1595     0.0924     0.0000     0.0000     0.0000     0.0000     0.0000 </r>
        <r>     3.5569     0.0343     0.0738     0.1451     0.1019     0.0000     0.0000     0.0000     0.0000     0.0000 </r>
        <r>     3.6384     0.0127     0.0745     0.1342     0.0720     0.0000     0.0000     0.0000     0.0000     0.0000 </r>
        <r>     3.7200     0.0430     0.0874     0.1258     0.0806     0.0000     0.0000     0.0000     0.0000     0.0000 </r>
        <r>     3.8015     0.0243     0.0601     0.1192     0.0825     0.0000     0.0000     0.0000     0.0000     0.0000 </r>
        <r>     3.8831     0.0188     0.0744     0.1139     0.0597     0.0000     0.0000     0.0000     0.0000     0.0000 </r>
        <r>     3.9646     0.0423     0.0745     0.1094     0.0804     0.0000     0.0000     0.0000     0.0000     0.0000 </r>
        <r>     4.0462     0.0148     0.0529     0.1047     0.0677     0.0000     0.0000     0.0000     0.0000     0.0000 </r>
        <r>     4.1277     0.0273     0.0759     0.1002     0.0567     0.0000     0.0000     0.0000     0.0000     0.0000 </r>
        <r>     4.2093     0.0359     0.0587     0.0976     0.0802     0.0000     0.0000     0.0000     0.0000     0.0000 </r>
        <r>     4.2909     0.0106     0.0570     0.0969     0.0523     0.0000     0.0000     0.0000     0.0000     0.0000 </r>
        <r>     4.3724     0.0342     0.0799     0.0934     0.0604     0.0000     0.0000     0.0000     0.0000     0.0000 </r>
        <r>     4.4540     0.0244     0.0451     0.0889     0.0766     0.0000     0.0000     0.0000     0.0000     0.0000 </r>
        <r>     4.5355     0.0156     0.0644     0.0910     0.0474     0.0000     0.0000     0.0000     0.0000     0.0000 </r>
        <r>     4.6171     0.0344     0.0722     0.0911     0.0694     0.0000     0.0000     0.0000     0.0000     0.0000 </r>
        <r>     4.6986     0.0129     0.0450     0.0828     0.0605     0.0000     0.0000     0.0000     0.0000     0.0000 </r>
        <r>     4.7802     0.0254     0.0744     0.0861     0.0548     0.0000     0.0000     0.0000     0.0000     0.0000 </r>
        <r>     4.8617     0.0245     0.0566     0.0915     0.0728     0.0000     0.0000     0.0000     0.0000     0.0000 </r>
        <r>     4.9433     0.0135     0.0633     0.0802     0.0479     0.0000     0.0000     0.0000     0.0000     0.0000 </r>
        <r>     5.0248     0.0275     0.0635     0.0833     0.0764     0.0000     0.0000     0.0000     0.0000     0.0000 </r>
        <r>     5.1064     0.0124     0.0592     0.0934     0.0545     0.0000     0.0000     0.0000     0.0000     0.0000 </r>
        <r>     5.1880     0.0221     0.0796     0.0812     0.0611     0.0000     0.0000     0.0000     0.0000     0.0000 </r>
        <r>     5.2695     0.0160     0.0475     0.0836     0.0781     0.0000     0.0000     0.0000     0.0000     0.0000 </r>
        <r>     5.3511     0.0163     0.0902     0.0972     0.0507     0.0000     0.0000     0.0000     0.0000     0.0000 </r>
        <r>     5.4326     0.0163     0.0600     0.0905     0.0842     0.0000     0.0000     0.0000     0.0000     0.0000 </r>
        <r>     5.5142     0.0133     0.0862     0.0899     0.0628     0.0000     0.0000     0.0000     0.0000     0.0000 </r>
        <r>     5.5957     0.0138     0.0731     0.1035     0.0870     0.0000     0.0000     0.0000     0.0000     0.0000 </r>
        <r>     5.6773     0.0111     0.1020     0.1137     0.0732     0.0000     0.0000     0.0000     0.0000     0.0000 </r>
        <r>     5.7588     0.0105     0.1075     0.1270     0.0970     0.0000     0.0000     0.0000     0.0000     0.0000 </r>
        <r>     5.8404     0.0080     0.1462     0.1690     0.1124     0.0000     0.0000     0.0000     0.0000     0.0000 </r>
        <r>     5.9219     0.0049     0.2570     0.2841     0.1545     0.0000     0.0000     0.0000     0.0000     0.0000 </r>
        <r>     6.0035     0.0016     0.0837     0.0914     0.2521     0.0000     0.0000     0.0000     0.0000     0.0000 </r>
        <r>     6.0851     0.0001     0.0008     0.0009     0.0558     0.0000     0.0000     0.0000     0.0000     0.0000 </r>
        <r>     6.1666     0.0000     0.0000     0.0000     0.0003     0.0000     0.0000     0.0000     0.0000     0.0000 </r>
        <r>     6.2482     0.0000     0.0000     0.0000     0.0000     0.0000     0.0000     0.0000     0.0000     0.0000 </r>
        <r>     6.3297     0.0001     0.0000     0.0000     0.0001     0.0000     0.0000     0.0000     0.0000     0.0000 </r>
        <r>     6.4113     0.0227     0.0000     0.0000     0.0186     0.0000     0.0000     0.0000     0.0000     0.0000 </r>
        <r>     6.4928     0.1234     0.0128     0.0000     0.0891     0.0000     0.0000     0.0000     0.0000     0.0000 </r>
        <r>     6.5744     0.1876     0.0848     0.0000     0.0701     0.0000     0.0000     0.0000     0.0000     0.0000 </r>
        <r>     6.6559     0.1471     0.0731     0.0000     0.0523     0.0000     0.0000     0.0000     0.0000     0.0000 </r>
        <r>     6.7375     0.1019     0.0528     0.0000     0.0407     0.0000     0.0000     0.0000     0.0000     0.0000 </r>
        <r>     6.8191     0.0779     0.0410     0.0000     0.0369     0.0000     0.0000     0.0000     0.0000     0.0000 </r>
        <r>     6.9006     0.0673     0.0371     0.0000     0.0346     0.0000     0.0000     0.0000     0.0000     0.0000 </r>
        <r>     6.9822     0.0596     0.0348     0.0000     0.0330     0.0000     0.0000     0.0000     0.0000     0.0000 </r>
        <r>     7.0637     0.0539     0.0332     0.0000     0.0321     0.0000     0.0000     0.0000     0.0000     0.0000 </r>
        <r>     7.1453     0.0496     0.0320     0.0000     0.0319     0.0000     0.0000     0.0000     0.0000     0.0000 </r>
        <r>     7.2268     0.0452     0.0315     0.0000     0.0309     0.0000     0.0000     0.0000     0.0000     0.0000 </r>
        <r>     7.3084     0.0415     0.0317     0.0000     0.0297     0.0000     0.0000     0.0000     0.0000     0.0000 </r>
        <r>     7.3899     0.0399     0.0309     0.0000     0.0311     0.0000     0.0000     0.0000     0.0000     0.0000 </r>
        <r>     7.4715     0.0351     0.0300     0.0000     0.0307     0.0000     0.0000     0.0000     0.0000     0.0000 </r>
        <r>     7.5530     0.0344     0.0319     0.0000     0.0307     0.0000     0.0000     0.0000     0.0000     0.0000 </r>
        <r>     7.6346     0.0339     0.0311     0.0000     0.0343     0.0000     0.0000     0.0000     0.0000     0.0000 </r>
        <r>     7.7162     0.0273     0.0323     0.0000     0.0313     0.0000     0.0000     0.0000     0.0000     0.0000 </r>
        <r>     7.7977     0.0327     0.0350     0.0000     0.0349     0.0000     0.0000     0.0000     0.0000     0.0000 </r>
        <r>     7.8793     0.0220     0.0331     0.0000     0.0326     0.0000     0.0000     0.0000     0.0000     0.0000 </r>
        <r>     7.9608     0.0301     0.0377     0.0000     0.0378     0.0000     0.0000     0.0000     0.0000     0.0000 </r>
        <r>     8.0424     0.0186     0.0353     0.0000     0.0375     0.0000     0.0000     0.0000     0.0000     0.0000 </r>
        <r>     8.1239     0.0277     0.0421     0.0000     0.0436     0.0000     0.0000     0.0000     0.0000     0.0000 </r>
        <r>     8.2055     0.0150     0.0414     0.0000     0.0439     0.0000     0.0000     0.0000     0.0000     0.0000 </r>
        <r>     8.2870     0.0259     0.0514     0.0000     0.0544     0.0000     0.0000     0.0000     0.0000     0.0000 </r>
        <r>     8.3686     0.0107     0.0551     0.0000     0.0613     0.0000     0.0000     0.0000     0.0000     0.0000 </r>
        <r>     8.4501     0.0236     0.0835     0.0033     0.1191     0.0000     0.0000     0.0000     0.0000     0.0000 </r>
        <r>     8.5317     0.0060     0.1792     0.1072     0.1864     0.0000     0.0000     0.0000     0.0000     0.0000 </r>
        <r>     8.6133     0.0185     0.1209     0.1580     0.0741     0.0000     0.0000     0.0000     0.0000     0.0000 </r>
        <r>     8.6948     0.0074     0.0492     0.0925     0.0420     0.0000     0.0000     0.0000     0.0000     0.0000 </r>
        <r>     8.7764     0.0127     0.0426     0.0742     0.0409     0.0000     0.0000     0.0000     0.0000     0.0000 </r>
        <r>     8.8579     0.0143     0.0314     0.0546     0.0385     0.0000     0.0000     0.0000     0.0000     0.0000 </r>
        <r>     8.9395     0.0054     0.0376     0.0692     0.0255     0.0000     0.0000     0.0000     0.0000     0.0000 </r>
        <r>     9.0210     0.0209     0.0311     0.0471     0.0423     0.0000     0.0000     0.0000     0.0000     0.0000 </r>
        <r>     9.1026     0.0035     0.0288     0.0562     0.0200     0.0000     0.0000     0.0000     0.0000     0.0000 </r>
        <r>     9.1841     0.0185     0.0326     0.0482     0.0389     0.0000     0.0000     0.0000     0.0000     0.0000 </r>
        <r>     9.2657     0.0106     0.0272     0.0503     0.0218     0.0000     0.0000     0.0000     0.0000     0.0000 </r>
        <r>     9.3472     0.0116     0.0257     0.0426     0.0331     0.0000     0.0000     0.0000     0.0000     0.0000 </r>
        <r>     9.4288     0.2056     0.0350     0.0542     0.0259     0.0000     0.0000     0.0000     0.0000     0.0000 </r>
        <r>     9.5104     0.3754     0.0171     0.0319     0.0315     0.0000     0.0000     0.0000     0.0000     0.0000 </r>
        <r>     9.5919     0.2238     0.0466     0.0628     0.0292     0.0000     0.0000     0.0000     0.0000     0.0000 </r>
        <r>     9.6735     0.1477     0.0129     0.0229     0.0324     0.0000     0.0000     0.0000     0.0000     0.0000 </r>
        <r>     9.7550     0.1642     0.0493     0.0643     0.0311     0.0000     0.0000     0.0000     0.0000     0.0000 </r>
        <r>     9.8366     0.1306     0.0209     0.0259     0.0332     0.0000     0.0000     0.0000     0.0000     0.0000 </r>
        <r>     9.9181     0.1114     0.0359     0.0482     0.0335     0.0000     0.0000     0.0000     0.0000     0.0000 </r>
        <r>     9.9997     0.1542     0.0420     0.0456     0.0367     0.0000     0.0000     0.0000     0.0000     0.0000 </r>
        <r>    10.0812     0.0843     0.0179     0.0270     0.0348     0.0000     0.0000     0.0000     0.0000     0.0000 </r>
        <r>    10.1628     0.1670     0.0621     0.0619     0.0433     0.0000     0.0000     0.0000     0.0000     0.0000 </r>
        <r>    10.2444     0.0981     0.0189     0.0224     0.0347     0.0000     0.0000     0.0000     0.0000     0.0000 </r>
        <r>    10.3259     0.1725     0.0573     0.0476     0.0517     0.0000     0.0000     0.0000     0.0000     0.0000 </r>
        <r>    10.4075     0.2126     0.0600     0.0439     0.0577     0.0000     0.0000     0.0000     0.0000     0.0000 </r>
        <r>    10.4890     0.2282     0.0495     0.0256     0.0691     0.0000     0.0000     0.0000     0.0000     0.0000 </r>
        <r>    10.5706     0.0242     0.0427     0.0586     0.0235     0.0000     0.0000     0.0000     0.0000     0.0000 </r>
        <r>    10.6521     0.0000     0.0064     0.0256     0.0181     0.0000     0.0000     0.0000     0.0000     0.0000 </r>
        <r>    10.7337     0.0000     0.0202     0.0383     0.0200     0.0000     0.0000     0.0000     0.0000     0.0000 </r>
        <r>    10.8152     0.0000     0.0296     0.0513     0.0194     0.0000     0.0000     0.0000     0.0000     0.0000 </r>
        <r>    10.8968     0.0000     0.0030     0.0230     0.0205     0.0000     0.0000     0.0000     0.0000     0.0000 </r>
        <r>    10.9783     0.0000     0.0340     0.0492     0.0154     0.0000     0.0000     0.0000     0.0000     0.0000 </r>
        <r>    11.0599     0.0000     0.0151     0.0366     0.0205     0.0000     0.0000     0.0000     0.0000     0.0000 </r>
        <r>    11.1415     0.0000     0.0073     0.0282     0.0206     0.0000     0.0000     0.0000     0.0000     0.0000 </r>
        <r>    11.2230     0.0000     0.0384     0.0532     0.0150     0.0000     0.0000     0.0000     0.0000     0.0000 </r>
        <r>    11.3046     0.0000     0.0057     0.0276     0.0215     0.0000     0.0000     0.0000     0.0000     0.0000 </r>
        <r>    11.3861     0.0000     0.0165     0.0345     0.0168     0.0000     0.0000     0.0000     0.0000     0.0000 </r>
        <r>    11.4677     0.0000     0.0329     0.0498     0.0181     0.0000     0.0000     0.0000     0.0000     0.0000 </r>
        <r>    11.5492     0.0000     0.0023     0.0259     0.0223     0.0000     0.0000     0.0000     0.0000     0.0000 </r>
        <r>    11.6308     0.0000     0.0266     0.0397     0.0120     0.0000     0.0000     0.0000     0.0000     0.0000 </r>
        <r>    11.7123     0.0000     0.0234     0.0427     0.0216     0.0000     0.0000     0.0000     0.0000     0.0000 </r>
        <r>    11.7939     0.0000     0.0026     0.0273     0.0217     0.0000     0.0000     0.0000     0.0000     0.0000 </r>
        <r>    11.8754     0.0000     0.0348     0.0443     0.0092     0.0000     0.0000     0.0000     0.0000     0.0000 </r>
        <r>    11.9570     0.0000     0.0140     0.0356     0.0244     0.0000     0.0000     0.0000     0.0000     0.0000 </r>
        <r>    12.0386     0.0000     0.0050     0.0290     0.0198     0.0000     0.0000     0.0000     0.0000     0.0000 </r>
        <r>    12.1201     0.0000     0.0381     0.0461     0.0087     0.0000     0.0000     0.0000     0.0000     0.0000 </r>
        <r>    12.2017     0.0000     0.0081     0.0322     0.0266     0.0000     0.0000     0.0000     0.0000     0.0000 </r>
        <r>    12.2832     0.0000     0.0091     0.0304     0.0166     0.0000     0.0000     0.0000     0.0000     0.0000 </r>
        <r>    12.3648     0.0000     0.0377     0.0457     0.0100     0.0000     0.0000     0.0000     0.0000     0.0000 </r>
        <r>    12.4463     0.0000     0.0043     0.0309     0.0279     0.0000     0.0000     0.0000     0.0000     0.0000 </r>
        <r>    12.5279     0.0000     0.0141     0.0319     0.0131     0.0000     0.0000     0.0000     0.0000     0.0000 </r>
        <r>    12.6094     0.0000     0.0345     0.0434     0.0119     0.0000     0.0000     0.0000     0.0000     0.0000 </r>
        <r>    12.6910     0.0000     0.0024     0.0314     0.0288     0.0000     0.0000     0.0000     0.0000     0.0000 </r>
        <r>    12.7725     0.0000     0.0193     0.0332     0.0098     0.0000     0.0000     0.0000     0.0000     0.0000 </r>
        <r>    12.8541     0.0000     0.0301     0.0403     0.0140     0.0000     0.0000     0.0000     0.0000     0.0000 </r>
        <r>    12.9357     0.0000     0.0016     0.0324     0.0291     0.0000     0.0000     0.0000     0.0000     0.0000 </r>
        <r>    13.0172     0.0000     0.0238     0.0344     0.0072     0.0000     0.0000     0.0000     0.0000     0.0000 </r>
        <r>    13.0988     0.0000     0.0257     0.0371     0.0159     0.0000     0.0000     0.0000     0.0000     0.0000 </r>
        <r>    13.1803     0.0000     0.0014     0.0333     0.0289     0.0000     0.0000     0.0000     0.0000     0.0000 </r>
        <r>    13.2619     0.0000     0.0275     0.0354     0.0053     0.0000     0.0000     0.0000     0.0000     0.0000 </r>
        <r>    13.3434     0.0000     0.0218     0.0344     0.0174     0.0000     0.0000     0.0000     0.0000     0.0000 </r>
        <r>    13.4250     0.0000     0.0015     0.0339     0.0285     0.0000     0.0000     0.0000     0.0000     0.0000 </r>
        <r>    13.5065     0.0000     0.0303     0.0364     0.0041     0.0000     0.0000     0.0000     0.0000     0.0000 </r>
        <r>    13.5881     0.0000     0.0187     0.0323     0.0185     0.0000     0.0000     0.0000     0.0000     0.0000 </r>
        <r>    13.6697     0.0000     0.0018     0.0343     0.0282     0.0000     0.0000     0.0000     0.0000     0.0000 </r>
        <r>    13.7512     0.0000     0.0321     0.0369     0.0032     0.0000     0.0000     0.0000     0.0000     0.0000 </r>
        <r>    13.8328     0.0000     0.0165     0.0308     0.0192     0.0000     0.0000     0.0000     0.0000     0.0000 </r>
        <r>    13.9143     0.0000     0.0020     0.0345     0.0280     0.0000     0.0000     0.0000     0.0000     0.0000 </r>
        <r>    13.9959     0.0000     0.0332     0.0371     0.0027     0.0000     0.0000     0.0000     0.0000     0.0000 </r>
        <r>    14.0774     0.0000     0.0152     0.0300     0.0194     0.0000     0.0000     0.0000     0.0000     0.0000 </r>
        <r>    14.1590     0.0000     0.0022     0.0348     0.0282     0.0000     0.0000     0.0000     0.0000     0.0000 </r>
        <r>    14.2405     0.0000     0.0340     0.0373     0.0023     0.0000     0.0000     0.0000     0.0000     0.0000 </r>
        <r>    14.3221     0.0000     0.0143     0.0293     0.0192     0.0000     0.0000     0.0000     0.0000     0.0000 </r>
        <r>    14.4036     0.0000     0.0023     0.0352     0.0288     0.0000     0.0000     0.0000     0.0000     0.0000 </r>
        <r>    14.4852     0.0000     0.0344     0.0374     0.0021     0.0000     0.0000     0.0000     0.0000     0.0000 </r>
        <r>    14.5668     0.0000     0.0139     0.0289     0.0188     0.0000     0.0000     0.0000     0.0000     0.0000 </r>
        <r>    14.6483     0.0000     0.0024     0.0356     0.0295     0.0000     0.0000     0.0000     0.0000     0.0000 </r>
        <r>    14.7299     0.0000     0.0348     0.0376     0.0019     0.0000     0.0000     0.0000     0.0000     0.0000 </r>
        <r>    14.8114     0.0000     0.0138     0.0283     0.0177     0.0000     0.0000     0.0000     0.0000     0.0000 </r>
        <r>    14.8930     0.0000     0.0024     0.0367     0.0310     0.0000     0.0000     0.0000     0.0000     0.0000 </r>
        <r>    14.9745     0.0000     0.0353     0.0381     0.0020     0.0000     0.0000     0.0000     0.0000     0.0000 </r>
        <r>    15.0561     0.0000     0.0137     0.0285     0.0177     0.0000     0.0000     0.0000     0.0000     0.0000 </r>
        <r>    15.1376     0.0000     0.0027     0.0375     0.0319     0.0000     0.0000     0.0000     0.0000     0.0000 </r>
        <r>    15.2192     0.0000     0.0366     0.0393     0.0020     0.0000     0.0000     0.0000     0.0000     0.0000 </r>
        <r>    15.3007     0.0000     0.0132     0.0292     0.0184     0.0000     0.0000     0.0000     0.0000     0.0000 </r>
        <r>    15.3823     0.0000     0.0036     0.0388     0.0325     0.0000     0.0000     0.0000     0.0000     0.0000 </r>
        <r>    15.4639     0.0000     0.0392     0.0415     0.0020     0.0000     0.0000     0.0000     0.0000     0.0000 </r>
        <r>    15.5454     0.0000     0.0116     0.0312     0.0218     0.0000     0.0000     0.0000     0.0000     0.0000 </r>
        <r>    15.6270     0.0000     0.0067     0.0406     0.0316     0.0000     0.0000     0.0000     0.0000     0.0000 </r>
        <r>    15.7085     0.0000     0.0426     0.0451     0.0022     0.0000     0.0000     0.0000     0.0000     0.0000 </r>
        <r>    15.7901     0.0000     0.0076     0.0386     0.0323     0.0000     0.0000     0.0000     0.0000     0.0000 </r>
        <r>    15.8716     0.0000     0.0214     0.0480     0.0250     0.0000     0.0000     0.0000     0.0000     0.0000 </r>
        <r>    15.9532     0.0000     0.0381     0.0480     0.0103     0.0000     0.0000     0.0000     0.0000     0.0000 </r>
        <r>    16.0347     0.0000     0.0179     0.0670     0.0486     0.0000     0.0000     0.0000     0.0000     0.0000 </r>
        <r>    16.1163     0.0000     0.0631     0.1152     0.0421     0.0000     0.0000     0.0000     0.0000     0.0000 </r>
        <r>    16.1978     0.0000     0.0572     0.1220     0.0651     0.0000     0.0000     0.0000     0.0000     0.0000 </r>
        <r>    16.2794     0.0000     0.0051     0.0060     0.0030     0.0000     0.0000     0.0000     0.0000     0.0000 </r>
        <r>    16.3610     0.0000     0.0000     0.0000     0.0000     0.0000     0.0000     0.0000     0.0000     0.0000 </r>
        <r>    16.4425     0.0000     0.0000     0.0000     0.0000     0.0000     0.0000     0.0000     0.0000     0.0000 </r>
        <r>    16.5241     0.0000     0.0000     0.0000     0.0000     0.0000     0.0000     0.0000     0.0000     0.0000 </r>
        <r>    16.6056     0.0000     0.0000     0.0000     0.0000     0.0000     0.0000     0.0000     0.0000     0.0000 </r>
        <r>    16.6872     0.0000     0.0000     0.0000     0.0000     0.0000     0.0000     0.0000     0.0000     0.0000 </r>
        <r>    16.7687     0.0000     0.0000     0.0000     0.0000     0.0000     0.0000     0.0000     0.0000     0.0000 </r>
        <r>    16.8503     0.0000     0.0000     0.0000     0.0000     0.0000     0.0000     0.0000     0.0000     0.0000 </r>
        <r>    16.9318     0.0000     0.0000     0.0000     0.0000     0.0000     0.0000     0.0000     0.0000     0.0000 </r>
        <r>    17.0134     0.0000     0.0000     0.0000     0.0000     0.0000     0.0000     0.0000     0.0000     0.0000 </r>
        <r>    17.0950     0.0000     0.0000     0.0000     0.0000     0.0000     0.0000     0.0000     0.0000     0.0000 </r>
        <r>    17.1765     0.0000     0.0000     0.0000     0.0000     0.0000     0.0000     0.0000     0.0000     0.0000 </r>
        <r>    17.2581     0.0000     0.0000     0.0000     0.0000     0.0000     0.0000     0.0000     0.0000     0.0000 </r>
       </set>
      </set>
      <set comment="ion 2">
       <set comment="spin 1">
        <r>    -7.2084     0.0000     0.0000     0.0000     0.0000     0.0000     0.0000     0.0000     0.0000     0.0000 </r>
        <r>    -7.1268     0.0000     0.0000     0.0000     0.0000     0.0000     0.0000     0.0000     0.0000     0.0000 </r>
        <r>    -7.0453     0.0000     0.0000     0.0000     0.0000     0.0000     0.0000     0.0000     0.0000     0.0000 </r>
        <r>    -6.9637     0.0000     0.0000     0.0000     0.0000     0.0000     0.0000     0.0000     0.0000     0.0000 </r>
        <r>    -6.8821     0.0000     0.0000     0.0000     0.0000     0.0000     0.0000     0.0000     0.0000     0.0000 </r>
        <r>    -6.8006     0.0000     0.0000     0.0000     0.0000     0.0000     0.0000     0.0000     0.0000     0.0000 </r>
        <r>    -6.7190     0.0000     0.0000     0.0000     0.0000     0.0000     0.0000     0.0000     0.0000     0.0000 </r>
        <r>    -6.6375     0.0000     0.0000     0.0000     0.0000     0.0000     0.0000     0.0000     0.0000     0.0000 </r>
        <r>    -6.5559     0.0000     0.0000     0.0000     0.0000     0.0000     0.0000     0.0000     0.0000     0.0000 </r>
        <r>    -6.4744     0.0000     0.0000     0.0000     0.0000     0.0000     0.0000     0.0000     0.0000     0.0000 </r>
        <r>    -6.3928     0.0000     0.0000     0.0000     0.0000     0.0000     0.0000     0.0000     0.0000     0.0000 </r>
        <r>    -6.3113     0.0000     0.0000     0.0000     0.0000     0.0000     0.0000     0.0000     0.0000     0.0000 </r>
        <r>    -6.2297     0.0000     0.0000     0.0000     0.0000     0.0000     0.0000     0.0000     0.0000     0.0000 </r>
        <r>    -6.1482     0.0242     0.0000     0.0000     0.0000     0.0000     0.0000     0.0000     0.0000     0.0000 </r>
        <r>    -6.0666     0.4028     0.0002     0.0000     0.0002     0.0000     0.0000     0.0000     0.0000     0.0000 </r>
        <r>    -5.9850     0.4378     0.0007     0.0000     0.0006     0.0000     0.0000     0.0000     0.0000     0.0000 </r>
        <r>    -5.9035     0.2635     0.0010     0.0000     0.0010     0.0000     0.0000     0.0000     0.0000     0.0000 </r>
        <r>    -5.8219     0.2075     0.0013     0.0000     0.0012     0.0000     0.0000     0.0000     0.0000     0.0000 </r>
        <r>    -5.7404     0.1775     0.0015     0.0000     0.0014     0.0000     0.0000     0.0000     0.0000     0.0000 </r>
        <r>    -5.6588     0.1577     0.0016     0.0000     0.0016     0.0000     0.0000     0.0000     0.0000     0.0000 </r>
        <r>    -5.5773     0.1433     0.0018     0.0000     0.0018     0.0000     0.0000     0.0000     0.0000     0.0000 </r>
        <r>    -5.4957     0.1324     0.0020     0.0000     0.0019     0.0000     0.0000     0.0000     0.0000     0.0000 </r>
        <r>    -5.4142     0.1241     0.0021     0.0000     0.0021     0.0000     0.0000     0.0000     0.0000     0.0000 </r>
        <r>    -5.3326     0.1172     0.0023     0.0000     0.0022     0.0000     0.0000     0.0000     0.0000     0.0000 </r>
        <r>    -5.2511     0.1097     0.0024     0.0000     0.0023     0.0000     0.0000     0.0000     0.0000     0.0000 </r>
        <r>    -5.1695     0.1014     0.0024     0.0000     0.0023     0.0000     0.0000     0.0000     0.0000     0.0000 </r>
        <r>    -5.0879     0.0976     0.0025     0.0000     0.0025     0.0000     0.0000     0.0000     0.0000     0.0000 </r>
        <r>    -5.0064     0.1012     0.0028     0.0000     0.0028     0.0000     0.0000     0.0000     0.0000     0.0000 </r>
        <r>    -4.9248     0.0962     0.0031     0.0000     0.0028     0.0000     0.0000     0.0000     0.0000     0.0000 </r>
        <r>    -4.8433     0.0805     0.0027     0.0000     0.0025     0.0000     0.0000     0.0000     0.0000     0.0000 </r>
        <r>    -4.7617     0.0881     0.0028     0.0000     0.0032     0.0000     0.0000     0.0000     0.0000     0.0000 </r>
        <r>    -4.6802     0.0930     0.0036     0.0000     0.0033     0.0000     0.0000     0.0000     0.0000     0.0000 </r>
        <r>    -4.5986     0.0688     0.0029     0.0000     0.0025     0.0000     0.0000     0.0000     0.0000     0.0000 </r>
        <r>    -4.5171     0.0856     0.0031     0.0000     0.0038     0.0000     0.0000     0.0000     0.0000     0.0000 </r>
        <r>    -4.4355     0.0812     0.0041     0.0000     0.0031     0.0000     0.0000     0.0000     0.0000     0.0000 </r>
        <r>    -4.3539     0.0623     0.0025     0.0000     0.0031     0.0000     0.0000     0.0000     0.0000     0.0000 </r>
        <r>    -4.2724     0.0906     0.0044     0.0000     0.0043     0.0000     0.0000     0.0000     0.0000     0.0000 </r>
        <r>    -4.1908     0.0552     0.0032     0.0000     0.0024     0.0000     0.0000     0.0000     0.0000     0.0000 </r>
        <r>    -4.1093     0.0831     0.0038     0.0000     0.0049     0.0000     0.0000     0.0000     0.0000     0.0000 </r>
        <r>    -4.0277     0.0613     0.0043     0.0000     0.0025     0.0000     0.0000     0.0000     0.0000     0.0000 </r>
        <r>    -3.9462     0.0699     0.0030     0.0000     0.0049     0.0000     0.0000     0.0000     0.0000     0.0000 </r>
        <r>    -3.8646     0.0686     0.0053     0.0000     0.0030     0.0000     0.0000     0.0000     0.0000     0.0000 </r>
        <r>    -3.7831     0.0592     0.0025     0.0000     0.0047     0.0000     0.0000     0.0000     0.0000     0.0000 </r>
        <r>    -3.7015     0.0724     0.0059     0.0000     0.0035     0.0000     0.0000     0.0000     0.0000     0.0000 </r>
        <r>    -3.6200     0.0529     0.0023     0.0000     0.0046     0.0000     0.0000     0.0000     0.0000     0.0000 </r>
        <r>    -3.5384     0.0724     0.0064     0.0000     0.0037     0.0000     0.0000     0.0000     0.0000     0.0000 </r>
        <r>    -3.4568     0.0506     0.0022     0.0000     0.0049     0.0000     0.0000     0.0000     0.0000     0.0000 </r>
        <r>    -3.3753     0.0690     0.0067     0.0000     0.0035     0.0000     0.0000     0.0000     0.0000     0.0000 </r>
        <r>    -3.2937     0.0522     0.0022     0.0000     0.0056     0.0000     0.0000     0.0000     0.0000     0.0000 </r>
        <r>    -3.2122     0.0619     0.0069     0.0000     0.0030     0.0000     0.0000     0.0000     0.0000     0.0000 </r>
        <r>    -3.1306     0.0579     0.0026     0.0000     0.0066     0.0000     0.0000     0.0000     0.0000     0.0000 </r>
        <r>    -3.0491     0.0513     0.0065     0.0000     0.0022     0.0000     0.0000     0.0000     0.0000     0.0000 </r>
        <r>    -2.9675     0.0668     0.0037     0.0000     0.0077     0.0000     0.0000     0.0000     0.0000     0.0000 </r>
        <r>    -2.8860     0.0390     0.0053     0.0000     0.0017     0.0000     0.0000     0.0000     0.0000     0.0000 </r>
        <r>    -2.8044     0.0752     0.0055     0.0000     0.0080     0.0000     0.0000     0.0000     0.0000     0.0000 </r>
        <r>    -2.7229     0.0304     0.0034     0.0000     0.0023     0.0000     0.0000     0.0000     0.0000     0.0000 </r>
        <r>    -2.6413     0.0763     0.0078     0.0000     0.0068     0.0000     0.0000     0.0000     0.0000     0.0000 </r>
        <r>    -2.5597     0.0328     0.0018     0.0000     0.0046     0.0000     0.0000     0.0000     0.0000     0.0000 </r>
        <r>    -2.4782     0.0647     0.0092     0.0000     0.0040     0.0000     0.0000     0.0000     0.0000     0.0000 </r>
        <r>    -2.3966     0.0488     0.0020     0.0000     0.0079     0.0000     0.0000     0.0000     0.0000     0.0000 </r>
        <r>    -2.3151     0.0433     0.0076     0.0000     0.0017     0.0000     0.0000     0.0000     0.0000     0.0000 </r>
        <r>    -2.2335     0.0677     0.0049     0.0000     0.0096     0.0000     0.0000     0.0000     0.0000     0.0000 </r>
        <r>    -2.1520     0.0268     0.0038     0.0000     0.0022     0.0000     0.0000     0.0000     0.0000     0.0000 </r>
        <r>    -2.0704     0.0714     0.0092     0.0000     0.0070     0.0000     0.0000     0.0000     0.0000     0.0000 </r>
        <r>    -1.9889     0.0370     0.0022     0.0000     0.0062     0.0000     0.0000     0.0000     0.0000     0.0000 </r>
        <r>    -1.9073     0.1045     0.0202     0.0000     0.0049     0.0000     0.0000     0.0000     0.0000     0.0000 </r>
        <r>    -1.8258     0.1158     0.0066     0.0000     0.0211     0.0000     0.0000     0.0000     0.0000     0.0000 </r>
        <r>    -1.7442     0.0330     0.0054     0.0000     0.0028     0.0000     0.0000     0.0000     0.0000     0.0000 </r>
        <r>    -1.6626     0.0694     0.0091     0.0000     0.0084     0.0000     0.0000     0.0000     0.0000     0.0000 </r>
        <r>    -1.5811     0.0296     0.0014     0.0000     0.0061     0.0000     0.0000     0.0000     0.0000     0.0000 </r>
        <r>    -1.4995     0.0515     0.0113     0.0000     0.0025     0.0000     0.0000     0.0000     0.0000     0.0000 </r>
        <r>    -1.4180     0.0567     0.0034     0.0000     0.0117     0.0000     0.0000     0.0000     0.0000     0.0000 </r>
        <r>    -1.3364     0.0246     0.0051     0.0000     0.0017     0.0000     0.0000     0.0000     0.0000     0.0000 </r>
        <r>    -1.2549     0.0660     0.0107     0.0000     0.0079     0.0000     0.0000     0.0000     0.0000     0.0000 </r>
        <r>    -1.1733     0.0331     0.0011     0.0000     0.0081     0.0000     0.0000     0.0000     0.0000     0.0000 </r>
        <r>    -1.0918     0.0427     0.0111     0.0000     0.0015     0.0000     0.0000     0.0000     0.0000     0.0000 </r>
        <r>    -1.0102     0.0610     0.0054     0.0000     0.0126     0.0000     0.0000     0.0000     0.0000     0.0000 </r>
        <r>    -0.9287     0.0208     0.0031     0.0000     0.0032     0.0000     0.0000     0.0000     0.0000     0.0000 </r>
        <r>    -0.8471     0.0587     0.0133     0.0000     0.0050     0.0000     0.0000     0.0000     0.0000     0.0000 </r>
        <r>    -0.7655     0.0446     0.0017     0.0000     0.0121     0.0000     0.0000     0.0000     0.0000     0.0000 </r>
        <r>    -0.6840     0.0280     0.0081     0.0000     0.0011     0.0000     0.0000     0.0000     0.0000     0.0000 </r>
        <r>    -0.6024     0.0629     0.0102     0.0000     0.0104     0.0000     0.0000     0.0000     0.0000     0.0000 </r>
        <r>    -0.5209     0.0274     0.0011     0.0000     0.0078     0.0000     0.0000     0.0000     0.0000     0.0000 </r>
        <r>    -0.4393     0.0430     0.0132     0.0000     0.0016     0.0000     0.0000     0.0000     0.0000     0.0000 </r>
        <r>    -0.3578     0.0576     0.0054     0.0000     0.0142     0.0000     0.0000     0.0000     0.0000     0.0000 </r>
        <r>    -0.2762     0.0189     0.0030     0.0000     0.0036     0.0000     0.0000     0.0000     0.0000     0.0000 </r>
        <r>    -0.1947     0.0543     0.0152     0.0000     0.0044     0.0000     0.0000     0.0000     0.0000     0.0000 </r>
        <r>    -0.1131     0.0467     0.0022     0.0000     0.0145     0.0000     0.0000     0.0000     0.0000     0.0000 </r>
        <r>    -0.0315     0.0220     0.0069     0.0000     0.0014     0.0000     0.0000     0.0000     0.0000     0.0000 </r>
        <r>     0.0500     0.0590     0.0135     0.0000     0.0088     0.0000     0.0000     0.0000     0.0000     0.0000 </r>
        <r>     0.1316     0.0337     0.0010     0.0000     0.0117     0.0000     0.0000     0.0000     0.0000     0.0000 </r>
        <r>     0.2131     0.0316     0.0117     0.0000     0.0009     0.0000     0.0000     0.0000     0.0000     0.0000 </r>
        <r>     0.2947     0.0585     0.0098     0.0000     0.0134     0.0000     0.0000     0.0000     0.0000     0.0000 </r>
        <r>     0.3762     0.0228     0.0012     0.0000     0.0078     0.0000     0.0000     0.0000     0.0000     0.0000 </r>
        <r>     0.4578     0.0417     0.0158     0.0000     0.0018     0.0000     0.0000     0.0000     0.0000     0.0000 </r>
        <r>     0.5393     0.0544     0.0060     0.0000     0.0166     0.0000     0.0000     0.0000     0.0000     0.0000 </r>
        <r>     0.6209     0.0170     0.0027     0.0000     0.0044     0.0000     0.0000     0.0000     0.0000     0.0000 </r>
        <r>     0.7024     0.0492     0.0179     0.0000     0.0038     0.0000     0.0000     0.0000     0.0000     0.0000 </r>
        <r>     0.7840     0.0477     0.0032     0.0000     0.0176     0.0000     0.0000     0.0000     0.0000     0.0000 </r>
        <r>     0.8656     0.0169     0.0055     0.0000     0.0022     0.0000     0.0000     0.0000     0.0000     0.0000 </r>
        <r>     0.9471     0.0535     0.0177     0.0000     0.0071     0.0000     0.0000     0.0000     0.0000     0.0000 </r>
        <r>     1.0287     0.0394     0.0016     0.0000     0.0164     0.0000     0.0000     0.0000     0.0000     0.0000 </r>
        <r>     1.1102     0.0212     0.0091     0.0000     0.0011     0.0000     0.0000     0.0000     0.0000     0.0000 </r>
        <r>     1.1918     0.0553     0.0157     0.0000     0.0111     0.0000     0.0000     0.0000     0.0000     0.0000 </r>
        <r>     1.2733     0.0305     0.0010     0.0000     0.0137     0.0000     0.0000     0.0000     0.0000     0.0000 </r>
        <r>     1.3549     0.0276     0.0133     0.0000     0.0009     0.0000     0.0000     0.0000     0.0000     0.0000 </r>
        <r>     1.4364     0.0549     0.0127     0.0000     0.0153     0.0000     0.0000     0.0000     0.0000     0.0000 </r>
        <r>     1.5180     0.0225     0.0010     0.0000     0.0104     0.0000     0.0000     0.0000     0.0000     0.0000 </r>
        <r>     1.5995     0.0344     0.0173     0.0000     0.0014     0.0000     0.0000     0.0000     0.0000     0.0000 </r>
        <r>     1.6811     0.0527     0.0095     0.0000     0.0189     0.0000     0.0000     0.0000     0.0000     0.0000 </r>
        <r>     1.7627     0.0166     0.0018     0.0000     0.0071     0.0000     0.0000     0.0000     0.0000     0.0000 </r>
        <r>     1.8442     0.0405     0.0205     0.0000     0.0028     0.0000     0.0000     0.0000     0.0000     0.0000 </r>
        <r>     1.9258     0.0487     0.0064     0.0000     0.0211     0.0000     0.0000     0.0000     0.0000     0.0000 </r>
        <r>     2.0073     0.0135     0.0034     0.0000     0.0045     0.0000     0.0000     0.0000     0.0000     0.0000 </r>
        <r>     2.0889     0.0453     0.0223     0.0000     0.0052     0.0000     0.0000     0.0000     0.0000     0.0000 </r>
        <r>     2.1704     0.0431     0.0040     0.0000     0.0217     0.0000     0.0000     0.0000     0.0000     0.0000 </r>
        <r>     2.2520     0.0136     0.0061     0.0000     0.0025     0.0000     0.0000     0.0000     0.0000     0.0000 </r>
        <r>     2.3335     0.0486     0.0225     0.0000     0.0088     0.0000     0.0000     0.0000     0.0000     0.0000 </r>
        <r>     2.4151     0.0359     0.0023     0.0000     0.0204     0.0000     0.0000     0.0000     0.0000     0.0000 </r>
        <r>     2.4966     0.0166     0.0099     0.0000     0.0014     0.0000     0.0000     0.0000     0.0000     0.0000 </r>
        <r>     2.5782     0.0503     0.0209     0.0000     0.0134     0.0000     0.0000     0.0000     0.0000     0.0000 </r>
        <r>     2.6598     0.0280     0.0014     0.0000     0.0175     0.0000     0.0000     0.0000     0.0000     0.0000 </r>
        <r>     2.7413     0.0217     0.0148     0.0000     0.0011     0.0000     0.0000     0.0000     0.0000     0.0000 </r>
        <r>     2.8229     0.0501     0.0177     0.0000     0.0187     0.0000     0.0000     0.0000     0.0000     0.0000 </r>
        <r>     2.9044     0.0201     0.0015     0.0003     0.0133     0.0000     0.0000     0.0000     0.0000     0.0000 </r>
        <r>     2.9860     0.0281     0.0745     0.0547     0.0022     0.0000     0.0000     0.0000     0.0000     0.0000 </r>
        <r>     3.0675     0.0476     0.2664     0.3176     0.0882     0.0000     0.0000     0.0000     0.0000     0.0000 </r>
        <r>     3.1491     0.0140     0.1699     0.4257     0.2672     0.0000     0.0000     0.0000     0.0000     0.0000 </r>
        <r>     3.2306     0.0345     0.1411     0.2807     0.1689     0.0000     0.0000     0.0000     0.0000     0.0000 </r>
        <r>     3.3122     0.0423     0.1043     0.2115     0.1424     0.0000     0.0000     0.0000     0.0000     0.0000 </r>
        <r>     3.3938     0.0111     0.0884     0.1797     0.1010     0.0000     0.0000     0.0000     0.0000     0.0000 </r>
        <r>     3.4753     0.0399     0.1032     0.1595     0.0924     0.0000     0.0000     0.0000     0.0000     0.0000 </r>
        <r>     3.5569     0.0343     0.0738     0.1451     0.1019     0.0000     0.0000     0.0000     0.0000     0.0000 </r>
        <r>     3.6384     0.0127     0.0745     0.1342     0.0720     0.0000     0.0000     0.0000     0.0000     0.0000 </r>
        <r>     3.7200     0.0430     0.0874     0.1258     0.0806     0.0000     0.0000     0.0000     0.0000     0.0000 </r>
        <r>     3.8015     0.0243     0.0601     0.1192     0.0825     0.0000     0.0000     0.0000     0.0000     0.0000 </r>
        <r>     3.8831     0.0188     0.0744     0.1139     0.0597     0.0000     0.0000     0.0000     0.0000     0.0000 </r>
        <r>     3.9646     0.0423     0.0745     0.1094     0.0804     0.0000     0.0000     0.0000     0.0000     0.0000 </r>
        <r>     4.0462     0.0148     0.0529     0.1047     0.0677     0.0000     0.0000     0.0000     0.0000     0.0000 </r>
        <r>     4.1277     0.0273     0.0759     0.1002     0.0567     0.0000     0.0000     0.0000     0.0000     0.0000 </r>
        <r>     4.2093     0.0359     0.0587     0.0976     0.0802     0.0000     0.0000     0.0000     0.0000     0.0000 </r>
        <r>     4.2909     0.0106     0.0570     0.0969     0.0523     0.0000     0.0000     0.0000     0.0000     0.0000 </r>
        <r>     4.3724     0.0342     0.0799     0.0934     0.0604     0.0000     0.0000     0.0000     0.0000     0.0000 </r>
        <r>     4.4540     0.0244     0.0451     0.0889     0.0766     0.0000     0.0000     0.0000     0.0000     0.0000 </r>
        <r>     4.5355     0.0156     0.0644     0.0910     0.0474     0.0000     0.0000     0.0000     0.0000     0.0000 </r>
        <r>     4.6171     0.0344     0.0722     0.0911     0.0694     0.0000     0.0000     0.0000     0.0000     0.0000 </r>
        <r>     4.6986     0.0129     0.0450     0.0828     0.0605     0.0000     0.0000     0.0000     0.0000     0.0000 </r>
        <r>     4.7802     0.0254     0.0744     0.0861     0.0548     0.0000     0.0000     0.0000     0.0000     0.0000 </r>
        <r>     4.8617     0.0245     0.0566     0.0915     0.0728     0.0000     0.0000     0.0000     0.0000     0.0000 </r>
        <r>     4.9433     0.0135     0.0633     0.0802     0.0479     0.0000     0.0000     0.0000     0.0000     0.0000 </r>
        <r>     5.0248     0.0275     0.0635     0.0833     0.0764     0.0000     0.0000     0.0000     0.0000     0.0000 </r>
        <r>     5.1064     0.0124     0.0592     0.0934     0.0545     0.0000     0.0000     0.0000     0.0000     0.0000 </r>
        <r>     5.1880     0.0221     0.0796     0.0812     0.0611     0.0000     0.0000     0.0000     0.0000     0.0000 </r>
        <r>     5.2695     0.0160     0.0475     0.0836     0.0781     0.0000     0.0000     0.0000     0.0000     0.0000 </r>
        <r>     5.3511     0.0163     0.0902     0.0972     0.0507     0.0000     0.0000     0.0000     0.0000     0.0000 </r>
        <r>     5.4326     0.0163     0.0600     0.0905     0.0842     0.0000     0.0000     0.0000     0.0000     0.0000 </r>
        <r>     5.5142     0.0133     0.0862     0.0899     0.0628     0.0000     0.0000     0.0000     0.0000     0.0000 </r>
        <r>     5.5957     0.0138     0.0731     0.1035     0.0870     0.0000     0.0000     0.0000     0.0000     0.0000 </r>
        <r>     5.6773     0.0111     0.1020     0.1137     0.0732     0.0000     0.0000     0.0000     0.0000     0.0000 </r>
        <r>     5.7588     0.0105     0.1075     0.1270     0.0970     0.0000     0.0000     0.0000     0.0000     0.0000 </r>
        <r>     5.8404     0.0080     0.1462     0.1690     0.1124     0.0000     0.0000     0.0000     0.0000     0.0000 </r>
        <r>     5.9219     0.0049     0.2570     0.2841     0.1545     0.0000     0.0000     0.0000     0.0000     0.0000 </r>
        <r>     6.0035     0.0016     0.0837     0.0914     0.2521     0.0000     0.0000     0.0000     0.0000     0.0000 </r>
        <r>     6.0851     0.0001     0.0008     0.0009     0.0558     0.0000     0.0000     0.0000     0.0000     0.0000 </r>
        <r>     6.1666     0.0000     0.0000     0.0000     0.0003     0.0000     0.0000     0.0000     0.0000     0.0000 </r>
        <r>     6.2482     0.0000     0.0000     0.0000     0.0000     0.0000     0.0000     0.0000     0.0000     0.0000 </r>
        <r>     6.3297     0.0001     0.0000     0.0000     0.0001     0.0000     0.0000     0.0000     0.0000     0.0000 </r>
        <r>     6.4113     0.0227     0.0000     0.0000     0.0186     0.0000     0.0000     0.0000     0.0000     0.0000 </r>
        <r>     6.4928     0.1234     0.0128     0.0000     0.0891     0.0000     0.0000     0.0000     0.0000     0.0000 </r>
        <r>     6.5744     0.1876     0.0848     0.0000     0.0701     0.0000     0.0000     0.0000     0.0000     0.0000 </r>
        <r>     6.6559     0.1471     0.0731     0.0000     0.0523     0.0000     0.0000     0.0000     0.0000     0.0000 </r>
        <r>     6.7375     0.1019     0.0528     0.0000     0.0407     0.0000     0.0000     0.0000     0.0000     0.0000 </r>
        <r>     6.8191     0.0779     0.0410     0.0000     0.0369     0.0000     0.0000     0.0000     0.0000     0.0000 </r>
        <r>     6.9006     0.0673     0.0371     0.0000     0.0346     0.0000     0.0000     0.0000     0.0000     0.0000 </r>
        <r>     6.9822     0.0596     0.0348     0.0000     0.0330     0.0000     0.0000     0.0000     0.0000     0.0000 </r>
        <r>     7.0637     0.0539     0.0332     0.0000     0.0321     0.0000     0.0000     0.0000     0.0000     0.0000 </r>
        <r>     7.1453     0.0496     0.0320     0.0000     0.0319     0.0000     0.0000     0.0000     0.0000     0.0000 </r>
        <r>     7.2268     0.0452     0.0315     0.0000     0.0309     0.0000     0.0000     0.0000     0.0000     0.0000 </r>
        <r>     7.3084     0.0415     0.0317     0.0000     0.0297     0.0000     0.0000     0.0000     0.0000     0.0000 </r>
        <r>     7.3899     0.0399     0.0309     0.0000     0.0311     0.0000     0.0000     0.0000     0.0000     0.0000 </r>
        <r>     7.4715     0.0351     0.0300     0.0000     0.0307     0.0000     0.0000     0.0000     0.0000     0.0000 </r>
        <r>     7.5530     0.0344     0.0319     0.0000     0.0307     0.0000     0.0000     0.0000     0.0000     0.0000 </r>
        <r>     7.6346     0.0339     0.0311     0.0000     0.0343     0.0000     0.0000     0.0000     0.0000     0.0000 </r>
        <r>     7.7162     0.0273     0.0323     0.0000     0.0313     0.0000     0.0000     0.0000     0.0000     0.0000 </r>
        <r>     7.7977     0.0327     0.0350     0.0000     0.0349     0.0000     0.0000     0.0000     0.0000     0.0000 </r>
        <r>     7.8793     0.0220     0.0331     0.0000     0.0326     0.0000     0.0000     0.0000     0.0000     0.0000 </r>
        <r>     7.9608     0.0301     0.0377     0.0000     0.0378     0.0000     0.0000     0.0000     0.0000     0.0000 </r>
        <r>     8.0424     0.0186     0.0353     0.0000     0.0375     0.0000     0.0000     0.0000     0.0000     0.0000 </r>
        <r>     8.1239     0.0277     0.0421     0.0000     0.0436     0.0000     0.0000     0.0000     0.0000     0.0000 </r>
        <r>     8.2055     0.0150     0.0414     0.0000     0.0439     0.0000     0.0000     0.0000     0.0000     0.0000 </r>
        <r>     8.2870     0.0259     0.0514     0.0000     0.0544     0.0000     0.0000     0.0000     0.0000     0.0000 </r>
        <r>     8.3686     0.0107     0.0551     0.0000     0.0613     0.0000     0.0000     0.0000     0.0000     0.0000 </r>
        <r>     8.4501     0.0236     0.0835     0.0033     0.1191     0.0000     0.0000     0.0000     0.0000     0.0000 </r>
        <r>     8.5317     0.0060     0.1792     0.1072     0.1864     0.0000     0.0000     0.0000     0.0000     0.0000 </r>
        <r>     8.6133     0.0185     0.1209     0.1580     0.0741     0.0000     0.0000     0.0000     0.0000     0.0000 </r>
        <r>     8.6948     0.0074     0.0492     0.0925     0.0420     0.0000     0.0000     0.0000     0.0000     0.0000 </r>
        <r>     8.7764     0.0127     0.0426     0.0742     0.0409     0.0000     0.0000     0.0000     0.0000     0.0000 </r>
        <r>     8.8579     0.0143     0.0314     0.0546     0.0385     0.0000     0.0000     0.0000     0.0000     0.0000 </r>
        <r>     8.9395     0.0054     0.0376     0.0692     0.0255     0.0000     0.0000     0.0000     0.0000     0.0000 </r>
        <r>     9.0210     0.0209     0.0311     0.0471     0.0423     0.0000     0.0000     0.0000     0.0000     0.0000 </r>
        <r>     9.1026     0.0035     0.0288     0.0562     0.0200     0.0000     0.0000     0.0000     0.0000     0.0000 </r>
        <r>     9.1841     0.0185     0.0326     0.0482     0.0389     0.0000     0.0000     0.0000     0.0000     0.0000 </r>
        <r>     9.2657     0.0106     0.0272     0.0503     0.0218     0.0000     0.0000     0.0000     0.0000     0.0000 </r>
        <r>     9.3472     0.0116     0.0258     0.0426     0.0331     0.0000     0.0000     0.0000     0.0000     0.0000 </r>
        <r>     9.4288     0.2056     0.0349     0.0542     0.0259     0.0000     0.0000     0.0000     0.0000     0.0000 </r>
        <r>     9.5104     0.3754     0.0171     0.0319     0.0316     0.0000     0.0000     0.0000     0.0000     0.0000 </r>
        <r>     9.5919     0.2238     0.0466     0.0628     0.0292     0.0000     0.0000     0.0000     0.0000     0.0000 </r>
        <r>     9.6735     0.1477     0.0129     0.0229     0.0324     0.0000     0.0000     0.0000     0.0000     0.0000 </r>
        <r>     9.7550     0.1642     0.0493     0.0643     0.0311     0.0000     0.0000     0.0000     0.0000     0.0000 </r>
        <r>     9.8366     0.1306     0.0209     0.0259     0.0332     0.0000     0.0000     0.0000     0.0000     0.0000 </r>
        <r>     9.9181     0.1114     0.0359     0.0482     0.0335     0.0000     0.0000     0.0000     0.0000     0.0000 </r>
        <r>     9.9997     0.1542     0.0420     0.0456     0.0367     0.0000     0.0000     0.0000     0.0000     0.0000 </r>
        <r>    10.0812     0.0843     0.0179     0.0270     0.0348     0.0000     0.0000     0.0000     0.0000     0.0000 </r>
        <r>    10.1628     0.1670     0.0621     0.0619     0.0433     0.0000     0.0000     0.0000     0.0000     0.0000 </r>
        <r>    10.2444     0.0981     0.0189     0.0224     0.0347     0.0000     0.0000     0.0000     0.0000     0.0000 </r>
        <r>    10.3259     0.1725     0.0573     0.0476     0.0517     0.0000     0.0000     0.0000     0.0000     0.0000 </r>
        <r>    10.4075     0.2126     0.0600     0.0439     0.0577     0.0000     0.0000     0.0000     0.0000     0.0000 </r>
        <r>    10.4890     0.2282     0.0495     0.0256     0.0691     0.0000     0.0000     0.0000     0.0000     0.0000 </r>
        <r>    10.5706     0.0242     0.0427     0.0586     0.0235     0.0000     0.0000     0.0000     0.0000     0.0000 </r>
        <r>    10.6521     0.0000     0.0064     0.0256     0.0181     0.0000     0.0000     0.0000     0.0000     0.0000 </r>
        <r>    10.7337     0.0000     0.0202     0.0383     0.0200     0.0000     0.0000     0.0000     0.0000     0.0000 </r>
        <r>    10.8152     0.0000     0.0296     0.0513     0.0194     0.0000     0.0000     0.0000     0.0000     0.0000 </r>
        <r>    10.8968     0.0000     0.0030     0.0230     0.0205     0.0000     0.0000     0.0000     0.0000     0.0000 </r>
        <r>    10.9783     0.0000     0.0340     0.0492     0.0154     0.0000     0.0000     0.0000     0.0000     0.0000 </r>
        <r>    11.0599     0.0000     0.0151     0.0366     0.0205     0.0000     0.0000     0.0000     0.0000     0.0000 </r>
        <r>    11.1415     0.0000     0.0073     0.0282     0.0206     0.0000     0.0000     0.0000     0.0000     0.0000 </r>
        <r>    11.2230     0.0000     0.0384     0.0532     0.0150     0.0000     0.0000     0.0000     0.0000     0.0000 </r>
        <r>    11.3046     0.0000     0.0057     0.0276     0.0215     0.0000     0.0000     0.0000     0.0000     0.0000 </r>
        <r>    11.3861     0.0000     0.0165     0.0345     0.0168     0.0000     0.0000     0.0000     0.0000     0.0000 </r>
        <r>    11.4677     0.0000     0.0329     0.0498     0.0181     0.0000     0.0000     0.0000     0.0000     0.0000 </r>
        <r>    11.5492     0.0000     0.0023     0.0259     0.0223     0.0000     0.0000     0.0000     0.0000     0.0000 </r>
        <r>    11.6308     0.0000     0.0266     0.0397     0.0120     0.0000     0.0000     0.0000     0.0000     0.0000 </r>
        <r>    11.7123     0.0000     0.0234     0.0427     0.0216     0.0000     0.0000     0.0000     0.0000     0.0000 </r>
        <r>    11.7939     0.0000     0.0026     0.0273     0.0217     0.0000     0.0000     0.0000     0.0000     0.0000 </r>
        <r>    11.8754     0.0000     0.0348     0.0443     0.0092     0.0000     0.0000     0.0000     0.0000     0.0000 </r>
        <r>    11.9570     0.0000     0.0140     0.0356     0.0244     0.0000     0.0000     0.0000     0.0000     0.0000 </r>
        <r>    12.0386     0.0000     0.0050     0.0290     0.0198     0.0000     0.0000     0.0000     0.0000     0.0000 </r>
        <r>    12.1201     0.0000     0.0381     0.0461     0.0087     0.0000     0.0000     0.0000     0.0000     0.0000 </r>
        <r>    12.2017     0.0000     0.0081     0.0322     0.0265     0.0000     0.0000     0.0000     0.0000     0.0000 </r>
        <r>    12.2832     0.0000     0.0091     0.0304     0.0166     0.0000     0.0000     0.0000     0.0000     0.0000 </r>
        <r>    12.3648     0.0000     0.0377     0.0457     0.0100     0.0000     0.0000     0.0000     0.0000     0.0000 </r>
        <r>    12.4463     0.0000     0.0043     0.0309     0.0279     0.0000     0.0000     0.0000     0.0000     0.0000 </r>
        <r>    12.5279     0.0000     0.0141     0.0319     0.0131     0.0000     0.0000     0.0000     0.0000     0.0000 </r>
        <r>    12.6094     0.0000     0.0345     0.0434     0.0119     0.0000     0.0000     0.0000     0.0000     0.0000 </r>
        <r>    12.6910     0.0000     0.0024     0.0314     0.0288     0.0000     0.0000     0.0000     0.0000     0.0000 </r>
        <r>    12.7725     0.0000     0.0193     0.0332     0.0098     0.0000     0.0000     0.0000     0.0000     0.0000 </r>
        <r>    12.8541     0.0000     0.0301     0.0403     0.0140     0.0000     0.0000     0.0000     0.0000     0.0000 </r>
        <r>    12.9357     0.0000     0.0016     0.0324     0.0291     0.0000     0.0000     0.0000     0.0000     0.0000 </r>
        <r>    13.0172     0.0000     0.0239     0.0343     0.0072     0.0000     0.0000     0.0000     0.0000     0.0000 </r>
        <r>    13.0988     0.0000     0.0257     0.0371     0.0159     0.0000     0.0000     0.0000     0.0000     0.0000 </r>
        <r>    13.1803     0.0000     0.0014     0.0334     0.0289     0.0000     0.0000     0.0000     0.0000     0.0000 </r>
        <r>    13.2619     0.0000     0.0275     0.0354     0.0053     0.0000     0.0000     0.0000     0.0000     0.0000 </r>
        <r>    13.3434     0.0000     0.0218     0.0344     0.0174     0.0000     0.0000     0.0000     0.0000     0.0000 </r>
        <r>    13.4250     0.0000     0.0015     0.0339     0.0285     0.0000     0.0000     0.0000     0.0000     0.0000 </r>
        <r>    13.5065     0.0000     0.0303     0.0364     0.0041     0.0000     0.0000     0.0000     0.0000     0.0000 </r>
        <r>    13.5881     0.0000     0.0187     0.0323     0.0185     0.0000     0.0000     0.0000     0.0000     0.0000 </r>
        <r>    13.6697     0.0000     0.0018     0.0343     0.0282     0.0000     0.0000     0.0000     0.0000     0.0000 </r>
        <r>    13.7512     0.0000     0.0321     0.0369     0.0032     0.0000     0.0000     0.0000     0.0000     0.0000 </r>
        <r>    13.8328     0.0000     0.0165     0.0308     0.0192     0.0000     0.0000     0.0000     0.0000     0.0000 </r>
        <r>    13.9143     0.0000     0.0020     0.0345     0.0280     0.0000     0.0000     0.0000     0.0000     0.0000 </r>
        <r>    13.9959     0.0000     0.0332     0.0371     0.0027     0.0000     0.0000     0.0000     0.0000     0.0000 </r>
        <r>    14.0774     0.0000     0.0152     0.0300     0.0194     0.0000     0.0000     0.0000     0.0000     0.0000 </r>
        <r>    14.1590     0.0000     0.0022     0.0348     0.0282     0.0000     0.0000     0.0000     0.0000     0.0000 </r>
        <r>    14.2405     0.0000     0.0340     0.0374     0.0023     0.0000     0.0000     0.0000     0.0000     0.0000 </r>
        <r>    14.3221     0.0000     0.0143     0.0294     0.0192     0.0000     0.0000     0.0000     0.0000     0.0000 </r>
        <r>    14.4036     0.0000     0.0023     0.0352     0.0288     0.0000     0.0000     0.0000     0.0000     0.0000 </r>
        <r>    14.4852     0.0000     0.0344     0.0374     0.0021     0.0000     0.0000     0.0000     0.0000     0.0000 </r>
        <r>    14.5668     0.0000     0.0139     0.0289     0.0188     0.0000     0.0000     0.0000     0.0000     0.0000 </r>
        <r>    14.6483     0.0000     0.0024     0.0356     0.0295     0.0000     0.0000     0.0000     0.0000     0.0000 </r>
        <r>    14.7299     0.0000     0.0348     0.0376     0.0019     0.0000     0.0000     0.0000     0.0000     0.0000 </r>
        <r>    14.8114     0.0000     0.0138     0.0283     0.0177     0.0000     0.0000     0.0000     0.0000     0.0000 </r>
        <r>    14.8930     0.0000     0.0024     0.0367     0.0310     0.0000     0.0000     0.0000     0.0000     0.0000 </r>
        <r>    14.9745     0.0000     0.0353     0.0381     0.0020     0.0000     0.0000     0.0000     0.0000     0.0000 </r>
        <r>    15.0561     0.0000     0.0137     0.0285     0.0177     0.0000     0.0000     0.0000     0.0000     0.0000 </r>
        <r>    15.1376     0.0000     0.0027     0.0375     0.0319     0.0000     0.0000     0.0000     0.0000     0.0000 </r>
        <r>    15.2192     0.0000     0.0366     0.0393     0.0020     0.0000     0.0000     0.0000     0.0000     0.0000 </r>
        <r>    15.3007     0.0000     0.0132     0.0291     0.0184     0.0000     0.0000     0.0000     0.0000     0.0000 </r>
        <r>    15.3823     0.0000     0.0036     0.0386     0.0326     0.0000     0.0000     0.0000     0.0000     0.0000 </r>
        <r>    15.4639     0.0000     0.0390     0.0417     0.0020     0.0000     0.0000     0.0000     0.0000     0.0000 </r>
        <r>    15.5454     0.0000     0.0115     0.0313     0.0218     0.0000     0.0000     0.0000     0.0000     0.0000 </r>
        <r>    15.6270     0.0000     0.0067     0.0406     0.0316     0.0000     0.0000     0.0000     0.0000     0.0000 </r>
        <r>    15.7085     0.0000     0.0426     0.0450     0.0022     0.0000     0.0000     0.0000     0.0000     0.0000 </r>
        <r>    15.7901     0.0000     0.0076     0.0387     0.0321     0.0000     0.0000     0.0000     0.0000     0.0000 </r>
        <r>    15.8716     0.0000     0.0213     0.0482     0.0249     0.0000     0.0000     0.0000     0.0000     0.0000 </r>
        <r>    15.9532     0.0000     0.0380     0.0481     0.0103     0.0000     0.0000     0.0000     0.0000     0.0000 </r>
        <r>    16.0347     0.0000     0.0181     0.0670     0.0486     0.0000     0.0000     0.0000     0.0000     0.0000 </r>
        <r>    16.1163     0.0000     0.0699     0.1074     0.0436     0.0000     0.0000     0.0000     0.0000     0.0000 </r>
        <r>    16.1978     0.0000     0.0522     0.1250     0.0666     0.0000     0.0000     0.0000     0.0000     0.0000 </r>
        <r>    16.2794     0.0000     0.0028     0.0081     0.0030     0.0000     0.0000     0.0000     0.0000     0.0000 </r>
        <r>    16.3610     0.0000     0.0000     0.0000     0.0000     0.0000     0.0000     0.0000     0.0000     0.0000 </r>
        <r>    16.4425     0.0000     0.0000     0.0000     0.0000     0.0000     0.0000     0.0000     0.0000     0.0000 </r>
        <r>    16.5241     0.0000     0.0000     0.0000     0.0000     0.0000     0.0000     0.0000     0.0000     0.0000 </r>
        <r>    16.6056     0.0000     0.0000     0.0000     0.0000     0.0000     0.0000     0.0000     0.0000     0.0000 </r>
        <r>    16.6872     0.0000     0.0000     0.0000     0.0000     0.0000     0.0000     0.0000     0.0000     0.0000 </r>
        <r>    16.7687     0.0000     0.0000     0.0000     0.0000     0.0000     0.0000     0.0000     0.0000     0.0000 </r>
        <r>    16.8503     0.0000     0.0000     0.0000     0.0000     0.0000     0.0000     0.0000     0.0000     0.0000 </r>
        <r>    16.9318     0.0000     0.0000     0.0000     0.0000     0.0000     0.0000     0.0000     0.0000     0.0000 </r>
        <r>    17.0134     0.0000     0.0000     0.0000     0.0000     0.0000     0.0000     0.0000     0.0000     0.0000 </r>
        <r>    17.0950     0.0000     0.0000     0.0000     0.0000     0.0000     0.0000     0.0000     0.0000     0.0000 </r>
        <r>    17.1765     0.0000     0.0000     0.0000     0.0000     0.0000     0.0000     0.0000     0.0000     0.0000 </r>
        <r>    17.2581     0.0000     0.0000     0.0000     0.0000     0.0000     0.0000     0.0000     0.0000     0.0000 </r>
       </set>
      </set>
     </set>
    </array>
   </partial>
  </dos>
  <projected>
   <eigenvalues>
    <array>
     <dimension dim="1">band</dimension>
     <dimension dim="2">kpoint</dimension>
     <dimension dim="3">spin</dimension>
     <field>eigene</field>
     <field>occ</field>
     <set>
      <set comment="spin 1">
       <set comment="kpoint 1">
        <r>   -1.8733    1.0000 </r>
        <r>   -1.8733    1.0000 </r>
        <r>    3.0060    1.0000 </r>
        <r>    3.0060    1.0000 </r>
        <r>    6.5727    0.0000 </r>
        <r>    6.5727    0.0000 </r>
        <r>   16.1345    0.0000 </r>
        <r>   16.1460    0.0000 </r>
       </set>
       <set comment="kpoint 2">
        <r>   -2.0732    1.0000 </r>
        <r>   -1.6700    1.0000 </r>
        <r>    3.0086    1.0000 </r>
        <r>    3.0086    1.0000 </r>
        <r>    6.5293    0.0000 </r>
        <r>    6.6239    0.0000 </r>
        <r>   16.0594    0.0000 </r>
        <r>   16.0601    0.0000 </r>
       </set>
       <set comment="kpoint 3">
        <r>   -2.2694    1.0000 </r>
        <r>   -1.4636    1.0000 </r>
        <r>    3.0166    1.0000 </r>
        <r>    3.0166    1.0000 </r>
        <r>    6.4940    0.0000 </r>
        <r>    6.6833    0.0000 </r>
        <r>   15.8850    0.0000 </r>
        <r>   15.8851    0.0000 </r>
       </set>
       <set comment="kpoint 4">
        <r>   -2.4620    1.0000 </r>
        <r>   -1.2540    1.0000 </r>
        <r>    3.0298    1.0000 </r>
        <r>    3.0298    1.0000 </r>
        <r>    6.4665    0.0000 </r>
        <r>    6.7510    0.0000 </r>
        <r>   15.6688    0.0000 </r>
        <r>   15.6689    0.0000 </r>
       </set>
       <set comment="kpoint 5">
        <r>   -2.6506    1.0000 </r>
        <r>   -1.0416    1.0000 </r>
        <r>    3.0483    1.0000 </r>
        <r>    3.0483    1.0000 </r>
        <r>    6.4467    0.0000 </r>
        <r>    6.8270    0.0000 </r>
        <r>   15.4358    0.0000 </r>
        <r>   15.4358    0.0000 </r>
       </set>
       <set comment="kpoint 6">
        <r>   -2.8353    1.0000 </r>
        <r>   -0.8266    1.0000 </r>
        <r>    3.0722    1.0000 </r>
        <r>    3.0722    1.0000 </r>
        <r>    6.4343    0.0000 </r>
        <r>    6.9115    0.0000 </r>
        <r>   15.1956    0.0000 </r>
        <r>   15.1956    0.0000 </r>
       </set>
       <set comment="kpoint 7">
        <r>   -3.0158    1.0000 </r>
        <r>   -0.6090    1.0000 </r>
        <r>    3.1013    1.0000 </r>
        <r>    3.1013    1.0000 </r>
        <r>    6.4294    0.0000 </r>
        <r>    7.0046    0.0000 </r>
        <r>   14.9527    0.0000 </r>
        <r>   14.9527    0.0000 </r>
       </set>
       <set comment="kpoint 8">
        <r>   -3.1920    1.0000 </r>
        <r>   -0.3891    1.0000 </r>
        <r>    3.1356    1.0000 </r>
        <r>    3.1356    1.0000 </r>
        <r>    6.4317    0.0000 </r>
        <r>    7.1063    0.0000 </r>
        <r>   14.7084    0.0000 </r>
        <r>   14.7084    0.0000 </r>
       </set>
       <set comment="kpoint 9">
        <r>   -3.3638    1.0000 </r>
        <r>   -0.1672    1.0000 </r>
        <r>    3.1751    1.0000 </r>
        <r>    3.1751    1.0000 </r>
        <r>    6.4411    0.0000 </r>
        <r>    7.2167    0.0000 </r>
        <r>   14.4642    0.0000 </r>
        <r>   14.4642    0.0000 </r>
       </set>
       <set comment="kpoint 10">
        <r>   -3.5311    1.0000 </r>
        <r>    0.0566    1.0000 </r>
        <r>    3.2198    1.0000 </r>
        <r>    3.2198    1.0000 </r>
        <r>    6.4575    0.0000 </r>
        <r>    7.3358    0.0000 </r>
        <r>   14.2205    0.0000 </r>
        <r>   14.2206    0.0000 </r>
       </set>
       <set comment="kpoint 11">
        <r>   -3.6938    1.0000 </r>
        <r>    0.2821    1.0000 </r>
        <r>    3.2696    1.0000 </r>
        <r>    3.2696    1.0000 </r>
        <r>    6.4815    0.0000 </r>
        <r>    7.4635    0.0000 </r>
        <r>   13.9778    0.0000 </r>
        <r>   13.9778    0.0000 </r>
       </set>
       <set comment="kpoint 12">
        <r>   -3.8518    1.0000 </r>
        <r>    0.5091    1.0000 </r>
        <r>    3.3245    1.0000 </r>
        <r>    3.3245    1.0000 </r>
        <r>    6.5112    0.0000 </r>
        <r>    7.5999    0.0000 </r>
        <r>   13.7357    0.0000 </r>
        <r>   13.7357    0.0000 </r>
       </set>
       <set comment="kpoint 13">
        <r>   -4.0050    1.0000 </r>
        <r>    0.7373    1.0000 </r>
        <r>    3.3845    1.0000 </r>
        <r>    3.3845    1.0000 </r>
        <r>    6.5473    0.0000 </r>
        <r>    7.7447    0.0000 </r>
        <r>   13.4954    0.0000 </r>
        <r>   13.4954    0.0000 </r>
       </set>
       <set comment="kpoint 14">
        <r>   -4.1532    1.0000 </r>
        <r>    0.9665    1.0000 </r>
        <r>    3.4494    1.0000 </r>
        <r>    3.4494    1.0000 </r>
        <r>    6.5899    0.0000 </r>
        <r>    7.8982    0.0000 </r>
        <r>   13.2564    0.0000 </r>
        <r>   13.2564    0.0000 </r>
       </set>
       <set comment="kpoint 15">
        <r>   -4.2965    1.0000 </r>
        <r>    1.1967    1.0000 </r>
        <r>    3.5193    1.0000 </r>
        <r>    3.5193    1.0000 </r>
        <r>    6.6385    0.0000 </r>
        <r>    8.0600    0.0000 </r>
        <r>   13.0189    0.0000 </r>
        <r>   13.0190    0.0000 </r>
       </set>
       <set comment="kpoint 16">
        <r>   -4.4347    1.0000 </r>
        <r>    1.4274    1.0000 </r>
        <r>    3.5940    1.0000 </r>
        <r>    3.5940    1.0000 </r>
        <r>    6.6930    0.0000 </r>
        <r>    8.2298    0.0000 </r>
        <r>   12.7830    0.0000 </r>
        <r>   12.7830    0.0000 </r>
       </set>
       <set comment="kpoint 17">
        <r>   -4.5677    1.0000 </r>
        <r>    1.6587    1.0000 </r>
        <r>    3.6735    1.0000 </r>
        <r>    3.6735    1.0000 </r>
        <r>    6.7531    0.0000 </r>
        <r>    8.4073    0.0000 </r>
        <r>   12.5486    0.0000 </r>
        <r>   12.5486    0.0000 </r>
       </set>
       <set comment="kpoint 18">
        <r>   -4.6955    1.0000 </r>
        <r>    1.8902    1.0000 </r>
        <r>    3.7576    1.0000 </r>
        <r>    3.7576    1.0000 </r>
        <r>    6.8186    0.0000 </r>
        <r>    8.5918    0.0000 </r>
        <r>   12.3158    0.0000 </r>
        <r>   12.3158    0.0000 </r>
       </set>
       <set comment="kpoint 19">
        <r>   -4.8181    1.0000 </r>
        <r>    2.1218    1.0000 </r>
        <r>    3.8463    1.0000 </r>
        <r>    3.8463    1.0000 </r>
        <r>    6.8893    0.0000 </r>
        <r>    8.7827    0.0000 </r>
        <r>   12.0848    0.0000 </r>
        <r>   12.0848    0.0000 </r>
       </set>
       <set comment="kpoint 20">
        <r>   -4.9353    1.0000 </r>
        <r>    2.3532    1.0000 </r>
        <r>    3.9393    1.0000 </r>
        <r>    3.9393    1.0000 </r>
        <r>    6.9646    0.0000 </r>
        <r>    8.9788    0.0000 </r>
        <r>   11.8544    0.0000 </r>
        <r>   11.8544    0.0000 </r>
       </set>
       <set comment="kpoint 21">
        <r>   -5.0471    1.0000 </r>
        <r>    2.5844    1.0000 </r>
        <r>    4.0367    1.0000 </r>
        <r>    4.0367    1.0000 </r>
        <r>    7.0449    0.0000 </r>
        <r>    9.1795    0.0000 </r>
        <r>   11.6278    0.0000 </r>
        <r>   11.6278    0.0000 </r>
       </set>
       <set comment="kpoint 22">
        <r>   -5.1535    1.0000 </r>
        <r>    2.8150    1.0000 </r>
        <r>    4.1380    1.0000 </r>
        <r>    4.1380    1.0000 </r>
        <r>    7.1289    0.0000 </r>
        <r>    9.3824    0.0000 </r>
        <r>   11.4021    0.0000 </r>
        <r>   11.4021    0.0000 </r>
       </set>
       <set comment="kpoint 23">
        <r>   -5.2544    1.0000 </r>
        <r>    3.0448    1.0000 </r>
        <r>    4.2433    1.0000 </r>
        <r>    4.2433    1.0000 </r>
        <r>    7.2168    0.0000 </r>
        <r>    9.5853    0.0000 </r>
        <r>   11.1795    0.0000 </r>
        <r>   11.1795    0.0000 </r>
       </set>
       <set comment="kpoint 24">
        <r>   -5.3497    1.0000 </r>
        <r>    3.2739    1.0000 </r>
        <r>    4.3522    1.0000 </r>
        <r>    4.3522    1.0000 </r>
        <r>    7.3080    0.0000 </r>
        <r>    9.7862    0.0000 </r>
        <r>   10.9596    0.0000 </r>
        <r>   10.9596    0.0000 </r>
       </set>
       <set comment="kpoint 25">
        <r>   -5.4394    1.0000 </r>
        <r>    3.5014    1.0000 </r>
        <r>    4.4645    1.0000 </r>
        <r>    4.4645    1.0000 </r>
        <r>    7.4019    0.0000 </r>
        <r>    9.9764    0.0000 </r>
        <r>   10.7426    0.0000 </r>
        <r>   10.7426    0.0000 </r>
       </set>
       <set comment="kpoint 26">
        <r>   -5.5235    1.0000 </r>
        <r>    3.7272    1.0000 </r>
        <r>    4.5798    1.0000 </r>
        <r>    4.5798    1.0000 </r>
        <r>    7.4980    0.0000 </r>
        <r>   10.1505    0.0000 </r>
        <r>   10.5293    0.0000 </r>
        <r>   10.5293    0.0000 </r>
       </set>
       <set comment="kpoint 27">
        <r>   -5.6020    1.0000 </r>
        <r>    3.9508    1.0000 </r>
        <r>    4.6976    1.0000 </r>
        <r>    4.6976    1.0000 </r>
        <r>    7.5955    0.0000 </r>
        <r>   10.2966    0.0000 </r>
        <r>   10.3195    0.0000 </r>
        <r>   10.3195    0.0000 </r>
       </set>
       <set comment="kpoint 28">
        <r>   -5.6748    1.0000 </r>
        <r>    4.1718    1.0000 </r>
        <r>    4.8175    1.0000 </r>
        <r>    4.8175    1.0000 </r>
        <r>    7.6936    0.0000 </r>
        <r>   10.1141    0.0000 </r>
        <r>   10.1141    0.0000 </r>
        <r>   10.4013    0.0000 </r>
       </set>
       <set comment="kpoint 29">
        <r>   -5.7419    1.0000 </r>
        <r>    4.3892    1.0000 </r>
        <r>    4.9385    1.0000 </r>
        <r>    4.9385    1.0000 </r>
        <r>    7.7914    0.0000 </r>
        <r>    9.9136    0.0000 </r>
        <r>    9.9136    0.0000 </r>
        <r>   10.4509    0.0000 </r>
       </set>
       <set comment="kpoint 30">
        <r>   -5.8032    1.0000 </r>
        <r>    4.6023    1.0000 </r>
        <r>    5.0603    1.0000 </r>
        <r>    5.0603    1.0000 </r>
        <r>    7.8880    0.0000 </r>
        <r>    9.7194    0.0000 </r>
        <r>    9.7194    0.0000 </r>
        <r>   10.4389    0.0000 </r>
       </set>
       <set comment="kpoint 31">
        <r>   -5.8587    1.0000 </r>
        <r>    4.8099    1.0000 </r>
        <r>    5.1817    1.0000 </r>
        <r>    5.1817    1.0000 </r>
        <r>    7.9822    0.0000 </r>
        <r>    9.5322    0.0000 </r>
        <r>    9.5322    0.0000 </r>
        <r>   10.3709    0.0000 </r>
       </set>
       <set comment="kpoint 32">
        <r>   -5.9085    1.0000 </r>
        <r>    5.0104    1.0000 </r>
        <r>    5.3014    1.0000 </r>
        <r>    5.3014    1.0000 </r>
        <r>    8.0726    0.0000 </r>
        <r>    9.3534    0.0000 </r>
        <r>    9.3534    0.0000 </r>
        <r>   10.2616    0.0000 </r>
       </set>
       <set comment="kpoint 33">
        <r>   -5.9524    1.0000 </r>
        <r>    5.2017    1.0000 </r>
        <r>    5.4177    1.0000 </r>
        <r>    5.4177    1.0000 </r>
        <r>    8.1578    0.0000 </r>
        <r>    9.1841    0.0000 </r>
        <r>    9.1841    0.0000 </r>
        <r>   10.1274    0.0000 </r>
       </set>
       <set comment="kpoint 34">
        <r>   -5.9905    1.0000 </r>
        <r>    5.3813    1.0000 </r>
        <r>    5.5288    1.0000 </r>
        <r>    5.5288    1.0000 </r>
        <r>    8.2365    0.0000 </r>
        <r>    9.0275    0.0000 </r>
        <r>    9.0275    0.0000 </r>
        <r>    9.9827    0.0000 </r>
       </set>
       <set comment="kpoint 35">
        <r>   -6.0228    1.0000 </r>
        <r>    5.5459    1.0000 </r>
        <r>    5.6320    1.0000 </r>
        <r>    5.6320    1.0000 </r>
        <r>    8.3068    0.0000 </r>
        <r>    8.8858    0.0000 </r>
        <r>    8.8858    0.0000 </r>
        <r>    9.8389    0.0000 </r>
       </set>
       <set comment="kpoint 36">
        <r>   -6.0493    1.0000 </r>
        <r>    5.6912    1.0000 </r>
        <r>    5.7242    1.0000 </r>
        <r>    5.7242    1.0000 </r>
        <r>    8.3672    0.0000 </r>
        <r>    8.7619    0.0000 </r>
        <r>    8.7619    0.0000 </r>
        <r>    9.7056    0.0000 </r>
       </set>
       <set comment="kpoint 37">
        <r>   -6.0698    1.0000 </r>
        <r>    5.8019    1.0000 </r>
        <r>    5.8019    1.0000 </r>
        <r>    5.8125    1.0000 </r>
        <r>    8.4162    0.0000 </r>
        <r>    8.6595    0.0000 </r>
        <r>    8.6595    0.0000 </r>
        <r>    9.5908    0.0000 </r>
       </set>
       <set comment="kpoint 38">
        <r>   -6.0845    1.0000 </r>
        <r>    5.8612    1.0000 </r>
        <r>    5.8612    1.0000 </r>
        <r>    5.9045    1.0000 </r>
        <r>    8.4523    0.0000 </r>
        <r>    8.5826    0.0000 </r>
        <r>    8.5826    0.0000 </r>
        <r>    9.5023    0.0000 </r>
       </set>
       <set comment="kpoint 39">
        <r>   -6.0933    1.0000 </r>
        <r>    5.8986    1.0000 </r>
        <r>    5.8986    1.0000 </r>
        <r>    5.9621    1.0000 </r>
        <r>    8.4744    0.0000 </r>
        <r>    8.5347    0.0000 </r>
        <r>    8.5347    0.0000 </r>
        <r>    9.4462    0.0000 </r>
       </set>
       <set comment="kpoint 40">
        <r>   -6.0963    1.0000 </r>
        <r>    5.9113    1.0000 </r>
        <r>    5.9113    1.0000 </r>
        <r>    5.9818    1.0000 </r>
        <r>    8.4819    0.0000 </r>
        <r>    8.5184    0.0000 </r>
        <r>    8.5184    0.0000 </r>
        <r>    9.4270    0.0000 </r>
       </set>
       <set comment="kpoint 41">
        <r>   -6.0963    1.0000 </r>
        <r>    5.9113    1.0000 </r>
        <r>    5.9113    1.0000 </r>
        <r>    5.9818    1.0000 </r>
        <r>    8.4819    0.0000 </r>
        <r>    8.5184    0.0000 </r>
        <r>    8.5184    0.0000 </r>
        <r>    9.4270    0.0000 </r>
       </set>
       <set comment="kpoint 42">
        <r>   -6.0934    1.0000 </r>
        <r>    5.8919    1.0000 </r>
        <r>    5.8989    1.0000 </r>
        <r>    5.9688    1.0000 </r>
        <r>    8.4978    0.0000 </r>
        <r>    8.5112    0.0000 </r>
        <r>    8.5351    0.0000 </r>
        <r>    9.4460    0.0000 </r>
       </set>
       <set comment="kpoint 43">
        <r>   -6.0847    1.0000 </r>
        <r>    5.8350    1.0000 </r>
        <r>    5.8626    1.0000 </r>
        <r>    5.9308    1.0000 </r>
        <r>    8.4899    0.0000 </r>
        <r>    8.5447    0.0000 </r>
        <r>    8.5841    0.0000 </r>
        <r>    9.5017    0.0000 </r>
       </set>
       <set comment="kpoint 44">
        <r>   -6.0703    1.0000 </r>
        <r>    5.7441    1.0000 </r>
        <r>    5.8049    1.0000 </r>
        <r>    5.8706    1.0000 </r>
        <r>    8.4551    0.0000 </r>
        <r>    8.6199    0.0000 </r>
        <r>    8.6627    0.0000 </r>
        <r>    9.5899    0.0000 </r>
       </set>
       <set comment="kpoint 45">
        <r>   -6.0501    1.0000 </r>
        <r>    5.6239    1.0000 </r>
        <r>    5.7293    1.0000 </r>
        <r>    5.7919    1.0000 </r>
        <r>    8.4079    0.0000 </r>
        <r>    8.7201    0.0000 </r>
        <r>    8.7671    0.0000 </r>
        <r>    9.7043    0.0000 </r>
       </set>
       <set comment="kpoint 46">
        <r>   -6.0241    1.0000 </r>
        <r>    5.4796    1.0000 </r>
        <r>    5.6395    1.0000 </r>
        <r>    5.6988    1.0000 </r>
        <r>    8.3497    0.0000 </r>
        <r>    8.8415    0.0000 </r>
        <r>    8.8933    0.0000 </r>
        <r>    9.8379    0.0000 </r>
       </set>
       <set comment="kpoint 47">
        <r>   -5.9924    1.0000 </r>
        <r>    5.3160    1.0000 </r>
        <r>    5.5390    1.0000 </r>
        <r>    5.5949    1.0000 </r>
        <r>    8.2818    0.0000 </r>
        <r>    8.9805    0.0000 </r>
        <r>    9.0375    0.0000 </r>
        <r>    9.9824    0.0000 </r>
       </set>
       <set comment="kpoint 48">
        <r>   -5.9549    1.0000 </r>
        <r>    5.1371    1.0000 </r>
        <r>    5.4308    1.0000 </r>
        <r>    5.4833    1.0000 </r>
        <r>    8.2058    0.0000 </r>
        <r>    9.1340    0.0000 </r>
        <r>    9.1966    0.0000 </r>
        <r>   10.1283    0.0000 </r>
       </set>
       <set comment="kpoint 49">
        <r>   -5.9117    1.0000 </r>
        <r>    4.9462    1.0000 </r>
        <r>    5.3173    1.0000 </r>
        <r>    5.3666    1.0000 </r>
        <r>    8.1233    0.0000 </r>
        <r>    9.2997    0.0000 </r>
        <r>    9.3680    0.0000 </r>
        <r>   10.2637    0.0000 </r>
       </set>
       <set comment="kpoint 50">
        <r>   -5.8629    1.0000 </r>
        <r>    4.7459    1.0000 </r>
        <r>    5.2006    1.0000 </r>
        <r>    5.2468    1.0000 </r>
        <r>    8.0358    0.0000 </r>
        <r>    9.4754    0.0000 </r>
        <r>    9.5495    0.0000 </r>
        <r>   10.3736    0.0000 </r>
       </set>
       <set comment="kpoint 51">
        <r>   -5.8083    1.0000 </r>
        <r>    4.5384    1.0000 </r>
        <r>    5.0823    1.0000 </r>
        <r>    5.1256    1.0000 </r>
        <r>    7.9446    0.0000 </r>
        <r>    9.6597    0.0000 </r>
        <r>    9.7400    0.0000 </r>
        <r>   10.4397    0.0000 </r>
       </set>
       <set comment="kpoint 52">
        <r>   -5.7480    1.0000 </r>
        <r>    4.3250    1.0000 </r>
        <r>    4.9635    1.0000 </r>
        <r>    5.0041    1.0000 </r>
        <r>    7.8511    0.0000 </r>
        <r>    9.8513    0.0000 </r>
        <r>    9.9376    0.0000 </r>
        <r>   10.4465    0.0000 </r>
       </set>
       <set comment="kpoint 53">
        <r>   -5.6821    1.0000 </r>
        <r>    4.1071    1.0000 </r>
        <r>    4.8453    1.0000 </r>
        <r>    4.8833    1.0000 </r>
        <r>    7.7561    0.0000 </r>
        <r>   10.0484    0.0000 </r>
        <r>   10.1409    0.0000 </r>
        <r>   10.3891    0.0000 </r>
       </set>
       <set comment="kpoint 54">
        <r>   -5.6105    1.0000 </r>
        <r>    3.8856    1.0000 </r>
        <r>    4.7285    1.0000 </r>
        <r>    4.7640    1.0000 </r>
        <r>    7.6608    0.0000 </r>
        <r>   10.2505    0.0000 </r>
        <r>   10.2765    0.0000 </r>
        <r>   10.3495    0.0000 </r>
       </set>
       <set comment="kpoint 55">
        <r>   -5.5334    1.0000 </r>
        <r>    3.6610    1.0000 </r>
        <r>    4.6136    1.0000 </r>
        <r>    4.6469    1.0000 </r>
        <r>    7.5661    0.0000 </r>
        <r>   10.1234    0.0000 </r>
        <r>   10.4573    0.0000 </r>
        <r>   10.5626    0.0000 </r>
       </set>
       <set comment="kpoint 56">
        <r>   -5.4507    1.0000 </r>
        <r>    3.4344    1.0000 </r>
        <r>    4.5011    1.0000 </r>
        <r>    4.5324    1.0000 </r>
        <r>    7.4727    0.0000 </r>
        <r>    9.9471    0.0000 </r>
        <r>   10.6680    0.0000 </r>
        <r>   10.7799    0.0000 </r>
       </set>
       <set comment="kpoint 57">
        <r>   -5.3624    1.0000 </r>
        <r>    3.2060    1.0000 </r>
        <r>    4.3916    1.0000 </r>
        <r>    4.4208    1.0000 </r>
        <r>    7.3813    0.0000 </r>
        <r>    9.7567    0.0000 </r>
        <r>   10.8822    0.0000 </r>
        <r>   11.0007    0.0000 </r>
       </set>
       <set comment="kpoint 58">
        <r>   -5.2687    1.0000 </r>
        <r>    2.9763    1.0000 </r>
        <r>    4.2854    1.0000 </r>
        <r>    4.3127    1.0000 </r>
        <r>    7.2925    0.0000 </r>
        <r>    9.5595    0.0000 </r>
        <r>   11.0997    0.0000 </r>
        <r>   11.2254    0.0000 </r>
       </set>
       <set comment="kpoint 59">
        <r>   -5.1695    1.0000 </r>
        <r>    2.7455    1.0000 </r>
        <r>    4.1827    1.0000 </r>
        <r>    4.2082    1.0000 </r>
        <r>    7.2069    0.0000 </r>
        <r>    9.3600    0.0000 </r>
        <r>   11.3196    0.0000 </r>
        <r>   11.4523    0.0000 </r>
       </set>
       <set comment="kpoint 60">
        <r>   -5.0648    1.0000 </r>
        <r>    2.5140    1.0000 </r>
        <r>    4.0838    1.0000 </r>
        <r>    4.1076    1.0000 </r>
        <r>    7.1245    0.0000 </r>
        <r>    9.1615    0.0000 </r>
        <r>   11.5415    0.0000 </r>
        <r>   11.6810    0.0000 </r>
       </set>
       <set comment="kpoint 61">
        <r>   -4.9548    1.0000 </r>
        <r>    2.2821    1.0000 </r>
        <r>    3.9890    1.0000 </r>
        <r>    4.0111    1.0000 </r>
        <r>    7.0467    0.0000 </r>
        <r>    8.9664    0.0000 </r>
        <r>   11.7668    0.0000 </r>
        <r>   11.9128    0.0000 </r>
       </set>
       <set comment="kpoint 62">
        <r>   -4.8394    1.0000 </r>
        <r>    2.0498    1.0000 </r>
        <r>    3.8983    1.0000 </r>
        <r>    3.9189    1.0000 </r>
        <r>    6.9731    0.0000 </r>
        <r>    8.7758    0.0000 </r>
        <r>   11.9936    0.0000 </r>
        <r>   12.1470    0.0000 </r>
       </set>
       <set comment="kpoint 63">
        <r>   -4.7188    1.0000 </r>
        <r>    1.8176    1.0000 </r>
        <r>    3.8118    1.0000 </r>
        <r>    3.8310    1.0000 </r>
        <r>    6.9040    0.0000 </r>
        <r>    8.5909    0.0000 </r>
        <r>   12.2223    0.0000 </r>
        <r>   12.3826    0.0000 </r>
       </set>
       <set comment="kpoint 64">
        <r>   -4.5930    1.0000 </r>
        <r>    1.5855    1.0000 </r>
        <r>    3.7299    1.0000 </r>
        <r>    3.7476    1.0000 </r>
        <r>    6.8400    0.0000 </r>
        <r>    8.4126    0.0000 </r>
        <r>   12.4538    0.0000 </r>
        <r>   12.6201    0.0000 </r>
       </set>
       <set comment="kpoint 65">
        <r>   -4.4620    1.0000 </r>
        <r>    1.3539    1.0000 </r>
        <r>    3.6524    1.0000 </r>
        <r>    3.6688    1.0000 </r>
        <r>    6.7810    0.0000 </r>
        <r>    8.2414    0.0000 </r>
        <r>   12.6859    0.0000 </r>
        <r>   12.8590    0.0000 </r>
       </set>
       <set comment="kpoint 66">
        <r>   -4.3259    1.0000 </r>
        <r>    1.1229    1.0000 </r>
        <r>    3.5797    1.0000 </r>
        <r>    3.5948    1.0000 </r>
        <r>    6.7275    0.0000 </r>
        <r>    8.0778    0.0000 </r>
        <r>   12.9198    0.0000 </r>
        <r>   13.0995    0.0000 </r>
       </set>
       <set comment="kpoint 67">
        <r>   -4.1848    1.0000 </r>
        <r>    0.8926    1.0000 </r>
        <r>    3.5117    1.0000 </r>
        <r>    3.5255    1.0000 </r>
        <r>    6.6798    0.0000 </r>
        <r>    7.9222    0.0000 </r>
        <r>   13.1553    0.0000 </r>
        <r>   13.3415    0.0000 </r>
       </set>
       <set comment="kpoint 68">
        <r>   -4.0387    1.0000 </r>
        <r>    0.6635    1.0000 </r>
        <r>    3.4485    1.0000 </r>
        <r>    3.4611    1.0000 </r>
        <r>    6.6380    0.0000 </r>
        <r>    7.7747    0.0000 </r>
        <r>   13.3927    0.0000 </r>
        <r>   13.5848    0.0000 </r>
       </set>
       <set comment="kpoint 69">
        <r>   -3.8878    1.0000 </r>
        <r>    0.4355    1.0000 </r>
        <r>    3.3903    1.0000 </r>
        <r>    3.4017    1.0000 </r>
        <r>    6.6022    0.0000 </r>
        <r>    7.6354    0.0000 </r>
        <r>   13.6311    0.0000 </r>
        <r>   13.8293    0.0000 </r>
       </set>
       <set comment="kpoint 70">
        <r>   -3.7321    1.0000 </r>
        <r>    0.2090    1.0000 </r>
        <r>    3.3369    1.0000 </r>
        <r>    3.3472    1.0000 </r>
        <r>    6.5726    0.0000 </r>
        <r>    7.5045    0.0000 </r>
        <r>   13.8709    0.0000 </r>
        <r>   14.0749    0.0000 </r>
       </set>
       <set comment="kpoint 71">
        <r>   -3.5716    1.0000 </r>
        <r>   -0.0159    1.0000 </r>
        <r>    3.2885    1.0000 </r>
        <r>    3.2977    1.0000 </r>
        <r>    6.5495    0.0000 </r>
        <r>    7.3821    0.0000 </r>
        <r>   14.1121    0.0000 </r>
        <r>   14.3219    0.0000 </r>
       </set>
       <set comment="kpoint 72">
        <r>   -3.4066    1.0000 </r>
        <r>   -0.2389    1.0000 </r>
        <r>    3.2452    1.0000 </r>
        <r>    3.2533    1.0000 </r>
        <r>    6.5327    0.0000 </r>
        <r>    7.2682    0.0000 </r>
        <r>   14.3537    0.0000 </r>
        <r>   14.5686    0.0000 </r>
       </set>
       <set comment="kpoint 73">
        <r>   -3.2370    1.0000 </r>
        <r>   -0.4599    1.0000 </r>
        <r>    3.2069    1.0000 </r>
        <r>    3.2140    1.0000 </r>
        <r>    6.5229    0.0000 </r>
        <r>    7.1626    0.0000 </r>
        <r>   14.5968    0.0000 </r>
        <r>   14.8171    0.0000 </r>
       </set>
       <set comment="kpoint 74">
        <r>   -3.0630    1.0000 </r>
        <r>   -0.6786    1.0000 </r>
        <r>    3.1738    1.0000 </r>
        <r>    3.1797    1.0000 </r>
        <r>    6.5195    0.0000 </r>
        <r>    7.0653    0.0000 </r>
        <r>   14.8411    0.0000 </r>
        <r>   15.0633    0.0000 </r>
       </set>
       <set comment="kpoint 75">
        <r>   -2.8848    1.0000 </r>
        <r>   -0.8949    1.0000 </r>
        <r>    3.1457    1.0000 </r>
        <r>    3.1506    1.0000 </r>
        <r>    6.5235    0.0000 </r>
        <r>    6.9763    0.0000 </r>
        <r>   15.0843    0.0000 </r>
        <r>   15.3082    0.0000 </r>
       </set>
       <set comment="kpoint 76">
        <r>   -2.7023    1.0000 </r>
        <r>   -1.1086    1.0000 </r>
        <r>    3.1229    1.0000 </r>
        <r>    3.1268    1.0000 </r>
        <r>    6.5346    0.0000 </r>
        <r>    6.8956    0.0000 </r>
        <r>   15.3260    0.0000 </r>
        <r>   15.5489    0.0000 </r>
       </set>
       <set comment="kpoint 77">
        <r>   -2.5158    1.0000 </r>
        <r>   -1.3194    1.0000 </r>
        <r>    3.1051    1.0000 </r>
        <r>    3.1081    1.0000 </r>
        <r>    6.5530    0.0000 </r>
        <r>    6.8230    0.0000 </r>
        <r>   15.5636    0.0000 </r>
        <r>   15.7799    0.0000 </r>
       </set>
       <set comment="kpoint 78">
        <r>   -2.3254    1.0000 </r>
        <r>   -1.5272    1.0000 </r>
        <r>    3.0926    1.0000 </r>
        <r>    3.0945    1.0000 </r>
        <r>    6.5788    0.0000 </r>
        <r>    6.7584    0.0000 </r>
        <r>   15.7907    0.0000 </r>
        <r>   15.9864    0.0000 </r>
       </set>
       <set comment="kpoint 79">
        <r>   -2.1312    1.0000 </r>
        <r>   -1.7319    1.0000 </r>
        <r>    3.0853    1.0000 </r>
        <r>    3.0862    1.0000 </r>
        <r>    6.6121    0.0000 </r>
        <r>    6.7018    0.0000 </r>
        <r>   15.9939    0.0000 </r>
        <r>   16.1275    0.0000 </r>
       </set>
       <set comment="kpoint 80">
        <r>   -1.9333    1.0000 </r>
        <r>   -1.9333    1.0000 </r>
        <r>    3.0831    1.0000 </r>
        <r>    3.0831    1.0000 </r>
        <r>    6.6530    0.0000 </r>
        <r>    6.6530    0.0000 </r>
        <r>   16.1311    0.0000 </r>
        <r>   16.1324    0.0000 </r>
       </set>
      </set>
     </set>
    </array>
   </eigenvalues>
   <array>
    <dimension dim="1">ion</dimension>
    <dimension dim="2">band</dimension>
    <dimension dim="3">kpoint</dimension>
    <dimension dim="4">spin</dimension>
    <field>    s</field>
    <field>   py</field>
    <field>   pz</field>
    <field>   px</field>
    <field>  dxy</field>
    <field>  dyz</field>
    <field>  dz2</field>
    <field>  dxz</field>
    <field>x2-y2</field>
    <set>
     <set comment="spin1">
      <set comment="kpoint 1">
       <set comment="band 1">
        <r>  0.3757  0.0000  0.0000  0.0030  0.0000  0.0000  0.0000  0.0000  0.0000 </r>
        <r>  0.0126  0.0000  0.0000  0.0897  0.0000  0.0000  0.0000  0.0000  0.0000 </r>
       </set>
       <set comment="band 2">
        <r>  0.0126  0.0000  0.0000  0.0897  0.0000  0.0000  0.0000  0.0000  0.0000 </r>
        <r>  0.3757  0.0000  0.0000  0.0030  0.0000  0.0000  0.0000  0.0000  0.0000 </r>
       </set>
       <set comment="band 3">
        <r>  0.0000  0.0976  0.1013  0.0000  0.0000  0.0000  0.0000  0.0000  0.0000 </r>
        <r>  0.0000  0.1013  0.0976  0.0000  0.0000  0.0000  0.0000  0.0000  0.0000 </r>
       </set>
       <set comment="band 4">
        <r>  0.0000  0.1013  0.0976  0.0000  0.0000  0.0000  0.0000  0.0000  0.0000 </r>
        <r>  0.0000  0.0976  0.1013  0.0000  0.0000  0.0000  0.0000  0.0000  0.0000 </r>
       </set>
       <set comment="band 5">
        <r>  0.0023  0.0000  0.0000  0.0689  0.0000  0.0000  0.0000  0.0000  0.0000 </r>
        <r>  0.1010  0.0000  0.0000  0.0016  0.0000  0.0000  0.0000  0.0000  0.0000 </r>
       </set>
       <set comment="band 6">
        <r>  0.1010  0.0000  0.0000  0.0016  0.0000  0.0000  0.0000  0.0000  0.0000 </r>
        <r>  0.0023  0.0000  0.0000  0.0689  0.0000  0.0000  0.0000  0.0000  0.0000 </r>
       </set>
       <set comment="band 7">
        <r>  0.0000  0.0155  0.2235  0.0000  0.0000  0.0000  0.0000  0.0000  0.0000 </r>
        <r>  0.0000  0.2224  0.0148  0.0000  0.0000  0.0000  0.0000  0.0000  0.0000 </r>
       </set>
       <set comment="band 8">
        <r>  0.0000  0.2257  0.0153  0.0000  0.0000  0.0000  0.0000  0.0000  0.0000 </r>
        <r>  0.0000  0.0152  0.2163  0.0000  0.0000  0.0000  0.0000  0.0000  0.0000 </r>
       </set>
      </set>
      <set comment="kpoint 2">
       <set comment="band 1">
        <r>  0.1951  0.0000  0.0000  0.0441  0.0000  0.0000  0.0000  0.0000  0.0000 </r>
        <r>  0.1951  0.0000  0.0000  0.0441  0.0000  0.0000  0.0000  0.0000  0.0000 </r>
       </set>
       <set comment="band 2">
        <r>  0.1931  0.0000  0.0000  0.0486  0.0000  0.0000  0.0000  0.0000  0.0000 </r>
        <r>  0.1931  0.0000  0.0000  0.0486  0.0000  0.0000  0.0000  0.0000  0.0000 </r>
       </set>
       <set comment="band 3">
        <r>  0.0000  0.0976  0.1012  0.0000  0.0000  0.0000  0.0000  0.0000  0.0000 </r>
        <r>  0.0000  0.1012  0.0976  0.0000  0.0000  0.0000  0.0000  0.0000  0.0000 </r>
       </set>
       <set comment="band 4">
        <r>  0.0000  0.1012  0.0976  0.0000  0.0000  0.0000  0.0000  0.0000  0.0000 </r>
        <r>  0.0000  0.0976  0.1012  0.0000  0.0000  0.0000  0.0000  0.0000  0.0000 </r>
       </set>
       <set comment="band 5">
        <r>  0.0522  0.0000  0.0000  0.0363  0.0000  0.0000  0.0000  0.0000  0.0000 </r>
        <r>  0.0522  0.0000  0.0000  0.0363  0.0000  0.0000  0.0000  0.0000  0.0000 </r>
       </set>
       <set comment="band 6">
        <r>  0.0511  0.0000  0.0000  0.0343  0.0000  0.0000  0.0000  0.0000  0.0000 </r>
        <r>  0.0511  0.0000  0.0000  0.0343  0.0000  0.0000  0.0000  0.0000  0.0000 </r>
       </set>
       <set comment="band 7">
        <r>  0.0000  0.1144  0.1084  0.0000  0.0000  0.0000  0.0000  0.0000  0.0000 </r>
        <r>  0.0000  0.0801  0.1421  0.0000  0.0000  0.0000  0.0000  0.0000  0.0000 </r>
       </set>
       <set comment="band 8">
        <r>  0.0000  0.1067  0.1150  0.0000  0.0000  0.0000  0.0000  0.0000  0.0000 </r>
        <r>  0.0000  0.1438  0.0803  0.0000  0.0000  0.0000  0.0000  0.0000  0.0000 </r>
       </set>
      </set>
      <set comment="kpoint 3">
       <set comment="band 1">
        <r>  0.1960  0.0000  0.0000  0.0419  0.0000  0.0000  0.0000  0.0000  0.0000 </r>
        <r>  0.1960  0.0000  0.0000  0.0419  0.0000  0.0000  0.0000  0.0000  0.0000 </r>
       </set>
       <set comment="band 2">
        <r>  0.1921  0.0000  0.0000  0.0509  0.0000  0.0000  0.0000  0.0000  0.0000 </r>
        <r>  0.1921  0.0000  0.0000  0.0509  0.0000  0.0000  0.0000  0.0000  0.0000 </r>
       </set>
       <set comment="band 3">
        <r>  0.0000  0.0976  0.1012  0.0000  0.0000  0.0000  0.0000  0.0000  0.0000 </r>
        <r>  0.0000  0.1012  0.0976  0.0000  0.0000  0.0000  0.0000  0.0000  0.0000 </r>
       </set>
       <set comment="band 4">
        <r>  0.0000  0.1012  0.0976  0.0000  0.0000  0.0000  0.0000  0.0000  0.0000 </r>
        <r>  0.0000  0.0976  0.1012  0.0000  0.0000  0.0000  0.0000  0.0000  0.0000 </r>
       </set>
       <set comment="band 5">
        <r>  0.0527  0.0000  0.0000  0.0375  0.0000  0.0000  0.0000  0.0000  0.0000 </r>
        <r>  0.0527  0.0000  0.0000  0.0375  0.0000  0.0000  0.0000  0.0000  0.0000 </r>
       </set>
       <set comment="band 6">
        <r>  0.0504  0.0000  0.0000  0.0335  0.0000  0.0000  0.0000  0.0000  0.0000 </r>
        <r>  0.0504  0.0000  0.0000  0.0335  0.0000  0.0000  0.0000  0.0000  0.0000 </r>
       </set>
       <set comment="band 7">
        <r>  0.0000  0.1375  0.0624  0.0000  0.0000  0.0000  0.0000  0.0000  0.0000 </r>
        <r>  0.0000  0.0978  0.1021  0.0000  0.0000  0.0000  0.0000  0.0000  0.0000 </r>
       </set>
       <set comment="band 8">
        <r>  0.0000  0.0624  0.1371  0.0000  0.0000  0.0000  0.0000  0.0000  0.0000 </r>
        <r>  0.0000  0.1016  0.0980  0.0000  0.0000  0.0000  0.0000  0.0000  0.0000 </r>
       </set>
      </set>
      <set comment="kpoint 4">
       <set comment="band 1">
        <r>  0.1969  0.0000  0.0000  0.0398  0.0000  0.0000  0.0000  0.0000  0.0000 </r>
        <r>  0.1969  0.0000  0.0000  0.0398  0.0000  0.0000  0.0000  0.0000  0.0000 </r>
       </set>
       <set comment="band 2">
        <r>  0.1910  0.0000  0.0000  0.0533  0.0000  0.0000  0.0000  0.0000  0.0000 </r>
        <r>  0.1910  0.0000  0.0000  0.0533  0.0000  0.0000  0.0000  0.0000  0.0000 </r>
       </set>
       <set comment="band 3">
        <r>  0.0000  0.0976  0.1012  0.0000  0.0000  0.0000  0.0000  0.0000  0.0000 </r>
        <r>  0.0000  0.1012  0.0976  0.0000  0.0000  0.0000  0.0000  0.0000  0.0000 </r>
       </set>
       <set comment="band 4">
        <r>  0.0000  0.1012  0.0976  0.0000  0.0000  0.0000  0.0000  0.0000  0.0000 </r>
        <r>  0.0000  0.0976  0.1012  0.0000  0.0000  0.0000  0.0000  0.0000  0.0000 </r>
       </set>
       <set comment="band 5">
        <r>  0.0530  0.0000  0.0000  0.0388  0.0000  0.0000  0.0000  0.0000  0.0000 </r>
        <r>  0.0530  0.0000  0.0000  0.0388  0.0000  0.0000  0.0000  0.0000  0.0000 </r>
       </set>
       <set comment="band 6">
        <r>  0.0497  0.0000  0.0000  0.0327  0.0000  0.0000  0.0000  0.0000  0.0000 </r>
        <r>  0.0497  0.0000  0.0000  0.0327  0.0000  0.0000  0.0000  0.0000  0.0000 </r>
       </set>
       <set comment="band 7">
        <r>  0.0000  0.1323  0.0529  0.0000  0.0000  0.0000  0.0000  0.0000  0.0000 </r>
        <r>  0.0000  0.0992  0.0860  0.0000  0.0000  0.0000  0.0000  0.0000  0.0000 </r>
       </set>
       <set comment="band 8">
        <r>  0.0000  0.0527  0.1322  0.0000  0.0000  0.0000  0.0000  0.0000  0.0000 </r>
        <r>  0.0000  0.0858  0.0989  0.0000  0.0000  0.0000  0.0000  0.0000  0.0000 </r>
       </set>
      </set>
      <set comment="kpoint 5">
       <set comment="band 1">
        <r>  0.1978  0.0000  0.0000  0.0377  0.0000  0.0000  0.0000  0.0000  0.0000 </r>
        <r>  0.1978  0.0000  0.0000  0.0377  0.0000  0.0000  0.0000  0.0000  0.0000 </r>
       </set>
       <set comment="band 2">
        <r>  0.1898  0.0000  0.0000  0.0557  0.0000  0.0000  0.0000  0.0000  0.0000 </r>
        <r>  0.1898  0.0000  0.0000  0.0557  0.0000  0.0000  0.0000  0.0000  0.0000 </r>
       </set>
       <set comment="band 3">
        <r>  0.0000  0.0976  0.1012  0.0000  0.0000  0.0000  0.0000  0.0000  0.0000 </r>
        <r>  0.0000  0.1012  0.0976  0.0000  0.0000  0.0000  0.0000  0.0000  0.0000 </r>
       </set>
       <set comment="band 4">
        <r>  0.0000  0.1012  0.0976  0.0000  0.0000  0.0000  0.0000  0.0000  0.0000 </r>
        <r>  0.0000  0.0976  0.1012  0.0000  0.0000  0.0000  0.0000  0.0000  0.0000 </r>
       </set>
       <set comment="band 5">
        <r>  0.0533  0.0000  0.0000  0.0402  0.0000  0.0000  0.0000  0.0000  0.0000 </r>
        <r>  0.0533  0.0000  0.0000  0.0402  0.0000  0.0000  0.0000  0.0000  0.0000 </r>
       </set>
       <set comment="band 6">
        <r>  0.0489  0.0000  0.0000  0.0321  0.0000  0.0000  0.0000  0.0000  0.0000 </r>
        <r>  0.0489  0.0000  0.0000  0.0321  0.0000  0.0000  0.0000  0.0000  0.0000 </r>
       </set>
       <set comment="band 7">
        <r>  0.0000  0.0548  0.1216  0.0000  0.0000  0.0000  0.0000  0.0000  0.0000 </r>
        <r>  0.0000  0.1079  0.0686  0.0000  0.0000  0.0000  0.0000  0.0000  0.0000 </r>
       </set>
       <set comment="band 8">
        <r>  0.0000  0.1223  0.0547  0.0000  0.0000  0.0000  0.0000  0.0000  0.0000 </r>
        <r>  0.0000  0.0685  0.1086  0.0000  0.0000  0.0000  0.0000  0.0000  0.0000 </r>
       </set>
      </set>
      <set comment="kpoint 6">
       <set comment="band 1">
        <r>  0.1987  0.0000  0.0000  0.0357  0.0000  0.0000  0.0000  0.0000  0.0000 </r>
        <r>  0.1987  0.0000  0.0000  0.0357  0.0000  0.0000  0.0000  0.0000  0.0000 </r>
       </set>
       <set comment="band 2">
        <r>  0.1885  0.0000  0.0000  0.0582  0.0000  0.0000  0.0000  0.0000  0.0000 </r>
        <r>  0.1885  0.0000  0.0000  0.0582  0.0000  0.0000  0.0000  0.0000  0.0000 </r>
       </set>
       <set comment="band 3">
        <r>  0.0000  0.0976  0.1013  0.0000  0.0000  0.0000  0.0000  0.0000  0.0000 </r>
        <r>  0.0000  0.1013  0.0976  0.0000  0.0000  0.0000  0.0000  0.0000  0.0000 </r>
       </set>
       <set comment="band 4">
        <r>  0.0000  0.1013  0.0976  0.0000  0.0000  0.0000  0.0000  0.0000  0.0000 </r>
        <r>  0.0000  0.0976  0.1013  0.0000  0.0000  0.0000  0.0000  0.0000  0.0000 </r>
       </set>
       <set comment="band 5">
        <r>  0.0535  0.0000  0.0000  0.0417  0.0000  0.0000  0.0000  0.0000  0.0000 </r>
        <r>  0.0535  0.0000  0.0000  0.0417  0.0000  0.0000  0.0000  0.0000  0.0000 </r>
       </set>
       <set comment="band 6">
        <r>  0.0481  0.0000  0.0000  0.0315  0.0000  0.0000  0.0000  0.0000  0.0000 </r>
        <r>  0.0481  0.0000  0.0000  0.0315  0.0000  0.0000  0.0000  0.0000  0.0000 </r>
       </set>
       <set comment="band 7">
        <r>  0.0000  0.0355  0.1358  0.0000  0.0000  0.0000  0.0000  0.0000  0.0000 </r>
        <r>  0.0000  0.0917  0.0795  0.0000  0.0000  0.0000  0.0000  0.0000  0.0000 </r>
       </set>
       <set comment="band 8">
        <r>  0.0000  0.1357  0.0354  0.0000  0.0000  0.0000  0.0000  0.0000  0.0000 </r>
        <r>  0.0000  0.0795  0.0917  0.0000  0.0000  0.0000  0.0000  0.0000  0.0000 </r>
       </set>
      </set>
      <set comment="kpoint 7">
       <set comment="band 1">
        <r>  0.1995  0.0000  0.0000  0.0337  0.0000  0.0000  0.0000  0.0000  0.0000 </r>
        <r>  0.1995  0.0000  0.0000  0.0337  0.0000  0.0000  0.0000  0.0000  0.0000 </r>
       </set>
       <set comment="band 2">
        <r>  0.1872  0.0000  0.0000  0.0607  0.0000  0.0000  0.0000  0.0000  0.0000 </r>
        <r>  0.1872  0.0000  0.0000  0.0607  0.0000  0.0000  0.0000  0.0000  0.0000 </r>
       </set>
       <set comment="band 3">
        <r>  0.0000  0.0977  0.1013  0.0000  0.0000  0.0000  0.0000  0.0000  0.0000 </r>
        <r>  0.0000  0.1013  0.0977  0.0000  0.0000  0.0000  0.0000  0.0000  0.0000 </r>
       </set>
       <set comment="band 4">
        <r>  0.0000  0.1013  0.0977  0.0000  0.0000  0.0000  0.0000  0.0000  0.0000 </r>
        <r>  0.0000  0.0977  0.1013  0.0000  0.0000  0.0000  0.0000  0.0000  0.0000 </r>
       </set>
       <set comment="band 5">
        <r>  0.0536  0.0000  0.0000  0.0433  0.0000  0.0000  0.0000  0.0000  0.0000 </r>
        <r>  0.0536  0.0000  0.0000  0.0433  0.0000  0.0000  0.0000  0.0000  0.0000 </r>
       </set>
       <set comment="band 6">
        <r>  0.0473  0.0000  0.0000  0.0311  0.0000  0.0000  0.0000  0.0000  0.0000 </r>
        <r>  0.0473  0.0000  0.0000  0.0311  0.0000  0.0000  0.0000  0.0000  0.0000 </r>
       </set>
       <set comment="band 7">
        <r>  0.0000  0.0825  0.0855  0.0000  0.0000  0.0000  0.0000  0.0000  0.0000 </r>
        <r>  0.0000  0.0611  0.1069  0.0000  0.0000  0.0000  0.0000  0.0000  0.0000 </r>
       </set>
       <set comment="band 8">
        <r>  0.0000  0.0855  0.0825  0.0000  0.0000  0.0000  0.0000  0.0000  0.0000 </r>
        <r>  0.0000  0.1069  0.0612  0.0000  0.0000  0.0000  0.0000  0.0000  0.0000 </r>
       </set>
      </set>
      <set comment="kpoint 8">
       <set comment="band 1">
        <r>  0.2003  0.0000  0.0000  0.0318  0.0000  0.0000  0.0000  0.0000  0.0000 </r>
        <r>  0.2003  0.0000  0.0000  0.0318  0.0000  0.0000  0.0000  0.0000  0.0000 </r>
       </set>
       <set comment="band 2">
        <r>  0.1858  0.0000  0.0000  0.0633  0.0000  0.0000  0.0000  0.0000  0.0000 </r>
        <r>  0.1858  0.0000  0.0000  0.0633  0.0000  0.0000  0.0000  0.0000  0.0000 </r>
       </set>
       <set comment="band 3">
        <r>  0.0000  0.0977  0.1012  0.0000  0.0000  0.0000  0.0000  0.0000  0.0000 </r>
        <r>  0.0000  0.1013  0.0977  0.0000  0.0000  0.0000  0.0000  0.0000  0.0000 </r>
       </set>
       <set comment="band 4">
        <r>  0.0000  0.1012  0.0977  0.0000  0.0000  0.0000  0.0000  0.0000  0.0000 </r>
        <r>  0.0000  0.0977  0.1013  0.0000  0.0000  0.0000  0.0000  0.0000  0.0000 </r>
       </set>
       <set comment="band 5">
        <r>  0.0536  0.0000  0.0000  0.0451  0.0000  0.0000  0.0000  0.0000  0.0000 </r>
        <r>  0.0536  0.0000  0.0000  0.0451  0.0000  0.0000  0.0000  0.0000  0.0000 </r>
       </set>
       <set comment="band 6">
        <r>  0.0465  0.0000  0.0000  0.0308  0.0000  0.0000  0.0000  0.0000  0.0000 </r>
        <r>  0.0465  0.0000  0.0000  0.0308  0.0000  0.0000  0.0000  0.0000  0.0000 </r>
       </set>
       <set comment="band 7">
        <r>  0.0000  0.1575  0.0086  0.0000  0.0000  0.0000  0.0000  0.0000  0.0000 </r>
        <r>  0.0000  0.0065  0.1597  0.0000  0.0000  0.0000  0.0000  0.0000  0.0000 </r>
       </set>
       <set comment="band 8">
        <r>  0.0000  0.0086  0.1575  0.0000  0.0000  0.0000  0.0000  0.0000  0.0000 </r>
        <r>  0.0000  0.1597  0.0065  0.0000  0.0000  0.0000  0.0000  0.0000  0.0000 </r>
       </set>
      </set>
      <set comment="kpoint 9">
       <set comment="band 1">
        <r>  0.2011  0.0000  0.0000  0.0299  0.0000  0.0000  0.0000  0.0000  0.0000 </r>
        <r>  0.2011  0.0000  0.0000  0.0299  0.0000  0.0000  0.0000  0.0000  0.0000 </r>
       </set>
       <set comment="band 2">
        <r>  0.1843  0.0000  0.0000  0.0659  0.0000  0.0000  0.0000  0.0000  0.0000 </r>
        <r>  0.1843  0.0000  0.0000  0.0659  0.0000  0.0000  0.0000  0.0000  0.0000 </r>
       </set>
       <set comment="band 3">
        <r>  0.0000  0.0977  0.1012  0.0000  0.0000  0.0000  0.0000  0.0000  0.0000 </r>
        <r>  0.0000  0.1013  0.0977  0.0000  0.0000  0.0000  0.0000  0.0000  0.0000 </r>
       </set>
       <set comment="band 4">
        <r>  0.0000  0.1012  0.0977  0.0000  0.0000  0.0000  0.0000  0.0000  0.0000 </r>
        <r>  0.0000  0.0977  0.1013  0.0000  0.0000  0.0000  0.0000  0.0000  0.0000 </r>
       </set>
       <set comment="band 5">
        <r>  0.0535  0.0000  0.0000  0.0469  0.0000  0.0000  0.0000  0.0000  0.0000 </r>
        <r>  0.0535  0.0000  0.0000  0.0469  0.0000  0.0000  0.0000  0.0000  0.0000 </r>
       </set>
       <set comment="band 6">
        <r>  0.0457  0.0000  0.0000  0.0306  0.0000  0.0000  0.0000  0.0000  0.0000 </r>
        <r>  0.0457  0.0000  0.0000  0.0306  0.0000  0.0000  0.0000  0.0000  0.0000 </r>
       </set>
       <set comment="band 7">
        <r>  0.0000  0.0503  0.1149  0.0000  0.0000  0.0000  0.0000  0.0000  0.0000 </r>
        <r>  0.0000  0.0689  0.0963  0.0000  0.0000  0.0000  0.0000  0.0000  0.0000 </r>
       </set>
       <set comment="band 8">
        <r>  0.0000  0.1149  0.0503  0.0000  0.0000  0.0000  0.0000  0.0000  0.0000 </r>
        <r>  0.0000  0.0962  0.0689  0.0000  0.0000  0.0000  0.0000  0.0000  0.0000 </r>
       </set>
      </set>
      <set comment="kpoint 10">
       <set comment="band 1">
        <r>  0.2019  0.0000  0.0000  0.0281  0.0000  0.0000  0.0000  0.0000  0.0000 </r>
        <r>  0.2019  0.0000  0.0000  0.0281  0.0000  0.0000  0.0000  0.0000  0.0000 </r>
       </set>
       <set comment="band 2">
        <r>  0.1827  0.0000  0.0000  0.0685  0.0000  0.0000  0.0000  0.0000  0.0000 </r>
        <r>  0.1827  0.0000  0.0000  0.0685  0.0000  0.0000  0.0000  0.0000  0.0000 </r>
       </set>
       <set comment="band 3">
        <r>  0.0000  0.0977  0.1012  0.0000  0.0000  0.0000  0.0000  0.0000  0.0000 </r>
        <r>  0.0000  0.1013  0.0977  0.0000  0.0000  0.0000  0.0000  0.0000  0.0000 </r>
       </set>
       <set comment="band 4">
        <r>  0.0000  0.1012  0.0977  0.0000  0.0000  0.0000  0.0000  0.0000  0.0000 </r>
        <r>  0.0000  0.0977  0.1013  0.0000  0.0000  0.0000  0.0000  0.0000  0.0000 </r>
       </set>
       <set comment="band 5">
        <r>  0.0532  0.0000  0.0000  0.0489  0.0000  0.0000  0.0000  0.0000  0.0000 </r>
        <r>  0.0532  0.0000  0.0000  0.0489  0.0000  0.0000  0.0000  0.0000  0.0000 </r>
       </set>
       <set comment="band 6">
        <r>  0.0449  0.0000  0.0000  0.0305  0.0000  0.0000  0.0000  0.0000  0.0000 </r>
        <r>  0.0449  0.0000  0.0000  0.0305  0.0000  0.0000  0.0000  0.0000  0.0000 </r>
       </set>
       <set comment="band 7">
        <r>  0.0000  0.0210  0.1437  0.0000  0.0000  0.0000  0.0000  0.0000  0.0000 </r>
        <r>  0.0000  0.1575  0.0072  0.0000  0.0000  0.0000  0.0000  0.0000  0.0000 </r>
       </set>
       <set comment="band 8">
        <r>  0.0000  0.1437  0.0210  0.0000  0.0000  0.0000  0.0000  0.0000  0.0000 </r>
        <r>  0.0000  0.0072  0.1575  0.0000  0.0000  0.0000  0.0000  0.0000  0.0000 </r>
       </set>
      </set>
      <set comment="kpoint 11">
       <set comment="band 1">
        <r>  0.2026  0.0000  0.0000  0.0263  0.0000  0.0000  0.0000  0.0000  0.0000 </r>
        <r>  0.2026  0.0000  0.0000  0.0263  0.0000  0.0000  0.0000  0.0000  0.0000 </r>
       </set>
       <set comment="band 2">
        <r>  0.1810  0.0000  0.0000  0.0713  0.0000  0.0000  0.0000  0.0000  0.0000 </r>
        <r>  0.1810  0.0000  0.0000  0.0713  0.0000  0.0000  0.0000  0.0000  0.0000 </r>
       </set>
       <set comment="band 3">
        <r>  0.0000  0.0978  0.1013  0.0000  0.0000  0.0000  0.0000  0.0000  0.0000 </r>
        <r>  0.0000  0.1013  0.0977  0.0000  0.0000  0.0000  0.0000  0.0000  0.0000 </r>
       </set>
       <set comment="band 4">
        <r>  0.0000  0.1013  0.0978  0.0000  0.0000  0.0000  0.0000  0.0000  0.0000 </r>
        <r>  0.0000  0.0977  0.1013  0.0000  0.0000  0.0000  0.0000  0.0000  0.0000 </r>
       </set>
       <set comment="band 5">
        <r>  0.0529  0.0000  0.0000  0.0510  0.0000  0.0000  0.0000  0.0000  0.0000 </r>
        <r>  0.0529  0.0000  0.0000  0.0510  0.0000  0.0000  0.0000  0.0000  0.0000 </r>
       </set>
       <set comment="band 6">
        <r>  0.0443  0.0000  0.0000  0.0306  0.0000  0.0000  0.0000  0.0000  0.0000 </r>
        <r>  0.0443  0.0000  0.0000  0.0306  0.0000  0.0000  0.0000  0.0000  0.0000 </r>
       </set>
       <set comment="band 7">
        <r>  0.0000  0.0109  0.1532  0.0000  0.0000  0.0000  0.0000  0.0000  0.0000 </r>
        <r>  0.0000  0.1623  0.0018  0.0000  0.0000  0.0000  0.0000  0.0000  0.0000 </r>
       </set>
       <set comment="band 8">
        <r>  0.0000  0.1532  0.0109  0.0000  0.0000  0.0000  0.0000  0.0000  0.0000 </r>
        <r>  0.0000  0.0018  0.1624  0.0000  0.0000  0.0000  0.0000  0.0000  0.0000 </r>
       </set>
      </set>
      <set comment="kpoint 12">
       <set comment="band 1">
        <r>  0.2033  0.0000  0.0000  0.0246  0.0000  0.0000  0.0000  0.0000  0.0000 </r>
        <r>  0.2033  0.0000  0.0000  0.0246  0.0000  0.0000  0.0000  0.0000  0.0000 </r>
       </set>
       <set comment="band 2">
        <r>  0.1791  0.0000  0.0000  0.0741  0.0000  0.0000  0.0000  0.0000  0.0000 </r>
        <r>  0.1791  0.0000  0.0000  0.0741  0.0000  0.0000  0.0000  0.0000  0.0000 </r>
       </set>
       <set comment="band 3">
        <r>  0.0000  0.0978  0.1013  0.0000  0.0000  0.0000  0.0000  0.0000  0.0000 </r>
        <r>  0.0000  0.1013  0.0978  0.0000  0.0000  0.0000  0.0000  0.0000  0.0000 </r>
       </set>
       <set comment="band 4">
        <r>  0.0000  0.1013  0.0978  0.0000  0.0000  0.0000  0.0000  0.0000  0.0000 </r>
        <r>  0.0000  0.0978  0.1013  0.0000  0.0000  0.0000  0.0000  0.0000  0.0000 </r>
       </set>
       <set comment="band 5">
        <r>  0.0524  0.0000  0.0000  0.0532  0.0000  0.0000  0.0000  0.0000  0.0000 </r>
        <r>  0.0524  0.0000  0.0000  0.0532  0.0000  0.0000  0.0000  0.0000  0.0000 </r>
       </set>
       <set comment="band 6">
        <r>  0.0436  0.0000  0.0000  0.0307  0.0000  0.0000  0.0000  0.0000  0.0000 </r>
        <r>  0.0436  0.0000  0.0000  0.0307  0.0000  0.0000  0.0000  0.0000  0.0000 </r>
       </set>
       <set comment="band 7">
        <r>  0.0000  0.0802  0.0839  0.0000  0.0000  0.0000  0.0000  0.0000  0.0000 </r>
        <r>  0.0000  0.1249  0.0392  0.0000  0.0000  0.0000  0.0000  0.0000  0.0000 </r>
       </set>
       <set comment="band 8">
        <r>  0.0000  0.0839  0.0802  0.0000  0.0000  0.0000  0.0000  0.0000  0.0000 </r>
        <r>  0.0000  0.0392  0.1249  0.0000  0.0000  0.0000  0.0000  0.0000  0.0000 </r>
       </set>
      </set>
      <set comment="kpoint 13">
       <set comment="band 1">
        <r>  0.2040  0.0000  0.0000  0.0229  0.0000  0.0000  0.0000  0.0000  0.0000 </r>
        <r>  0.2040  0.0000  0.0000  0.0229  0.0000  0.0000  0.0000  0.0000  0.0000 </r>
       </set>
       <set comment="band 2">
        <r>  0.1771  0.0000  0.0000  0.0770  0.0000  0.0000  0.0000  0.0000  0.0000 </r>
        <r>  0.1771  0.0000  0.0000  0.0770  0.0000  0.0000  0.0000  0.0000  0.0000 </r>
       </set>
       <set comment="band 3">
        <r>  0.0000  0.0979  0.1013  0.0000  0.0000  0.0000  0.0000  0.0000  0.0000 </r>
        <r>  0.0000  0.1014  0.0978  0.0000  0.0000  0.0000  0.0000  0.0000  0.0000 </r>
       </set>
       <set comment="band 4">
        <r>  0.0000  0.1013  0.0979  0.0000  0.0000  0.0000  0.0000  0.0000  0.0000 </r>
        <r>  0.0000  0.0978  0.1014  0.0000  0.0000  0.0000  0.0000  0.0000  0.0000 </r>
       </set>
       <set comment="band 5">
        <r>  0.0519  0.0000  0.0000  0.0555  0.0000  0.0000  0.0000  0.0000  0.0000 </r>
        <r>  0.0519  0.0000  0.0000  0.0555  0.0000  0.0000  0.0000  0.0000  0.0000 </r>
       </set>
       <set comment="band 6">
        <r>  0.0431  0.0000  0.0000  0.0311  0.0000  0.0000  0.0000  0.0000  0.0000 </r>
        <r>  0.0431  0.0000  0.0000  0.0311  0.0000  0.0000  0.0000  0.0000  0.0000 </r>
       </set>
       <set comment="band 7">
        <r>  0.0000  0.0138  0.1505  0.0000  0.0000  0.0000  0.0000  0.0000  0.0000 </r>
        <r>  0.0000  0.1532  0.0111  0.0000  0.0000  0.0000  0.0000  0.0000  0.0000 </r>
       </set>
       <set comment="band 8">
        <r>  0.0000  0.1505  0.0138  0.0000  0.0000  0.0000  0.0000  0.0000  0.0000 </r>
        <r>  0.0000  0.0111  0.1532  0.0000  0.0000  0.0000  0.0000  0.0000  0.0000 </r>
       </set>
      </set>
      <set comment="kpoint 14">
       <set comment="band 1">
        <r>  0.2047  0.0000  0.0000  0.0213  0.0000  0.0000  0.0000  0.0000  0.0000 </r>
        <r>  0.2047  0.0000  0.0000  0.0213  0.0000  0.0000  0.0000  0.0000  0.0000 </r>
       </set>
       <set comment="band 2">
        <r>  0.1749  0.0000  0.0000  0.0799  0.0000  0.0000  0.0000  0.0000  0.0000 </r>
        <r>  0.1749  0.0000  0.0000  0.0799  0.0000  0.0000  0.0000  0.0000  0.0000 </r>
       </set>
       <set comment="band 3">
        <r>  0.0000  0.0979  0.1013  0.0000  0.0000  0.0000  0.0000  0.0000  0.0000 </r>
        <r>  0.0000  0.1014  0.0978  0.0000  0.0000  0.0000  0.0000  0.0000  0.0000 </r>
       </set>
       <set comment="band 4">
        <r>  0.0000  0.1013  0.0979  0.0000  0.0000  0.0000  0.0000  0.0000  0.0000 </r>
        <r>  0.0000  0.0978  0.1014  0.0000  0.0000  0.0000  0.0000  0.0000  0.0000 </r>
       </set>
       <set comment="band 5">
        <r>  0.0512  0.0000  0.0000  0.0579  0.0000  0.0000  0.0000  0.0000  0.0000 </r>
        <r>  0.0512  0.0000  0.0000  0.0579  0.0000  0.0000  0.0000  0.0000  0.0000 </r>
       </set>
       <set comment="band 6">
        <r>  0.0427  0.0000  0.0000  0.0315  0.0000  0.0000  0.0000  0.0000  0.0000 </r>
        <r>  0.0427  0.0000  0.0000  0.0315  0.0000  0.0000  0.0000  0.0000  0.0000 </r>
       </set>
       <set comment="band 7">
        <r>  0.0000  0.0934  0.0713  0.0000  0.0000  0.0000  0.0000  0.0000  0.0000 </r>
        <r>  0.0000  0.0340  0.1306  0.0000  0.0000  0.0000  0.0000  0.0000  0.0000 </r>
       </set>
       <set comment="band 8">
        <r>  0.0000  0.0713  0.0934  0.0000  0.0000  0.0000  0.0000  0.0000  0.0000 </r>
        <r>  0.0000  0.1307  0.0340  0.0000  0.0000  0.0000  0.0000  0.0000  0.0000 </r>
       </set>
      </set>
      <set comment="kpoint 15">
       <set comment="band 1">
        <r>  0.2053  0.0000  0.0000  0.0197  0.0000  0.0000  0.0000  0.0000  0.0000 </r>
        <r>  0.2053  0.0000  0.0000  0.0197  0.0000  0.0000  0.0000  0.0000  0.0000 </r>
       </set>
       <set comment="band 2">
        <r>  0.1726  0.0000  0.0000  0.0829  0.0000  0.0000  0.0000  0.0000  0.0000 </r>
        <r>  0.1726  0.0000  0.0000  0.0829  0.0000  0.0000  0.0000  0.0000  0.0000 </r>
       </set>
       <set comment="band 3">
        <r>  0.0000  0.0980  0.1013  0.0000  0.0000  0.0000  0.0000  0.0000  0.0000 </r>
        <r>  0.0000  0.1014  0.0979  0.0000  0.0000  0.0000  0.0000  0.0000  0.0000 </r>
       </set>
       <set comment="band 4">
        <r>  0.0000  0.1013  0.0980  0.0000  0.0000  0.0000  0.0000  0.0000  0.0000 </r>
        <r>  0.0000  0.0979  0.1014  0.0000  0.0000  0.0000  0.0000  0.0000  0.0000 </r>
       </set>
       <set comment="band 5">
        <r>  0.0503  0.0000  0.0000  0.0605  0.0000  0.0000  0.0000  0.0000  0.0000 </r>
        <r>  0.0503  0.0000  0.0000  0.0605  0.0000  0.0000  0.0000  0.0000  0.0000 </r>
       </set>
       <set comment="band 6">
        <r>  0.0425  0.0000  0.0000  0.0321  0.0000  0.0000  0.0000  0.0000  0.0000 </r>
        <r>  0.0425  0.0000  0.0000  0.0321  0.0000  0.0000  0.0000  0.0000  0.0000 </r>
       </set>
       <set comment="band 7">
        <r>  0.0000  0.0182  0.1469  0.0000  0.0000  0.0000  0.0000  0.0000  0.0000 </r>
        <r>  0.0000  0.1396  0.0255  0.0000  0.0000  0.0000  0.0000  0.0000  0.0000 </r>
       </set>
       <set comment="band 8">
        <r>  0.0000  0.1469  0.0182  0.0000  0.0000  0.0000  0.0000  0.0000  0.0000 </r>
        <r>  0.0000  0.0255  0.1395  0.0000  0.0000  0.0000  0.0000  0.0000  0.0000 </r>
       </set>
      </set>
      <set comment="kpoint 16">
       <set comment="band 1">
        <r>  0.2060  0.0000  0.0000  0.0182  0.0000  0.0000  0.0000  0.0000  0.0000 </r>
        <r>  0.2060  0.0000  0.0000  0.0182  0.0000  0.0000  0.0000  0.0000  0.0000 </r>
       </set>
       <set comment="band 2">
        <r>  0.1700  0.0000  0.0000  0.0860  0.0000  0.0000  0.0000  0.0000  0.0000 </r>
        <r>  0.1700  0.0000  0.0000  0.0860  0.0000  0.0000  0.0000  0.0000  0.0000 </r>
       </set>
       <set comment="band 3">
        <r>  0.0000  0.0980  0.1013  0.0000  0.0000  0.0000  0.0000  0.0000  0.0000 </r>
        <r>  0.0000  0.1014  0.0979  0.0000  0.0000  0.0000  0.0000  0.0000  0.0000 </r>
       </set>
       <set comment="band 4">
        <r>  0.0000  0.1013  0.0980  0.0000  0.0000  0.0000  0.0000  0.0000  0.0000 </r>
        <r>  0.0000  0.0979  0.1014  0.0000  0.0000  0.0000  0.0000  0.0000  0.0000 </r>
       </set>
       <set comment="band 5">
        <r>  0.0494  0.0000  0.0000  0.0633  0.0000  0.0000  0.0000  0.0000  0.0000 </r>
        <r>  0.0494  0.0000  0.0000  0.0633  0.0000  0.0000  0.0000  0.0000  0.0000 </r>
       </set>
       <set comment="band 6">
        <r>  0.0424  0.0000  0.0000  0.0329  0.0000  0.0000  0.0000  0.0000  0.0000 </r>
        <r>  0.0424  0.0000  0.0000  0.0329  0.0000  0.0000  0.0000  0.0000  0.0000 </r>
       </set>
       <set comment="band 7">
        <r>  0.0000  0.1503  0.0153  0.0000  0.0000  0.0000  0.0000  0.0000  0.0000 </r>
        <r>  0.0000  0.0404  0.1252  0.0000  0.0000  0.0000  0.0000  0.0000  0.0000 </r>
       </set>
       <set comment="band 8">
        <r>  0.0000  0.0153  0.1503  0.0000  0.0000  0.0000  0.0000  0.0000  0.0000 </r>
        <r>  0.0000  0.1252  0.0403  0.0000  0.0000  0.0000  0.0000  0.0000  0.0000 </r>
       </set>
      </set>
      <set comment="kpoint 17">
       <set comment="band 1">
        <r>  0.2066  0.0000  0.0000  0.0168  0.0000  0.0000  0.0000  0.0000  0.0000 </r>
        <r>  0.2066  0.0000  0.0000  0.0168  0.0000  0.0000  0.0000  0.0000  0.0000 </r>
       </set>
       <set comment="band 2">
        <r>  0.1672  0.0000  0.0000  0.0892  0.0000  0.0000  0.0000  0.0000  0.0000 </r>
        <r>  0.1672  0.0000  0.0000  0.0892  0.0000  0.0000  0.0000  0.0000  0.0000 </r>
       </set>
       <set comment="band 3">
        <r>  0.0000  0.0981  0.1013  0.0000  0.0000  0.0000  0.0000  0.0000  0.0000 </r>
        <r>  0.0000  0.1015  0.0980  0.0000  0.0000  0.0000  0.0000  0.0000  0.0000 </r>
       </set>
       <set comment="band 4">
        <r>  0.0000  0.1013  0.0981  0.0000  0.0000  0.0000  0.0000  0.0000  0.0000 </r>
        <r>  0.0000  0.0980  0.1015  0.0000  0.0000  0.0000  0.0000  0.0000  0.0000 </r>
       </set>
       <set comment="band 5">
        <r>  0.0483  0.0000  0.0000  0.0661  0.0000  0.0000  0.0000  0.0000  0.0000 </r>
        <r>  0.0483  0.0000  0.0000  0.0661  0.0000  0.0000  0.0000  0.0000  0.0000 </r>
       </set>
       <set comment="band 6">
        <r>  0.0427  0.0000  0.0000  0.0338  0.0000  0.0000  0.0000  0.0000  0.0000 </r>
        <r>  0.0427  0.0000  0.0000  0.0338  0.0000  0.0000  0.0000  0.0000  0.0000 </r>
       </set>
       <set comment="band 7">
        <r>  0.0000  0.0297  0.1363  0.0000  0.0000  0.0000  0.0000  0.0000  0.0000 </r>
        <r>  0.0000  0.1094  0.0566  0.0000  0.0000  0.0000  0.0000  0.0000  0.0000 </r>
       </set>
       <set comment="band 8">
        <r>  0.0000  0.1363  0.0297  0.0000  0.0000  0.0000  0.0000  0.0000  0.0000 </r>
        <r>  0.0000  0.0566  0.1094  0.0000  0.0000  0.0000  0.0000  0.0000  0.0000 </r>
       </set>
      </set>
      <set comment="kpoint 18">
       <set comment="band 1">
        <r>  0.2072  0.0000  0.0000  0.0154  0.0000  0.0000  0.0000  0.0000  0.0000 </r>
        <r>  0.2072  0.0000  0.0000  0.0154  0.0000  0.0000  0.0000  0.0000  0.0000 </r>
       </set>
       <set comment="band 2">
        <r>  0.1642  0.0000  0.0000  0.0924  0.0000  0.0000  0.0000  0.0000  0.0000 </r>
        <r>  0.1642  0.0000  0.0000  0.0924  0.0000  0.0000  0.0000  0.0000  0.0000 </r>
       </set>
       <set comment="band 3">
        <r>  0.0000  0.0982  0.1014  0.0000  0.0000  0.0000  0.0000  0.0000  0.0000 </r>
        <r>  0.0000  0.1015  0.0980  0.0000  0.0000  0.0000  0.0000  0.0000  0.0000 </r>
       </set>
       <set comment="band 4">
        <r>  0.0000  0.1014  0.0982  0.0000  0.0000  0.0000  0.0000  0.0000  0.0000 </r>
        <r>  0.0000  0.0980  0.1015  0.0000  0.0000  0.0000  0.0000  0.0000  0.0000 </r>
       </set>
       <set comment="band 5">
        <r>  0.0471  0.0000  0.0000  0.0692  0.0000  0.0000  0.0000  0.0000  0.0000 </r>
        <r>  0.0471  0.0000  0.0000  0.0692  0.0000  0.0000  0.0000  0.0000  0.0000 </r>
       </set>
       <set comment="band 6">
        <r>  0.0434  0.0000  0.0000  0.0350  0.0000  0.0000  0.0000  0.0000  0.0000 </r>
        <r>  0.0434  0.0000  0.0000  0.0350  0.0000  0.0000  0.0000  0.0000  0.0000 </r>
       </set>
       <set comment="band 7">
        <r>  0.0000  0.0544  0.1120  0.0000  0.0000  0.0000  0.0000  0.0000  0.0000 </r>
        <r>  0.0000  0.1145  0.0519  0.0000  0.0000  0.0000  0.0000  0.0000  0.0000 </r>
       </set>
       <set comment="band 8">
        <r>  0.0000  0.1120  0.0544  0.0000  0.0000  0.0000  0.0000  0.0000  0.0000 </r>
        <r>  0.0000  0.0519  0.1145  0.0000  0.0000  0.0000  0.0000  0.0000  0.0000 </r>
       </set>
      </set>
      <set comment="kpoint 19">
       <set comment="band 1">
        <r>  0.2078  0.0000  0.0000  0.0141  0.0000  0.0000  0.0000  0.0000  0.0000 </r>
        <r>  0.2078  0.0000  0.0000  0.0141  0.0000  0.0000  0.0000  0.0000  0.0000 </r>
       </set>
       <set comment="band 2">
        <r>  0.1609  0.0000  0.0000  0.0958  0.0000  0.0000  0.0000  0.0000  0.0000 </r>
        <r>  0.1609  0.0000  0.0000  0.0958  0.0000  0.0000  0.0000  0.0000  0.0000 </r>
       </set>
       <set comment="band 3">
        <r>  0.0000  0.0983  0.1014  0.0000  0.0000  0.0000  0.0000  0.0000  0.0000 </r>
        <r>  0.0000  0.1016  0.0981  0.0000  0.0000  0.0000  0.0000  0.0000  0.0000 </r>
       </set>
       <set comment="band 4">
        <r>  0.0000  0.1014  0.0983  0.0000  0.0000  0.0000  0.0000  0.0000  0.0000 </r>
        <r>  0.0000  0.0981  0.1016  0.0000  0.0000  0.0000  0.0000  0.0000  0.0000 </r>
       </set>
       <set comment="band 5">
        <r>  0.0458  0.0000  0.0000  0.0724  0.0000  0.0000  0.0000  0.0000  0.0000 </r>
        <r>  0.0458  0.0000  0.0000  0.0724  0.0000  0.0000  0.0000  0.0000  0.0000 </r>
       </set>
       <set comment="band 6">
        <r>  0.0446  0.0000  0.0000  0.0364  0.0000  0.0000  0.0000  0.0000  0.0000 </r>
        <r>  0.0446  0.0000  0.0000  0.0364  0.0000  0.0000  0.0000  0.0000  0.0000 </r>
       </set>
       <set comment="band 7">
        <r>  0.0000  0.0781  0.0886  0.0000  0.0000  0.0000  0.0000  0.0000  0.0000 </r>
        <r>  0.0000  0.0936  0.0732  0.0000  0.0000  0.0000  0.0000  0.0000  0.0000 </r>
       </set>
       <set comment="band 8">
        <r>  0.0000  0.0886  0.0781  0.0000  0.0000  0.0000  0.0000  0.0000  0.0000 </r>
        <r>  0.0000  0.0732  0.0936  0.0000  0.0000  0.0000  0.0000  0.0000  0.0000 </r>
       </set>
      </set>
      <set comment="kpoint 20">
       <set comment="band 1">
        <r>  0.2084  0.0000  0.0000  0.0128  0.0000  0.0000  0.0000  0.0000  0.0000 </r>
        <r>  0.2084  0.0000  0.0000  0.0128  0.0000  0.0000  0.0000  0.0000  0.0000 </r>
       </set>
       <set comment="band 2">
        <r>  0.1573  0.0000  0.0000  0.0994  0.0000  0.0000  0.0000  0.0000  0.0000 </r>
        <r>  0.1573  0.0000  0.0000  0.0994  0.0000  0.0000  0.0000  0.0000  0.0000 </r>
       </set>
       <set comment="band 3">
        <r>  0.0000  0.0984  0.1014  0.0000  0.0000  0.0000  0.0000  0.0000  0.0000 </r>
        <r>  0.0000  0.1017  0.0982  0.0000  0.0000  0.0000  0.0000  0.0000  0.0000 </r>
       </set>
       <set comment="band 4">
        <r>  0.0000  0.1014  0.0984  0.0000  0.0000  0.0000  0.0000  0.0000  0.0000 </r>
        <r>  0.0000  0.0982  0.1017  0.0000  0.0000  0.0000  0.0000  0.0000  0.0000 </r>
       </set>
       <set comment="band 5">
        <r>  0.0442  0.0000  0.0000  0.0758  0.0000  0.0000  0.0000  0.0000  0.0000 </r>
        <r>  0.0442  0.0000  0.0000  0.0758  0.0000  0.0000  0.0000  0.0000  0.0000 </r>
       </set>
       <set comment="band 6">
        <r>  0.0463  0.0000  0.0000  0.0380  0.0000  0.0000  0.0000  0.0000  0.0000 </r>
        <r>  0.0463  0.0000  0.0000  0.0380  0.0000  0.0000  0.0000  0.0000  0.0000 </r>
       </set>
       <set comment="band 7">
        <r>  0.0000  0.0058  0.1609  0.0000  0.0000  0.0000  0.0000  0.0000  0.0000 </r>
        <r>  0.0000  0.1559  0.0108  0.0000  0.0000  0.0000  0.0000  0.0000  0.0000 </r>
       </set>
       <set comment="band 8">
        <r>  0.0000  0.1609  0.0058  0.0000  0.0000  0.0000  0.0000  0.0000  0.0000 </r>
        <r>  0.0000  0.0108  0.1558  0.0000  0.0000  0.0000  0.0000  0.0000  0.0000 </r>
       </set>
      </set>
      <set comment="kpoint 21">
       <set comment="band 1">
        <r>  0.2089  0.0000  0.0000  0.0116  0.0000  0.0000  0.0000  0.0000  0.0000 </r>
        <r>  0.2089  0.0000  0.0000  0.0116  0.0000  0.0000  0.0000  0.0000  0.0000 </r>
       </set>
       <set comment="band 2">
        <r>  0.1535  0.0000  0.0000  0.1031  0.0000  0.0000  0.0000  0.0000  0.0000 </r>
        <r>  0.1535  0.0000  0.0000  0.1031  0.0000  0.0000  0.0000  0.0000  0.0000 </r>
       </set>
       <set comment="band 3">
        <r>  0.0000  0.0986  0.1015  0.0000  0.0000  0.0000  0.0000  0.0000  0.0000 </r>
        <r>  0.0000  0.1018  0.0983  0.0000  0.0000  0.0000  0.0000  0.0000  0.0000 </r>
       </set>
       <set comment="band 4">
        <r>  0.0000  0.1015  0.0986  0.0000  0.0000  0.0000  0.0000  0.0000  0.0000 </r>
        <r>  0.0000  0.0983  0.1018  0.0000  0.0000  0.0000  0.0000  0.0000  0.0000 </r>
       </set>
       <set comment="band 5">
        <r>  0.0426  0.0000  0.0000  0.0793  0.0000  0.0000  0.0000  0.0000  0.0000 </r>
        <r>  0.0426  0.0000  0.0000  0.0793  0.0000  0.0000  0.0000  0.0000  0.0000 </r>
       </set>
       <set comment="band 6">
        <r>  0.0489  0.0000  0.0000  0.0401  0.0000  0.0000  0.0000  0.0000  0.0000 </r>
        <r>  0.0489  0.0000  0.0000  0.0401  0.0000  0.0000  0.0000  0.0000  0.0000 </r>
       </set>
       <set comment="band 7">
        <r>  0.0000  0.1125  0.0543  0.0000  0.0000  0.0000  0.0000  0.0000  0.0000 </r>
        <r>  0.0000  0.0630  0.1039  0.0000  0.0000  0.0000  0.0000  0.0000  0.0000 </r>
       </set>
       <set comment="band 8">
        <r>  0.0000  0.0543  0.1125  0.0000  0.0000  0.0000  0.0000  0.0000  0.0000 </r>
        <r>  0.0000  0.1039  0.0630  0.0000  0.0000  0.0000  0.0000  0.0000  0.0000 </r>
       </set>
      </set>
      <set comment="kpoint 22">
       <set comment="band 1">
        <r>  0.2094  0.0000  0.0000  0.0104  0.0000  0.0000  0.0000  0.0000  0.0000 </r>
        <r>  0.2094  0.0000  0.0000  0.0104  0.0000  0.0000  0.0000  0.0000  0.0000 </r>
       </set>
       <set comment="band 2">
        <r>  0.1492  0.0000  0.0000  0.1069  0.0000  0.0000  0.0000  0.0000  0.0000 </r>
        <r>  0.1492  0.0000  0.0000  0.1069  0.0000  0.0000  0.0000  0.0000  0.0000 </r>
       </set>
       <set comment="band 3">
        <r>  0.0000  0.0988  0.1016  0.0000  0.0000  0.0000  0.0000  0.0000  0.0000 </r>
        <r>  0.0000  0.1019  0.0985  0.0000  0.0000  0.0000  0.0000  0.0000  0.0000 </r>
       </set>
       <set comment="band 4">
        <r>  0.0000  0.1016  0.0988  0.0000  0.0000  0.0000  0.0000  0.0000  0.0000 </r>
        <r>  0.0000  0.0985  0.1019  0.0000  0.0000  0.0000  0.0000  0.0000  0.0000 </r>
       </set>
       <set comment="band 5">
        <r>  0.0409  0.0000  0.0000  0.0828  0.0000  0.0000  0.0000  0.0000  0.0000 </r>
        <r>  0.0409  0.0000  0.0000  0.0828  0.0000  0.0000  0.0000  0.0000  0.0000 </r>
       </set>
       <set comment="band 6">
        <r>  0.0526  0.0000  0.0000  0.0425  0.0000  0.0000  0.0000  0.0000  0.0000 </r>
        <r>  0.0526  0.0000  0.0000  0.0425  0.0000  0.0000  0.0000  0.0000  0.0000 </r>
       </set>
       <set comment="band 7">
        <r>  0.0000  0.1327  0.0341  0.0000  0.0000  0.0000  0.0000  0.0000  0.0000 </r>
        <r>  0.0000  0.0370  0.1298  0.0000  0.0000  0.0000  0.0000  0.0000  0.0000 </r>
       </set>
       <set comment="band 8">
        <r>  0.0000  0.0341  0.1326  0.0000  0.0000  0.0000  0.0000  0.0000  0.0000 </r>
        <r>  0.0000  0.1298  0.0370  0.0000  0.0000  0.0000  0.0000  0.0000  0.0000 </r>
       </set>
      </set>
      <set comment="kpoint 23">
       <set comment="band 1">
        <r>  0.2099  0.0000  0.0000  0.0093  0.0000  0.0000  0.0000  0.0000  0.0000 </r>
        <r>  0.2099  0.0000  0.0000  0.0093  0.0000  0.0000  0.0000  0.0000  0.0000 </r>
       </set>
       <set comment="band 2">
        <r>  0.1446  0.0000  0.0000  0.1110  0.0000  0.0000  0.0000  0.0000  0.0000 </r>
        <r>  0.1446  0.0000  0.0000  0.1110  0.0000  0.0000  0.0000  0.0000  0.0000 </r>
       </set>
       <set comment="band 3">
        <r>  0.0000  0.0990  0.1017  0.0000  0.0000  0.0000  0.0000  0.0000  0.0000 </r>
        <r>  0.0000  0.1021  0.0987  0.0000  0.0000  0.0000  0.0000  0.0000  0.0000 </r>
       </set>
       <set comment="band 4">
        <r>  0.0000  0.1017  0.0990  0.0000  0.0000  0.0000  0.0000  0.0000  0.0000 </r>
        <r>  0.0000  0.0987  0.1021  0.0000  0.0000  0.0000  0.0000  0.0000  0.0000 </r>
       </set>
       <set comment="band 5">
        <r>  0.0390  0.0000  0.0000  0.0866  0.0000  0.0000  0.0000  0.0000  0.0000 </r>
        <r>  0.0390  0.0000  0.0000  0.0866  0.0000  0.0000  0.0000  0.0000  0.0000 </r>
       </set>
       <set comment="band 6">
        <r>  0.0580  0.0000  0.0000  0.0455  0.0000  0.0000  0.0000  0.0000  0.0000 </r>
        <r>  0.0580  0.0000  0.0000  0.0455  0.0000  0.0000  0.0000  0.0000  0.0000 </r>
       </set>
       <set comment="band 7">
        <r>  0.0000  0.0358  0.1311  0.0000  0.0000  0.0000  0.0000  0.0000  0.0000 </r>
        <r>  0.0000  0.1292  0.0377  0.0000  0.0000  0.0000  0.0000  0.0000  0.0000 </r>
       </set>
       <set comment="band 8">
        <r>  0.0000  0.1311  0.0358  0.0000  0.0000  0.0000  0.0000  0.0000  0.0000 </r>
        <r>  0.0000  0.0377  0.1291  0.0000  0.0000  0.0000  0.0000  0.0000  0.0000 </r>
       </set>
      </set>
      <set comment="kpoint 24">
       <set comment="band 1">
        <r>  0.2104  0.0000  0.0000  0.0082  0.0000  0.0000  0.0000  0.0000  0.0000 </r>
        <r>  0.2104  0.0000  0.0000  0.0082  0.0000  0.0000  0.0000  0.0000  0.0000 </r>
       </set>
       <set comment="band 2">
        <r>  0.1397  0.0000  0.0000  0.1154  0.0000  0.0000  0.0000  0.0000  0.0000 </r>
        <r>  0.1397  0.0000  0.0000  0.1154  0.0000  0.0000  0.0000  0.0000  0.0000 </r>
       </set>
       <set comment="band 3">
        <r>  0.0000  0.0993  0.1019  0.0000  0.0000  0.0000  0.0000  0.0000  0.0000 </r>
        <r>  0.0000  0.1022  0.0989  0.0000  0.0000  0.0000  0.0000  0.0000  0.0000 </r>
       </set>
       <set comment="band 4">
        <r>  0.0000  0.1019  0.0993  0.0000  0.0000  0.0000  0.0000  0.0000  0.0000 </r>
        <r>  0.0000  0.0989  0.1022  0.0000  0.0000  0.0000  0.0000  0.0000  0.0000 </r>
       </set>
       <set comment="band 5">
        <r>  0.0369  0.0000  0.0000  0.0906  0.0000  0.0000  0.0000  0.0000  0.0000 </r>
        <r>  0.0369  0.0000  0.0000  0.0906  0.0000  0.0000  0.0000  0.0000  0.0000 </r>
       </set>
       <set comment="band 6">
        <r>  0.0656  0.0000  0.0000  0.0495  0.0000  0.0000  0.0000  0.0000  0.0000 </r>
        <r>  0.0656  0.0000  0.0000  0.0495  0.0000  0.0000  0.0000  0.0000  0.0000 </r>
       </set>
       <set comment="band 7">
        <r>  0.0000  0.1161  0.0506  0.0000  0.0000  0.0000  0.0000  0.0000  0.0000 </r>
        <r>  0.0000  0.0489  0.1179  0.0000  0.0000  0.0000  0.0000  0.0000  0.0000 </r>
       </set>
       <set comment="band 8">
        <r>  0.0000  0.0506  0.1161  0.0000  0.0000  0.0000  0.0000  0.0000  0.0000 </r>
        <r>  0.0000  0.1179  0.0489  0.0000  0.0000  0.0000  0.0000  0.0000  0.0000 </r>
       </set>
      </set>
      <set comment="kpoint 25">
       <set comment="band 1">
        <r>  0.2108  0.0000  0.0000  0.0072  0.0000  0.0000  0.0000  0.0000  0.0000 </r>
        <r>  0.2108  0.0000  0.0000  0.0072  0.0000  0.0000  0.0000  0.0000  0.0000 </r>
       </set>
       <set comment="band 2">
        <r>  0.1342  0.0000  0.0000  0.1199  0.0000  0.0000  0.0000  0.0000  0.0000 </r>
        <r>  0.1342  0.0000  0.0000  0.1199  0.0000  0.0000  0.0000  0.0000  0.0000 </r>
       </set>
       <set comment="band 3">
        <r>  0.0000  0.0995  0.1020  0.0000  0.0000  0.0000  0.0000  0.0000  0.0000 </r>
        <r>  0.0000  0.1024  0.0991  0.0000  0.0000  0.0000  0.0000  0.0000  0.0000 </r>
       </set>
       <set comment="band 4">
        <r>  0.0000  0.1020  0.0995  0.0000  0.0000  0.0000  0.0000  0.0000  0.0000 </r>
        <r>  0.0000  0.0991  0.1024  0.0000  0.0000  0.0000  0.0000  0.0000  0.0000 </r>
       </set>
       <set comment="band 5">
        <r>  0.0347  0.0000  0.0000  0.0948  0.0000  0.0000  0.0000  0.0000  0.0000 </r>
        <r>  0.0347  0.0000  0.0000  0.0948  0.0000  0.0000  0.0000  0.0000  0.0000 </r>
       </set>
       <set comment="band 6">
        <r>  0.0764  0.0000  0.0000  0.0540  0.0000  0.0000  0.0000  0.0000  0.0000 </r>
        <r>  0.0764  0.0000  0.0000  0.0540  0.0000  0.0000  0.0000  0.0000  0.0000 </r>
       </set>
       <set comment="band 7">
        <r>  0.0000  0.0062  0.1604  0.0000  0.0000  0.0000  0.0000  0.0000  0.0000 </r>
        <r>  0.0000  0.1621  0.0045  0.0000  0.0000  0.0000  0.0000  0.0000  0.0000 </r>
       </set>
       <set comment="band 8">
        <r>  0.0000  0.1604  0.0062  0.0000  0.0000  0.0000  0.0000  0.0000  0.0000 </r>
        <r>  0.0000  0.0045  0.1621  0.0000  0.0000  0.0000  0.0000  0.0000  0.0000 </r>
       </set>
      </set>
      <set comment="kpoint 26">
       <set comment="band 1">
        <r>  0.2112  0.0000  0.0000  0.0063  0.0000  0.0000  0.0000  0.0000  0.0000 </r>
        <r>  0.2112  0.0000  0.0000  0.0063  0.0000  0.0000  0.0000  0.0000  0.0000 </r>
       </set>
       <set comment="band 2">
        <r>  0.1283  0.0000  0.0000  0.1247  0.0000  0.0000  0.0000  0.0000  0.0000 </r>
        <r>  0.1283  0.0000  0.0000  0.1247  0.0000  0.0000  0.0000  0.0000  0.0000 </r>
       </set>
       <set comment="band 3">
        <r>  0.0000  0.0999  0.1022  0.0000  0.0000  0.0000  0.0000  0.0000  0.0000 </r>
        <r>  0.0000  0.1027  0.0994  0.0000  0.0000  0.0000  0.0000  0.0000  0.0000 </r>
       </set>
       <set comment="band 4">
        <r>  0.0000  0.1022  0.0999  0.0000  0.0000  0.0000  0.0000  0.0000  0.0000 </r>
        <r>  0.0000  0.0994  0.1027  0.0000  0.0000  0.0000  0.0000  0.0000  0.0000 </r>
       </set>
       <set comment="band 5">
        <r>  0.0323  0.0000  0.0000  0.0991  0.0000  0.0000  0.0000  0.0000  0.0000 </r>
        <r>  0.0323  0.0000  0.0000  0.0991  0.0000  0.0000  0.0000  0.0000  0.0000 </r>
       </set>
       <set comment="band 6">
        <r>  0.0918  0.0000  0.0000  0.0594  0.0000  0.0000  0.0000  0.0000  0.0000 </r>
        <r>  0.0918  0.0000  0.0000  0.0594  0.0000  0.0000  0.0000  0.0000  0.0000 </r>
       </set>
       <set comment="band 7">
        <r>  0.0000  0.0212  0.1451  0.0000  0.0000  0.0000  0.0000  0.0000  0.0000 </r>
        <r>  0.0000  0.1393  0.0270  0.0000  0.0000  0.0000  0.0000  0.0000  0.0000 </r>
       </set>
       <set comment="band 8">
        <r>  0.0000  0.1451  0.0212  0.0000  0.0000  0.0000  0.0000  0.0000  0.0000 </r>
        <r>  0.0000  0.0270  0.1393  0.0000  0.0000  0.0000  0.0000  0.0000  0.0000 </r>
       </set>
      </set>
      <set comment="kpoint 27">
       <set comment="band 1">
        <r>  0.2116  0.0000  0.0000  0.0054  0.0000  0.0000  0.0000  0.0000  0.0000 </r>
        <r>  0.2116  0.0000  0.0000  0.0054  0.0000  0.0000  0.0000  0.0000  0.0000 </r>
       </set>
       <set comment="band 2">
        <r>  0.1217  0.0000  0.0000  0.1297  0.0000  0.0000  0.0000  0.0000  0.0000 </r>
        <r>  0.1217  0.0000  0.0000  0.1297  0.0000  0.0000  0.0000  0.0000  0.0000 </r>
       </set>
       <set comment="band 3">
        <r>  0.0000  0.1002  0.1024  0.0000  0.0000  0.0000  0.0000  0.0000  0.0000 </r>
        <r>  0.0000  0.1030  0.0996  0.0000  0.0000  0.0000  0.0000  0.0000  0.0000 </r>
       </set>
       <set comment="band 4">
        <r>  0.0000  0.1024  0.1002  0.0000  0.0000  0.0000  0.0000  0.0000  0.0000 </r>
        <r>  0.0000  0.0996  0.1030  0.0000  0.0000  0.0000  0.0000  0.0000  0.0000 </r>
       </set>
       <set comment="band 5">
        <r>  0.0298  0.0000  0.0000  0.1036  0.0000  0.0000  0.0000  0.0000  0.0000 </r>
        <r>  0.0298  0.0000  0.0000  0.1036  0.0000  0.0000  0.0000  0.0000  0.0000 </r>
       </set>
       <set comment="band 6">
        <r>  0.1132  0.0000  0.0000  0.0654  0.0000  0.0000  0.0000  0.0000  0.0000 </r>
        <r>  0.1132  0.0000  0.0000  0.0654  0.0000  0.0000  0.0000  0.0000  0.0000 </r>
       </set>
       <set comment="band 7">
        <r>  0.0000  0.0054  0.1605  0.0000  0.0000  0.0000  0.0000  0.0000  0.0000 </r>
        <r>  0.0000  0.1516  0.0143  0.0000  0.0000  0.0000  0.0000  0.0000  0.0000 </r>
       </set>
       <set comment="band 8">
        <r>  0.0000  0.1605  0.0054  0.0000  0.0000  0.0000  0.0000  0.0000  0.0000 </r>
        <r>  0.0000  0.0143  0.1516  0.0000  0.0000  0.0000  0.0000  0.0000  0.0000 </r>
       </set>
      </set>
      <set comment="kpoint 28">
       <set comment="band 1">
        <r>  0.2120  0.0000  0.0000  0.0046  0.0000  0.0000  0.0000  0.0000  0.0000 </r>
        <r>  0.2120  0.0000  0.0000  0.0046  0.0000  0.0000  0.0000  0.0000  0.0000 </r>
       </set>
       <set comment="band 2">
        <r>  0.1146  0.0000  0.0000  0.1352  0.0000  0.0000  0.0000  0.0000  0.0000 </r>
        <r>  0.1146  0.0000  0.0000  0.1352  0.0000  0.0000  0.0000  0.0000  0.0000 </r>
       </set>
       <set comment="band 3">
        <r>  0.0000  0.1007  0.1026  0.0000  0.0000  0.0000  0.0000  0.0000  0.0000 </r>
        <r>  0.0000  0.1032  0.1001  0.0000  0.0000  0.0000  0.0000  0.0000  0.0000 </r>
       </set>
       <set comment="band 4">
        <r>  0.0000  0.1026  0.1007  0.0000  0.0000  0.0000  0.0000  0.0000  0.0000 </r>
        <r>  0.0000  0.1001  0.1032  0.0000  0.0000  0.0000  0.0000  0.0000  0.0000 </r>
       </set>
       <set comment="band 5">
        <r>  0.0271  0.0000  0.0000  0.1082  0.0000  0.0000  0.0000  0.0000  0.0000 </r>
        <r>  0.0271  0.0000  0.0000  0.1082  0.0000  0.0000  0.0000  0.0000  0.0000 </r>
       </set>
       <set comment="band 6">
        <r>  0.0000  0.0786  0.0868  0.0000  0.0000  0.0000  0.0000  0.0000  0.0000 </r>
        <r>  0.0000  0.1057  0.0597  0.0000  0.0000  0.0000  0.0000  0.0000  0.0000 </r>
       </set>
       <set comment="band 7">
        <r>  0.0000  0.0868  0.0786  0.0000  0.0000  0.0000  0.0000  0.0000  0.0000 </r>
        <r>  0.0000  0.0597  0.1057  0.0000  0.0000  0.0000  0.0000  0.0000  0.0000 </r>
       </set>
       <set comment="band 8">
        <r>  0.1416  0.0000  0.0000  0.0712  0.0000  0.0000  0.0000  0.0000  0.0000 </r>
        <r>  0.1416  0.0000  0.0000  0.0712  0.0000  0.0000  0.0000  0.0000  0.0000 </r>
       </set>
      </set>
      <set comment="kpoint 29">
       <set comment="band 1">
        <r>  0.2123  0.0000  0.0000  0.0039  0.0000  0.0000  0.0000  0.0000  0.0000 </r>
        <r>  0.2123  0.0000  0.0000  0.0039  0.0000  0.0000  0.0000  0.0000  0.0000 </r>
       </set>
       <set comment="band 2">
        <r>  0.1068  0.0000  0.0000  0.1411  0.0000  0.0000  0.0000  0.0000  0.0000 </r>
        <r>  0.1068  0.0000  0.0000  0.1411  0.0000  0.0000  0.0000  0.0000  0.0000 </r>
       </set>
       <set comment="band 3">
        <r>  0.0000  0.1013  0.1030  0.0000  0.0000  0.0000  0.0000  0.0000  0.0000 </r>
        <r>  0.0000  0.1037  0.1005  0.0000  0.0000  0.0000  0.0000  0.0000  0.0000 </r>
       </set>
       <set comment="band 4">
        <r>  0.0000  0.1030  0.1013  0.0000  0.0000  0.0000  0.0000  0.0000  0.0000 </r>
        <r>  0.0000  0.1005  0.1037  0.0000  0.0000  0.0000  0.0000  0.0000  0.0000 </r>
       </set>
       <set comment="band 5">
        <r>  0.0244  0.0000  0.0000  0.1131  0.0000  0.0000  0.0000  0.0000  0.0000 </r>
        <r>  0.0244  0.0000  0.0000  0.1131  0.0000  0.0000  0.0000  0.0000  0.0000 </r>
       </set>
       <set comment="band 6">
        <r>  0.0000  0.1168  0.0479  0.0000  0.0000  0.0000  0.0000  0.0000  0.0000 </r>
        <r>  0.0000  0.0238  0.1409  0.0000  0.0000  0.0000  0.0000  0.0000  0.0000 </r>
       </set>
       <set comment="band 7">
        <r>  0.0000  0.0479  0.1168  0.0000  0.0000  0.0000  0.0000  0.0000  0.0000 </r>
        <r>  0.0000  0.1409  0.0238  0.0000  0.0000  0.0000  0.0000  0.0000  0.0000 </r>
       </set>
       <set comment="band 8">
        <r>  0.1744  0.0000  0.0000  0.0750  0.0000  0.0000  0.0000  0.0000  0.0000 </r>
        <r>  0.1744  0.0000  0.0000  0.0750  0.0000  0.0000  0.0000  0.0000  0.0000 </r>
       </set>
      </set>
      <set comment="kpoint 30">
       <set comment="band 1">
        <r>  0.2126  0.0000  0.0000  0.0032  0.0000  0.0000  0.0000  0.0000  0.0000 </r>
        <r>  0.2126  0.0000  0.0000  0.0032  0.0000  0.0000  0.0000  0.0000  0.0000 </r>
       </set>
       <set comment="band 2">
        <r>  0.0982  0.0000  0.0000  0.1475  0.0000  0.0000  0.0000  0.0000  0.0000 </r>
        <r>  0.0982  0.0000  0.0000  0.1475  0.0000  0.0000  0.0000  0.0000  0.0000 </r>
       </set>
       <set comment="band 3">
        <r>  0.0000  0.1019  0.1033  0.0000  0.0000  0.0000  0.0000  0.0000  0.0000 </r>
        <r>  0.0000  0.1042  0.1010  0.0000  0.0000  0.0000  0.0000  0.0000  0.0000 </r>
       </set>
       <set comment="band 4">
        <r>  0.0000  0.1033  0.1019  0.0000  0.0000  0.0000  0.0000  0.0000  0.0000 </r>
        <r>  0.0000  0.1010  0.1042  0.0000  0.0000  0.0000  0.0000  0.0000  0.0000 </r>
       </set>
       <set comment="band 5">
        <r>  0.0215  0.0000  0.0000  0.1179  0.0000  0.0000  0.0000  0.0000  0.0000 </r>
        <r>  0.0215  0.0000  0.0000  0.1179  0.0000  0.0000  0.0000  0.0000  0.0000 </r>
       </set>
       <set comment="band 6">
        <r>  0.0000  0.1479  0.0160  0.0000  0.0000  0.0000  0.0000  0.0000  0.0000 </r>
        <r>  0.0000  0.0183  0.1456  0.0000  0.0000  0.0000  0.0000  0.0000  0.0000 </r>
       </set>
       <set comment="band 7">
        <r>  0.0000  0.0160  0.1479  0.0000  0.0000  0.0000  0.0000  0.0000  0.0000 </r>
        <r>  0.0000  0.1456  0.0183  0.0000  0.0000  0.0000  0.0000  0.0000  0.0000 </r>
       </set>
       <set comment="band 8">
        <r>  0.2075  0.0000  0.0000  0.0750  0.0000  0.0000  0.0000  0.0000  0.0000 </r>
        <r>  0.2075  0.0000  0.0000  0.0750  0.0000  0.0000  0.0000  0.0000  0.0000 </r>
       </set>
      </set>
      <set comment="kpoint 31">
       <set comment="band 1">
        <r>  0.2129  0.0000  0.0000  0.0026  0.0000  0.0000  0.0000  0.0000  0.0000 </r>
        <r>  0.2129  0.0000  0.0000  0.0026  0.0000  0.0000  0.0000  0.0000  0.0000 </r>
       </set>
       <set comment="band 2">
        <r>  0.0888  0.0000  0.0000  0.1543  0.0000  0.0000  0.0000  0.0000  0.0000 </r>
        <r>  0.0888  0.0000  0.0000  0.1543  0.0000  0.0000  0.0000  0.0000  0.0000 </r>
       </set>
       <set comment="band 3">
        <r>  0.0000  0.1025  0.1037  0.0000  0.0000  0.0000  0.0000  0.0000  0.0000 </r>
        <r>  0.0000  0.1047  0.1016  0.0000  0.0000  0.0000  0.0000  0.0000  0.0000 </r>
       </set>
       <set comment="band 4">
        <r>  0.0000  0.1037  0.1025  0.0000  0.0000  0.0000  0.0000  0.0000  0.0000 </r>
        <r>  0.0000  0.1016  0.1047  0.0000  0.0000  0.0000  0.0000  0.0000  0.0000 </r>
       </set>
       <set comment="band 5">
        <r>  0.0186  0.0000  0.0000  0.1229  0.0000  0.0000  0.0000  0.0000  0.0000 </r>
        <r>  0.0186  0.0000  0.0000  0.1229  0.0000  0.0000  0.0000  0.0000  0.0000 </r>
       </set>
       <set comment="band 6">
        <r>  0.0000  0.1185  0.0443  0.0000  0.0000  0.0000  0.0000  0.0000  0.0000 </r>
        <r>  0.0000  0.1030  0.0599  0.0000  0.0000  0.0000  0.0000  0.0000  0.0000 </r>
       </set>
       <set comment="band 7">
        <r>  0.0000  0.0443  0.1185  0.0000  0.0000  0.0000  0.0000  0.0000  0.0000 </r>
        <r>  0.0000  0.0599  0.1030  0.0000  0.0000  0.0000  0.0000  0.0000  0.0000 </r>
       </set>
       <set comment="band 8">
        <r>  0.2366  0.0000  0.0000  0.0709  0.0000  0.0000  0.0000  0.0000  0.0000 </r>
        <r>  0.2366  0.0000  0.0000  0.0709  0.0000  0.0000  0.0000  0.0000  0.0000 </r>
       </set>
      </set>
      <set comment="kpoint 32">
       <set comment="band 1">
        <r>  0.2132  0.0000  0.0000  0.0021  0.0000  0.0000  0.0000  0.0000  0.0000 </r>
        <r>  0.2132  0.0000  0.0000  0.0021  0.0000  0.0000  0.0000  0.0000  0.0000 </r>
       </set>
       <set comment="band 2">
        <r>  0.0786  0.0000  0.0000  0.1617  0.0000  0.0000  0.0000  0.0000  0.0000 </r>
        <r>  0.0786  0.0000  0.0000  0.1617  0.0000  0.0000  0.0000  0.0000  0.0000 </r>
       </set>
       <set comment="band 3">
        <r>  0.0000  0.1033  0.1042  0.0000  0.0000  0.0000  0.0000  0.0000  0.0000 </r>
        <r>  0.0000  0.1053  0.1022  0.0000  0.0000  0.0000  0.0000  0.0000  0.0000 </r>
       </set>
       <set comment="band 4">
        <r>  0.0000  0.1042  0.1033  0.0000  0.0000  0.0000  0.0000  0.0000  0.0000 </r>
        <r>  0.0000  0.1022  0.1053  0.0000  0.0000  0.0000  0.0000  0.0000  0.0000 </r>
       </set>
       <set comment="band 5">
        <r>  0.0156  0.0000  0.0000  0.1278  0.0000  0.0000  0.0000  0.0000  0.0000 </r>
        <r>  0.0156  0.0000  0.0000  0.1278  0.0000  0.0000  0.0000  0.0000  0.0000 </r>
       </set>
       <set comment="band 6">
        <r>  0.0000  0.0093  0.1524  0.0000  0.0000  0.0000  0.0000  0.0000  0.0000 </r>
        <r>  0.0000  0.1339  0.0278  0.0000  0.0000  0.0000  0.0000  0.0000  0.0000 </r>
       </set>
       <set comment="band 7">
        <r>  0.0000  0.1524  0.0093  0.0000  0.0000  0.0000  0.0000  0.0000  0.0000 </r>
        <r>  0.0000  0.0278  0.1339  0.0000  0.0000  0.0000  0.0000  0.0000  0.0000 </r>
       </set>
       <set comment="band 8">
        <r>  0.2603  0.0000  0.0000  0.0637  0.0000  0.0000  0.0000  0.0000  0.0000 </r>
        <r>  0.2603  0.0000  0.0000  0.0637  0.0000  0.0000  0.0000  0.0000  0.0000 </r>
       </set>
      </set>
      <set comment="kpoint 33">
       <set comment="band 1">
        <r>  0.2134  0.0000  0.0000  0.0016  0.0000  0.0000  0.0000  0.0000  0.0000 </r>
        <r>  0.2134  0.0000  0.0000  0.0016  0.0000  0.0000  0.0000  0.0000  0.0000 </r>
       </set>
       <set comment="band 2">
        <r>  0.0675  0.0000  0.0000  0.1696  0.0000  0.0000  0.0000  0.0000  0.0000 </r>
        <r>  0.0675  0.0000  0.0000  0.1696  0.0000  0.0000  0.0000  0.0000  0.0000 </r>
       </set>
       <set comment="band 3">
        <r>  0.0000  0.1043  0.1046  0.0000  0.0000  0.0000  0.0000  0.0000  0.0000 </r>
        <r>  0.0000  0.1059  0.1029  0.0000  0.0000  0.0000  0.0000  0.0000  0.0000 </r>
       </set>
       <set comment="band 4">
        <r>  0.0000  0.1046  0.1043  0.0000  0.0000  0.0000  0.0000  0.0000  0.0000 </r>
        <r>  0.0000  0.1029  0.1059  0.0000  0.0000  0.0000  0.0000  0.0000  0.0000 </r>
       </set>
       <set comment="band 5">
        <r>  0.0127  0.0000  0.0000  0.1325  0.0000  0.0000  0.0000  0.0000  0.0000 </r>
        <r>  0.0127  0.0000  0.0000  0.1325  0.0000  0.0000  0.0000  0.0000  0.0000 </r>
       </set>
       <set comment="band 6">
        <r>  0.0000  0.0781  0.0822  0.0000  0.0000  0.0000  0.0000  0.0000  0.0000 </r>
        <r>  0.0000  0.0782  0.0820  0.0000  0.0000  0.0000  0.0000  0.0000  0.0000 </r>
       </set>
       <set comment="band 7">
        <r>  0.0000  0.0822  0.0781  0.0000  0.0000  0.0000  0.0000  0.0000  0.0000 </r>
        <r>  0.0000  0.0820  0.0782  0.0000  0.0000  0.0000  0.0000  0.0000  0.0000 </r>
       </set>
       <set comment="band 8">
        <r>  0.2797  0.0000  0.0000  0.0545  0.0000  0.0000  0.0000  0.0000  0.0000 </r>
        <r>  0.2796  0.0000  0.0000  0.0545  0.0000  0.0000  0.0000  0.0000  0.0000 </r>
       </set>
      </set>
      <set comment="kpoint 34">
       <set comment="band 1">
        <r>  0.2136  0.0000  0.0000  0.0012  0.0000  0.0000  0.0000  0.0000  0.0000 </r>
        <r>  0.2136  0.0000  0.0000  0.0012  0.0000  0.0000  0.0000  0.0000  0.0000 </r>
       </set>
       <set comment="band 2">
        <r>  0.0557  0.0000  0.0000  0.1780  0.0000  0.0000  0.0000  0.0000  0.0000 </r>
        <r>  0.0557  0.0000  0.0000  0.1780  0.0000  0.0000  0.0000  0.0000  0.0000 </r>
       </set>
       <set comment="band 3">
        <r>  0.0000  0.1052  0.1052  0.0000  0.0000  0.0000  0.0000  0.0000  0.0000 </r>
        <r>  0.0000  0.1068  0.1036  0.0000  0.0000  0.0000  0.0000  0.0000  0.0000 </r>
       </set>
       <set comment="band 4">
        <r>  0.0000  0.1052  0.1052  0.0000  0.0000  0.0000  0.0000  0.0000  0.0000 </r>
        <r>  0.0000  0.1036  0.1068  0.0000  0.0000  0.0000  0.0000  0.0000  0.0000 </r>
       </set>
       <set comment="band 5">
        <r>  0.0098  0.0000  0.0000  0.1371  0.0000  0.0000  0.0000  0.0000  0.0000 </r>
        <r>  0.0098  0.0000  0.0000  0.1371  0.0000  0.0000  0.0000  0.0000  0.0000 </r>
       </set>
       <set comment="band 6">
        <r>  0.0000  0.0612  0.0976  0.0000  0.0000  0.0000  0.0000  0.0000  0.0000 </r>
        <r>  0.0000  0.1102  0.0486  0.0000  0.0000  0.0000  0.0000  0.0000  0.0000 </r>
       </set>
       <set comment="band 7">
        <r>  0.0000  0.0976  0.0612  0.0000  0.0000  0.0000  0.0000  0.0000  0.0000 </r>
        <r>  0.0000  0.0486  0.1102  0.0000  0.0000  0.0000  0.0000  0.0000  0.0000 </r>
       </set>
       <set comment="band 8">
        <r>  0.2965  0.0000  0.0000  0.0444  0.0000  0.0000  0.0000  0.0000  0.0000 </r>
        <r>  0.2965  0.0000  0.0000  0.0444  0.0000  0.0000  0.0000  0.0000  0.0000 </r>
       </set>
      </set>
      <set comment="kpoint 35">
       <set comment="band 1">
        <r>  0.2138  0.0000  0.0000  0.0008  0.0000  0.0000  0.0000  0.0000  0.0000 </r>
        <r>  0.2138  0.0000  0.0000  0.0008  0.0000  0.0000  0.0000  0.0000  0.0000 </r>
       </set>
       <set comment="band 2">
        <r>  0.0432  0.0000  0.0000  0.1868  0.0000  0.0000  0.0000  0.0000  0.0000 </r>
        <r>  0.0432  0.0000  0.0000  0.1868  0.0000  0.0000  0.0000  0.0000  0.0000 </r>
       </set>
       <set comment="band 3">
        <r>  0.0000  0.1026  0.1094  0.0000  0.0000  0.0000  0.0000  0.0000  0.0000 </r>
        <r>  0.0000  0.1118  0.1003  0.0000  0.0000  0.0000  0.0000  0.0000  0.0000 </r>
       </set>
       <set comment="band 4">
        <r>  0.0000  0.1094  0.1026  0.0000  0.0000  0.0000  0.0000  0.0000  0.0000 </r>
        <r>  0.0000  0.1003  0.1118  0.0000  0.0000  0.0000  0.0000  0.0000  0.0000 </r>
       </set>
       <set comment="band 5">
        <r>  0.0072  0.0000  0.0000  0.1414  0.0000  0.0000  0.0000  0.0000  0.0000 </r>
        <r>  0.0072  0.0000  0.0000  0.1414  0.0000  0.0000  0.0000  0.0000  0.0000 </r>
       </set>
       <set comment="band 6">
        <r>  0.0000  0.0597  0.0974  0.0000  0.0000  0.0000  0.0000  0.0000  0.0000 </r>
        <r>  0.0000  0.0115  0.1456  0.0000  0.0000  0.0000  0.0000  0.0000  0.0000 </r>
       </set>
       <set comment="band 7">
        <r>  0.0000  0.0974  0.0597  0.0000  0.0000  0.0000  0.0000  0.0000  0.0000 </r>
        <r>  0.0000  0.1456  0.0115  0.0000  0.0000  0.0000  0.0000  0.0000  0.0000 </r>
       </set>
       <set comment="band 8">
        <r>  0.3119  0.0000  0.0000  0.0340  0.0000  0.0000  0.0000  0.0000  0.0000 </r>
        <r>  0.3119  0.0000  0.0000  0.0340  0.0000  0.0000  0.0000  0.0000  0.0000 </r>
       </set>
      </set>
      <set comment="kpoint 36">
       <set comment="band 1">
        <r>  0.2139  0.0000  0.0000  0.0005  0.0000  0.0000  0.0000  0.0000  0.0000 </r>
        <r>  0.2139  0.0000  0.0000  0.0005  0.0000  0.0000  0.0000  0.0000  0.0000 </r>
       </set>
       <set comment="band 2">
        <r>  0.0307  0.0000  0.0000  0.1955  0.0000  0.0000  0.0000  0.0000  0.0000 </r>
        <r>  0.0307  0.0000  0.0000  0.1955  0.0000  0.0000  0.0000  0.0000  0.0000 </r>
       </set>
       <set comment="band 3">
        <r>  0.0000  0.1074  0.1063  0.0000  0.0000  0.0000  0.0000  0.0000  0.0000 </r>
        <r>  0.0000  0.1083  0.1054  0.0000  0.0000  0.0000  0.0000  0.0000  0.0000 </r>
       </set>
       <set comment="band 4">
        <r>  0.0000  0.1063  0.1074  0.0000  0.0000  0.0000  0.0000  0.0000  0.0000 </r>
        <r>  0.0000  0.1054  0.1083  0.0000  0.0000  0.0000  0.0000  0.0000  0.0000 </r>
       </set>
       <set comment="band 5">
        <r>  0.0048  0.0000  0.0000  0.1453  0.0000  0.0000  0.0000  0.0000  0.0000 </r>
        <r>  0.0048  0.0000  0.0000  0.1453  0.0000  0.0000  0.0000  0.0000  0.0000 </r>
       </set>
       <set comment="band 6">
        <r>  0.0000  0.0897  0.0657  0.0000  0.0000  0.0000  0.0000  0.0000  0.0000 </r>
        <r>  0.0000  0.0777  0.0777  0.0000  0.0000  0.0000  0.0000  0.0000  0.0000 </r>
       </set>
       <set comment="band 7">
        <r>  0.0000  0.0657  0.0897  0.0000  0.0000  0.0000  0.0000  0.0000  0.0000 </r>
        <r>  0.0000  0.0777  0.0777  0.0000  0.0000  0.0000  0.0000  0.0000  0.0000 </r>
       </set>
       <set comment="band 8">
        <r>  0.3261  0.0000  0.0000  0.0239  0.0000  0.0000  0.0000  0.0000  0.0000 </r>
        <r>  0.3261  0.0000  0.0000  0.0239  0.0000  0.0000  0.0000  0.0000  0.0000 </r>
       </set>
      </set>
      <set comment="kpoint 37">
       <set comment="band 1">
        <r>  0.2140  0.0000  0.0000  0.0003  0.0000  0.0000  0.0000  0.0000  0.0000 </r>
        <r>  0.2140  0.0000  0.0000  0.0003  0.0000  0.0000  0.0000  0.0000  0.0000 </r>
       </set>
       <set comment="band 2">
        <r>  0.0000  0.1083  0.1071  0.0000  0.0000  0.0000  0.0000  0.0000  0.0000 </r>
        <r>  0.0000  0.1090  0.1064  0.0000  0.0000  0.0000  0.0000  0.0000  0.0000 </r>
       </set>
       <set comment="band 3">
        <r>  0.0000  0.1071  0.1083  0.0000  0.0000  0.0000  0.0000  0.0000  0.0000 </r>
        <r>  0.0000  0.1064  0.1090  0.0000  0.0000  0.0000  0.0000  0.0000  0.0000 </r>
       </set>
       <set comment="band 4">
        <r>  0.0190  0.0000  0.0000  0.2037  0.0000  0.0000  0.0000  0.0000  0.0000 </r>
        <r>  0.0190  0.0000  0.0000  0.2037  0.0000  0.0000  0.0000  0.0000  0.0000 </r>
       </set>
       <set comment="band 5">
        <r>  0.0028  0.0000  0.0000  0.1485  0.0000  0.0000  0.0000  0.0000  0.0000 </r>
        <r>  0.0028  0.0000  0.0000  0.1485  0.0000  0.0000  0.0000  0.0000  0.0000 </r>
       </set>
       <set comment="band 6">
        <r>  0.0000  0.0684  0.0854  0.0000  0.0000  0.0000  0.0000  0.0000  0.0000 </r>
        <r>  0.0000  0.0682  0.0857  0.0000  0.0000  0.0000  0.0000  0.0000  0.0000 </r>
       </set>
       <set comment="band 7">
        <r>  0.0000  0.0854  0.0684  0.0000  0.0000  0.0000  0.0000  0.0000  0.0000 </r>
        <r>  0.0000  0.0857  0.0682  0.0000  0.0000  0.0000  0.0000  0.0000  0.0000 </r>
       </set>
       <set comment="band 8">
        <r>  0.3389  0.0000  0.0000  0.0146  0.0000  0.0000  0.0000  0.0000  0.0000 </r>
        <r>  0.3389  0.0000  0.0000  0.0146  0.0000  0.0000  0.0000  0.0000  0.0000 </r>
       </set>
      </set>
      <set comment="kpoint 38">
       <set comment="band 1">
        <r>  0.2141  0.0000  0.0000  0.0001  0.0000  0.0000  0.0000  0.0000  0.0000 </r>
        <r>  0.2141  0.0000  0.0000  0.0001  0.0000  0.0000  0.0000  0.0000  0.0000 </r>
       </set>
       <set comment="band 2">
        <r>  0.0000  0.1040  0.1127  0.0000  0.0000  0.0000  0.0000  0.0000  0.0000 </r>
        <r>  0.0000  0.1055  0.1112  0.0000  0.0000  0.0000  0.0000  0.0000  0.0000 </r>
       </set>
       <set comment="band 3">
        <r>  0.0000  0.1127  0.1040  0.0000  0.0000  0.0000  0.0000  0.0000  0.0000 </r>
        <r>  0.0000  0.1112  0.1055  0.0000  0.0000  0.0000  0.0000  0.0000  0.0000 </r>
       </set>
       <set comment="band 4">
        <r>  0.0091  0.0000  0.0000  0.2106  0.0000  0.0000  0.0000  0.0000  0.0000 </r>
        <r>  0.0091  0.0000  0.0000  0.2106  0.0000  0.0000  0.0000  0.0000  0.0000 </r>
       </set>
       <set comment="band 5">
        <r>  0.0013  0.0000  0.0000  0.1509  0.0000  0.0000  0.0000  0.0000  0.0000 </r>
        <r>  0.0013  0.0000  0.0000  0.1509  0.0000  0.0000  0.0000  0.0000  0.0000 </r>
       </set>
       <set comment="band 6">
        <r>  0.0000  0.0635  0.0889  0.0000  0.0000  0.0000  0.0000  0.0000  0.0000 </r>
        <r>  0.0000  0.0522  0.1002  0.0000  0.0000  0.0000  0.0000  0.0000  0.0000 </r>
       </set>
       <set comment="band 7">
        <r>  0.0000  0.0889  0.0635  0.0000  0.0000  0.0000  0.0000  0.0000  0.0000 </r>
        <r>  0.0000  0.1002  0.0522  0.0000  0.0000  0.0000  0.0000  0.0000  0.0000 </r>
       </set>
       <set comment="band 8">
        <r>  0.3494  0.0000  0.0000  0.0069  0.0000  0.0000  0.0000  0.0000  0.0000 </r>
        <r>  0.3494  0.0000  0.0000  0.0069  0.0000  0.0000  0.0000  0.0000  0.0000 </r>
       </set>
      </set>
      <set comment="kpoint 39">
       <set comment="band 1">
        <r>  0.2141  0.0000  0.0000  0.0000  0.0000  0.0000  0.0000  0.0000  0.0000 </r>
        <r>  0.2141  0.0000  0.0000  0.0000  0.0000  0.0000  0.0000  0.0000  0.0000 </r>
       </set>
       <set comment="band 2">
        <r>  0.0000  0.1135  0.1042  0.0000  0.0000  0.0000  0.0000  0.0000  0.0000 </r>
        <r>  0.0000  0.1129  0.1048  0.0000  0.0000  0.0000  0.0000  0.0000  0.0000 </r>
       </set>
       <set comment="band 3">
        <r>  0.0000  0.1042  0.1135  0.0000  0.0000  0.0000  0.0000  0.0000  0.0000 </r>
        <r>  0.0000  0.1048  0.1129  0.0000  0.0000  0.0000  0.0000  0.0000  0.0000 </r>
       </set>
       <set comment="band 4">
        <r>  0.0024  0.0000  0.0000  0.2152  0.0000  0.0000  0.0000  0.0000  0.0000 </r>
        <r>  0.0024  0.0000  0.0000  0.2152  0.0000  0.0000  0.0000  0.0000  0.0000 </r>
       </set>
       <set comment="band 5">
        <r>  0.0003  0.0000  0.0000  0.1524  0.0000  0.0000  0.0000  0.0000  0.0000 </r>
        <r>  0.0003  0.0000  0.0000  0.1524  0.0000  0.0000  0.0000  0.0000  0.0000 </r>
       </set>
       <set comment="band 6">
        <r>  0.0000  0.0719  0.0796  0.0000  0.0000  0.0000  0.0000  0.0000  0.0000 </r>
        <r>  0.0000  0.0794  0.0721  0.0000  0.0000  0.0000  0.0000  0.0000  0.0000 </r>
       </set>
       <set comment="band 7">
        <r>  0.0000  0.0796  0.0719  0.0000  0.0000  0.0000  0.0000  0.0000  0.0000 </r>
        <r>  0.0000  0.0721  0.0794  0.0000  0.0000  0.0000  0.0000  0.0000  0.0000 </r>
       </set>
       <set comment="band 8">
        <r>  0.3564  0.0000  0.0000  0.0018  0.0000  0.0000  0.0000  0.0000  0.0000 </r>
        <r>  0.3564  0.0000  0.0000  0.0018  0.0000  0.0000  0.0000  0.0000  0.0000 </r>
       </set>
      </set>
      <set comment="kpoint 40">
       <set comment="band 1">
        <r>  0.2142  0.0000  0.0000  0.0000  0.0000  0.0000  0.0000  0.0000  0.0000 </r>
        <r>  0.2142  0.0000  0.0000  0.0000  0.0000  0.0000  0.0000  0.0000  0.0000 </r>
       </set>
       <set comment="band 2">
        <r>  0.0000  0.1104  0.1076  0.0000  0.0000  0.0000  0.0000  0.0000  0.0000 </r>
        <r>  0.0000  0.1104  0.1076  0.0000  0.0000  0.0000  0.0000  0.0000  0.0000 </r>
       </set>
       <set comment="band 3">
        <r>  0.0000  0.1076  0.1104  0.0000  0.0000  0.0000  0.0000  0.0000  0.0000 </r>
        <r>  0.0000  0.1076  0.1104  0.0000  0.0000  0.0000  0.0000  0.0000  0.0000 </r>
       </set>
       <set comment="band 4">
        <r>  0.0000  0.0000  0.0000  0.2169  0.0000  0.0000  0.0000  0.0000  0.0000 </r>
        <r>  0.0000  0.0000  0.0000  0.2169  0.0000  0.0000  0.0000  0.0000  0.0000 </r>
       </set>
       <set comment="band 5">
        <r>  0.0000  0.0000  0.0000  0.1530  0.0000  0.0000  0.0000  0.0000  0.0000 </r>
        <r>  0.0000  0.0000  0.0000  0.1530  0.0000  0.0000  0.0000  0.0000  0.0000 </r>
       </set>
       <set comment="band 6">
        <r>  0.0000  0.0849  0.0662  0.0000  0.0000  0.0000  0.0000  0.0000  0.0000 </r>
        <r>  0.0000  0.0849  0.0662  0.0000  0.0000  0.0000  0.0000  0.0000  0.0000 </r>
       </set>
       <set comment="band 7">
        <r>  0.0000  0.0662  0.0849  0.0000  0.0000  0.0000  0.0000  0.0000  0.0000 </r>
        <r>  0.0000  0.0662  0.0849  0.0000  0.0000  0.0000  0.0000  0.0000  0.0000 </r>
       </set>
       <set comment="band 8">
        <r>  0.3589  0.0000  0.0000  0.0000  0.0000  0.0000  0.0000  0.0000  0.0000 </r>
        <r>  0.3589  0.0000  0.0000  0.0000  0.0000  0.0000  0.0000  0.0000  0.0000 </r>
       </set>
      </set>
      <set comment="kpoint 41">
       <set comment="band 1">
        <r>  0.2142  0.0000  0.0000  0.0000  0.0000  0.0000  0.0000  0.0000  0.0000 </r>
        <r>  0.2142  0.0000  0.0000  0.0000  0.0000  0.0000  0.0000  0.0000  0.0000 </r>
       </set>
       <set comment="band 2">
        <r>  0.0000  0.1129  0.1052  0.0000  0.0000  0.0000  0.0000  0.0000  0.0000 </r>
        <r>  0.0000  0.1129  0.1052  0.0000  0.0000  0.0000  0.0000  0.0000  0.0000 </r>
       </set>
       <set comment="band 3">
        <r>  0.0000  0.1052  0.1129  0.0000  0.0000  0.0000  0.0000  0.0000  0.0000 </r>
        <r>  0.0000  0.1052  0.1129  0.0000  0.0000  0.0000  0.0000  0.0000  0.0000 </r>
       </set>
       <set comment="band 4">
        <r>  0.0000  0.0000  0.0000  0.2169  0.0000  0.0000  0.0000  0.0000  0.0000 </r>
        <r>  0.0000  0.0000  0.0000  0.2169  0.0000  0.0000  0.0000  0.0000  0.0000 </r>
       </set>
       <set comment="band 5">
        <r>  0.0000  0.0000  0.0000  0.1530  0.0000  0.0000  0.0000  0.0000  0.0000 </r>
        <r>  0.0000  0.0000  0.0000  0.1530  0.0000  0.0000  0.0000  0.0000  0.0000 </r>
       </set>
       <set comment="band 6">
        <r>  0.0000  0.0407  0.1104  0.0000  0.0000  0.0000  0.0000  0.0000  0.0000 </r>
        <r>  0.0000  0.0407  0.1104  0.0000  0.0000  0.0000  0.0000  0.0000  0.0000 </r>
       </set>
       <set comment="band 7">
        <r>  0.0000  0.1104  0.0407  0.0000  0.0000  0.0000  0.0000  0.0000  0.0000 </r>
        <r>  0.0000  0.1104  0.0407  0.0000  0.0000  0.0000  0.0000  0.0000  0.0000 </r>
       </set>
       <set comment="band 8">
        <r>  0.3589  0.0000  0.0000  0.0000  0.0000  0.0000  0.0000  0.0000  0.0000 </r>
        <r>  0.3589  0.0000  0.0000  0.0000  0.0000  0.0000  0.0000  0.0000  0.0000 </r>
       </set>
      </set>
      <set comment="kpoint 42">
       <set comment="band 1">
        <r>  0.2141  0.0000  0.0000  0.0000  0.0000  0.0000  0.0000  0.0000  0.0000 </r>
        <r>  0.2141  0.0000  0.0000  0.0000  0.0000  0.0000  0.0000  0.0000  0.0000 </r>
       </set>
       <set comment="band 2">
        <r>  0.0023  0.2164  0.0000  0.0000  0.0000  0.0000  0.0000  0.0000  0.0000 </r>
        <r>  0.0023  0.2164  0.0000  0.0000  0.0000  0.0000  0.0000  0.0000  0.0000 </r>
       </set>
       <set comment="band 3">
        <r>  0.0000  0.0000  0.2167  0.0010  0.0000  0.0000  0.0000  0.0000  0.0000 </r>
        <r>  0.0000  0.0000  0.2167  0.0010  0.0000  0.0000  0.0000  0.0000  0.0000 </r>
       </set>
       <set comment="band 4">
        <r>  0.0000  0.0000  0.0010  0.2155  0.0000  0.0000  0.0000  0.0000  0.0000 </r>
        <r>  0.0000  0.0000  0.0010  0.2155  0.0000  0.0000  0.0000  0.0000  0.0000 </r>
       </set>
       <set comment="band 5">
        <r>  0.0000  0.0000  0.0013  0.1519  0.0000  0.0000  0.0000  0.0000  0.0000 </r>
        <r>  0.0000  0.0000  0.0013  0.1519  0.0000  0.0000  0.0000  0.0000  0.0000 </r>
       </set>
       <set comment="band 6">
        <r>  0.0003  0.1506  0.0000  0.0000  0.0000  0.0000  0.0000  0.0000  0.0000 </r>
        <r>  0.0003  0.1507  0.0000  0.0000  0.0000  0.0000  0.0000  0.0000  0.0000 </r>
       </set>
       <set comment="band 7">
        <r>  0.0000  0.0000  0.1501  0.0014  0.0000  0.0000  0.0000  0.0000  0.0000 </r>
        <r>  0.0000  0.0000  0.1501  0.0014  0.0000  0.0000  0.0000  0.0000  0.0000 </r>
       </set>
       <set comment="band 8">
        <r>  0.3565  0.0017  0.0000  0.0000  0.0000  0.0000  0.0000  0.0000  0.0000 </r>
        <r>  0.3565  0.0017  0.0000  0.0000  0.0000  0.0000  0.0000  0.0000  0.0000 </r>
       </set>
      </set>
      <set comment="kpoint 43">
       <set comment="band 1">
        <r>  0.2141  0.0001  0.0000  0.0000  0.0000  0.0000  0.0000  0.0000  0.0000 </r>
        <r>  0.2141  0.0001  0.0000  0.0000  0.0000  0.0000  0.0000  0.0000  0.0000 </r>
       </set>
       <set comment="band 2">
        <r>  0.0088  0.2119  0.0000  0.0000  0.0000  0.0000  0.0000  0.0000  0.0000 </r>
        <r>  0.0088  0.2119  0.0000  0.0000  0.0000  0.0000  0.0000  0.0000  0.0000 </r>
       </set>
       <set comment="band 3">
        <r>  0.0000  0.0000  0.2129  0.0039  0.0000  0.0000  0.0000  0.0000  0.0000 </r>
        <r>  0.0000  0.0000  0.2129  0.0039  0.0000  0.0000  0.0000  0.0000  0.0000 </r>
       </set>
       <set comment="band 4">
        <r>  0.0000  0.0000  0.0040  0.2116  0.0000  0.0000  0.0000  0.0000  0.0000 </r>
        <r>  0.0000  0.0000  0.0040  0.2116  0.0000  0.0000  0.0000  0.0000  0.0000 </r>
       </set>
       <set comment="band 5">
        <r>  0.0012  0.1492  0.0000  0.0000  0.0000  0.0000  0.0000  0.0000  0.0000 </r>
        <r>  0.0012  0.1492  0.0000  0.0000  0.0000  0.0000  0.0000  0.0000  0.0000 </r>
       </set>
       <set comment="band 6">
        <r>  0.0000  0.0000  0.0051  0.1490  0.0000  0.0000  0.0000  0.0000  0.0000 </r>
        <r>  0.0000  0.0000  0.0051  0.1490  0.0000  0.0000  0.0000  0.0000  0.0000 </r>
       </set>
       <set comment="band 7">
        <r>  0.0000  0.0000  0.1471  0.0053  0.0000  0.0000  0.0000  0.0000  0.0000 </r>
        <r>  0.0000  0.0000  0.1471  0.0053  0.0000  0.0000  0.0000  0.0000  0.0000 </r>
       </set>
       <set comment="band 8">
        <r>  0.3498  0.0067  0.0000  0.0000  0.0000  0.0000  0.0000  0.0000  0.0000 </r>
        <r>  0.3498  0.0067  0.0000  0.0000  0.0000  0.0000  0.0000  0.0000  0.0000 </r>
       </set>
      </set>
      <set comment="kpoint 44">
       <set comment="band 1">
        <r>  0.2140  0.0003  0.0000  0.0000  0.0000  0.0000  0.0000  0.0000  0.0000 </r>
        <r>  0.2140  0.0003  0.0000  0.0000  0.0000  0.0000  0.0000  0.0000  0.0000 </r>
       </set>
       <set comment="band 2">
        <r>  0.0184  0.2052  0.0000  0.0000  0.0000  0.0000  0.0000  0.0000  0.0000 </r>
        <r>  0.0184  0.2052  0.0000  0.0000  0.0000  0.0000  0.0000  0.0000  0.0000 </r>
       </set>
       <set comment="band 3">
        <r>  0.0000  0.0000  0.2074  0.0081  0.0000  0.0000  0.0000  0.0000  0.0000 </r>
        <r>  0.0000  0.0000  0.2074  0.0081  0.0000  0.0000  0.0000  0.0000  0.0000 </r>
       </set>
       <set comment="band 4">
        <r>  0.0000  0.0000  0.0083  0.2059  0.0000  0.0000  0.0000  0.0000  0.0000 </r>
        <r>  0.0000  0.0000  0.0083  0.2059  0.0000  0.0000  0.0000  0.0000  0.0000 </r>
       </set>
       <set comment="band 5">
        <r>  0.0027  0.1468  0.0000  0.0000  0.0000  0.0000  0.0000  0.0000  0.0000 </r>
        <r>  0.0027  0.1468  0.0000  0.0000  0.0000  0.0000  0.0000  0.0000  0.0000 </r>
       </set>
       <set comment="band 6">
        <r>  0.0000  0.0000  0.0108  0.1447  0.0000  0.0000  0.0000  0.0000  0.0000 </r>
        <r>  0.0000  0.0000  0.0108  0.1447  0.0000  0.0000  0.0000  0.0000  0.0000 </r>
       </set>
       <set comment="band 7">
        <r>  0.0000  0.0000  0.1427  0.0111  0.0000  0.0000  0.0000  0.0000  0.0000 </r>
        <r>  0.0000  0.0000  0.1427  0.0111  0.0000  0.0000  0.0000  0.0000  0.0000 </r>
       </set>
       <set comment="band 8">
        <r>  0.3397  0.0142  0.0000  0.0000  0.0000  0.0000  0.0000  0.0000  0.0000 </r>
        <r>  0.3397  0.0142  0.0000  0.0000  0.0000  0.0000  0.0000  0.0000  0.0000 </r>
       </set>
      </set>
      <set comment="kpoint 45">
       <set comment="band 1">
        <r>  0.2139  0.0005  0.0000  0.0000  0.0000  0.0000  0.0000  0.0000  0.0000 </r>
        <r>  0.2139  0.0005  0.0000  0.0000  0.0000  0.0000  0.0000  0.0000  0.0000 </r>
       </set>
       <set comment="band 2">
        <r>  0.0299  0.1972  0.0000  0.0000  0.0000  0.0000  0.0000  0.0000  0.0000 </r>
        <r>  0.0299  0.1972  0.0000  0.0000  0.0000  0.0000  0.0000  0.0000  0.0000 </r>
       </set>
       <set comment="band 3">
        <r>  0.0000  0.0000  0.2008  0.0131  0.0000  0.0000  0.0000  0.0000  0.0000 </r>
        <r>  0.0000  0.0000  0.2008  0.0131  0.0000  0.0000  0.0000  0.0000  0.0000 </r>
       </set>
       <set comment="band 4">
        <r>  0.0000  0.0000  0.0135  0.1991  0.0000  0.0000  0.0000  0.0000  0.0000 </r>
        <r>  0.0000  0.0000  0.0135  0.1991  0.0000  0.0000  0.0000  0.0000  0.0000 </r>
       </set>
       <set comment="band 5">
        <r>  0.0047  0.1437  0.0000  0.0000  0.0000  0.0000  0.0000  0.0000  0.0000 </r>
        <r>  0.0047  0.1437  0.0000  0.0000  0.0000  0.0000  0.0000  0.0000  0.0000 </r>
       </set>
       <set comment="band 6">
        <r>  0.0000  0.0000  0.0175  0.1395  0.0000  0.0000  0.0000  0.0000  0.0000 </r>
        <r>  0.0000  0.0000  0.0175  0.1395  0.0000  0.0000  0.0000  0.0000  0.0000 </r>
       </set>
       <set comment="band 7">
        <r>  0.0000  0.0000  0.1374  0.0180  0.0000  0.0000  0.0000  0.0000  0.0000 </r>
        <r>  0.0000  0.0000  0.1374  0.0180  0.0000  0.0000  0.0000  0.0000  0.0000 </r>
       </set>
       <set comment="band 8">
        <r>  0.3274  0.0232  0.0000  0.0000  0.0000  0.0000  0.0000  0.0000  0.0000 </r>
        <r>  0.3273  0.0232  0.0000  0.0000  0.0000  0.0000  0.0000  0.0000  0.0000 </r>
       </set>
      </set>
      <set comment="kpoint 46">
       <set comment="band 1">
        <r>  0.2138  0.0008  0.0000  0.0000  0.0000  0.0000  0.0000  0.0000  0.0000 </r>
        <r>  0.2138  0.0008  0.0000  0.0000  0.0000  0.0000  0.0000  0.0000  0.0000 </r>
       </set>
       <set comment="band 2">
        <r>  0.0422  0.1885  0.0000  0.0000  0.0000  0.0000  0.0000  0.0000  0.0000 </r>
        <r>  0.0422  0.1885  0.0000  0.0000  0.0000  0.0000  0.0000  0.0000  0.0000 </r>
       </set>
       <set comment="band 3">
        <r>  0.0000  0.0000  0.1938  0.0185  0.0000  0.0000  0.0000  0.0000  0.0000 </r>
        <r>  0.0000  0.0000  0.1938  0.0185  0.0000  0.0000  0.0000  0.0000  0.0000 </r>
       </set>
       <set comment="band 4">
        <r>  0.0000  0.0000  0.0190  0.1920  0.0000  0.0000  0.0000  0.0000  0.0000 </r>
        <r>  0.0000  0.0000  0.0190  0.1920  0.0000  0.0000  0.0000  0.0000  0.0000 </r>
       </set>
       <set comment="band 5">
        <r>  0.0070  0.1399  0.0000  0.0000  0.0000  0.0000  0.0000  0.0000  0.0000 </r>
        <r>  0.0070  0.1399  0.0000  0.0000  0.0000  0.0000  0.0000  0.0000  0.0000 </r>
       </set>
       <set comment="band 6">
        <r>  0.0000  0.0000  0.0247  0.1339  0.0000  0.0000  0.0000  0.0000  0.0000 </r>
        <r>  0.0000  0.0000  0.0247  0.1339  0.0000  0.0000  0.0000  0.0000  0.0000 </r>
       </set>
       <set comment="band 7">
        <r>  0.0000  0.0000  0.1317  0.0253  0.0000  0.0000  0.0000  0.0000  0.0000 </r>
        <r>  0.0000  0.0000  0.1317  0.0253  0.0000  0.0000  0.0000  0.0000  0.0000 </r>
       </set>
       <set comment="band 8">
        <r>  0.3136  0.0332  0.0000  0.0000  0.0000  0.0000  0.0000  0.0000  0.0000 </r>
        <r>  0.3136  0.0332  0.0000  0.0000  0.0000  0.0000  0.0000  0.0000  0.0000 </r>
       </set>
      </set>
      <set comment="kpoint 47">
       <set comment="band 1">
        <r>  0.2136  0.0012  0.0000  0.0000  0.0000  0.0000  0.0000  0.0000  0.0000 </r>
        <r>  0.2136  0.0012  0.0000  0.0000  0.0000  0.0000  0.0000  0.0000  0.0000 </r>
       </set>
       <set comment="band 2">
        <r>  0.0544  0.1799  0.0000  0.0000  0.0000  0.0000  0.0000  0.0000  0.0000 </r>
        <r>  0.0544  0.1799  0.0000  0.0000  0.0000  0.0000  0.0000  0.0000  0.0000 </r>
       </set>
       <set comment="band 3">
        <r>  0.0000  0.0000  0.1868  0.0240  0.0000  0.0000  0.0000  0.0000  0.0000 </r>
        <r>  0.0000  0.0000  0.1868  0.0240  0.0000  0.0000  0.0000  0.0000  0.0000 </r>
       </set>
       <set comment="band 4">
        <r>  0.0000  0.0000  0.0244  0.1849  0.0000  0.0000  0.0000  0.0000  0.0000 </r>
        <r>  0.0000  0.0000  0.0244  0.1849  0.0000  0.0000  0.0000  0.0000  0.0000 </r>
       </set>
       <set comment="band 5">
        <r>  0.0096  0.1357  0.0000  0.0000  0.0000  0.0000  0.0000  0.0000  0.0000 </r>
        <r>  0.0096  0.1357  0.0000  0.0000  0.0000  0.0000  0.0000  0.0000  0.0000 </r>
       </set>
       <set comment="band 6">
        <r>  0.0000  0.0000  0.0319  0.1283  0.0000  0.0000  0.0000  0.0000  0.0000 </r>
        <r>  0.0000  0.0000  0.0319  0.1283  0.0000  0.0000  0.0000  0.0000  0.0000 </r>
       </set>
       <set comment="band 7">
        <r>  0.0000  0.0000  0.1261  0.0325  0.0000  0.0000  0.0000  0.0000  0.0000 </r>
        <r>  0.0000  0.0000  0.1261  0.0325  0.0000  0.0000  0.0000  0.0000  0.0000 </r>
       </set>
       <set comment="band 8">
        <r>  0.2986  0.0434  0.0000  0.0000  0.0000  0.0000  0.0000  0.0000  0.0000 </r>
        <r>  0.2986  0.0434  0.0000  0.0000  0.0000  0.0000  0.0000  0.0000  0.0000 </r>
       </set>
      </set>
      <set comment="kpoint 48">
       <set comment="band 1">
        <r>  0.2134  0.0016  0.0000  0.0000  0.0000  0.0000  0.0000  0.0000  0.0000 </r>
        <r>  0.2134  0.0016  0.0000  0.0000  0.0000  0.0000  0.0000  0.0000  0.0000 </r>
       </set>
       <set comment="band 2">
        <r>  0.0661  0.1715  0.0000  0.0000  0.0000  0.0000  0.0000  0.0000  0.0000 </r>
        <r>  0.0661  0.1715  0.0000  0.0000  0.0000  0.0000  0.0000  0.0000  0.0000 </r>
       </set>
       <set comment="band 3">
        <r>  0.0000  0.0000  0.1801  0.0292  0.0000  0.0000  0.0000  0.0000  0.0000 </r>
        <r>  0.0000  0.0000  0.1801  0.0292  0.0000  0.0000  0.0000  0.0000  0.0000 </r>
       </set>
       <set comment="band 4">
        <r>  0.0000  0.0000  0.0296  0.1783  0.0000  0.0000  0.0000  0.0000  0.0000 </r>
        <r>  0.0000  0.0000  0.0296  0.1783  0.0000  0.0000  0.0000  0.0000  0.0000 </r>
       </set>
       <set comment="band 5">
        <r>  0.0124  0.1312  0.0000  0.0000  0.0000  0.0000  0.0000  0.0000  0.0000 </r>
        <r>  0.0124  0.1312  0.0000  0.0000  0.0000  0.0000  0.0000  0.0000  0.0000 </r>
       </set>
       <set comment="band 6">
        <r>  0.0000  0.0000  0.0388  0.1228  0.0000  0.0000  0.0000  0.0000  0.0000 </r>
        <r>  0.0000  0.0000  0.0388  0.1228  0.0000  0.0000  0.0000  0.0000  0.0000 </r>
       </set>
       <set comment="band 7">
        <r>  0.0000  0.0000  0.1207  0.0393  0.0000  0.0000  0.0000  0.0000  0.0000 </r>
        <r>  0.0000  0.0000  0.1207  0.0394  0.0000  0.0000  0.0000  0.0000  0.0000 </r>
       </set>
       <set comment="band 8">
        <r>  0.2822  0.0533  0.0000  0.0000  0.0000  0.0000  0.0000  0.0000  0.0000 </r>
        <r>  0.2822  0.0533  0.0000  0.0000  0.0000  0.0000  0.0000  0.0000  0.0000 </r>
       </set>
      </set>
      <set comment="kpoint 49">
       <set comment="band 1">
        <r>  0.2131  0.0021  0.0000  0.0000  0.0000  0.0000  0.0000  0.0000  0.0000 </r>
        <r>  0.2131  0.0021  0.0000  0.0000  0.0000  0.0000  0.0000  0.0000  0.0000 </r>
       </set>
       <set comment="band 2">
        <r>  0.0771  0.1636  0.0000  0.0000  0.0000  0.0000  0.0000  0.0000  0.0000 </r>
        <r>  0.0771  0.1636  0.0000  0.0000  0.0000  0.0000  0.0000  0.0000  0.0000 </r>
       </set>
       <set comment="band 3">
        <r>  0.0000  0.0000  0.1738  0.0341  0.0000  0.0000  0.0000  0.0000  0.0000 </r>
        <r>  0.0000  0.0000  0.1738  0.0341  0.0000  0.0000  0.0000  0.0000  0.0000 </r>
       </set>
       <set comment="band 4">
        <r>  0.0000  0.0000  0.0345  0.1721  0.0000  0.0000  0.0000  0.0000  0.0000 </r>
        <r>  0.0000  0.0000  0.0345  0.1721  0.0000  0.0000  0.0000  0.0000  0.0000 </r>
       </set>
       <set comment="band 5">
        <r>  0.0153  0.1264  0.0000  0.0000  0.0000  0.0000  0.0000  0.0000  0.0000 </r>
        <r>  0.0153  0.1264  0.0000  0.0000  0.0000  0.0000  0.0000  0.0000  0.0000 </r>
       </set>
       <set comment="band 6">
        <r>  0.0000  0.0000  0.0452  0.1176  0.0000  0.0000  0.0000  0.0000  0.0000 </r>
        <r>  0.0000  0.0000  0.0452  0.1176  0.0000  0.0000  0.0000  0.0000  0.0000 </r>
       </set>
       <set comment="band 7">
        <r>  0.0000  0.0000  0.1156  0.0457  0.0000  0.0000  0.0000  0.0000  0.0000 </r>
        <r>  0.0000  0.0000  0.1156  0.0457  0.0000  0.0000  0.0000  0.0000  0.0000 </r>
       </set>
       <set comment="band 8">
        <r>  0.2628  0.0623  0.0000  0.0000  0.0000  0.0000  0.0000  0.0000  0.0000 </r>
        <r>  0.2628  0.0623  0.0000  0.0000  0.0000  0.0000  0.0000  0.0000  0.0000 </r>
       </set>
      </set>
      <set comment="kpoint 50">
       <set comment="band 1">
        <r>  0.2129  0.0026  0.0000  0.0000  0.0000  0.0000  0.0000  0.0000  0.0000 </r>
        <r>  0.2129  0.0026  0.0000  0.0000  0.0000  0.0000  0.0000  0.0000  0.0000 </r>
       </set>
       <set comment="band 2">
        <r>  0.0873  0.1562  0.0000  0.0000  0.0000  0.0000  0.0000  0.0000  0.0000 </r>
        <r>  0.0873  0.1562  0.0000  0.0000  0.0000  0.0000  0.0000  0.0000  0.0000 </r>
       </set>
       <set comment="band 3">
        <r>  0.0000  0.0000  0.1681  0.0387  0.0000  0.0000  0.0000  0.0000  0.0000 </r>
        <r>  0.0000  0.0000  0.1681  0.0387  0.0000  0.0000  0.0000  0.0000  0.0000 </r>
       </set>
       <set comment="band 4">
        <r>  0.0000  0.0000  0.0390  0.1664  0.0000  0.0000  0.0000  0.0000  0.0000 </r>
        <r>  0.0000  0.0000  0.0390  0.1664  0.0000  0.0000  0.0000  0.0000  0.0000 </r>
       </set>
       <set comment="band 5">
        <r>  0.0183  0.1216  0.0000  0.0000  0.0000  0.0000  0.0000  0.0000  0.0000 </r>
        <r>  0.0183  0.1216  0.0000  0.0000  0.0000  0.0000  0.0000  0.0000  0.0000 </r>
       </set>
       <set comment="band 6">
        <r>  0.0000  0.0000  0.0512  0.1127  0.0000  0.0000  0.0000  0.0000  0.0000 </r>
        <r>  0.0000  0.0000  0.0512  0.1127  0.0000  0.0000  0.0000  0.0000  0.0000 </r>
       </set>
       <set comment="band 7">
        <r>  0.0000  0.0000  0.1108  0.0516  0.0000  0.0000  0.0000  0.0000  0.0000 </r>
        <r>  0.0000  0.0000  0.1108  0.0516  0.0000  0.0000  0.0000  0.0000  0.0000 </r>
       </set>
       <set comment="band 8">
        <r>  0.2388  0.0693  0.0000  0.0000  0.0000  0.0000  0.0000  0.0000  0.0000 </r>
        <r>  0.2387  0.0693  0.0000  0.0000  0.0000  0.0000  0.0000  0.0000  0.0000 </r>
       </set>
      </set>
      <set comment="kpoint 51">
       <set comment="band 1">
        <r>  0.2126  0.0032  0.0000  0.0000  0.0000  0.0000  0.0000  0.0000  0.0000 </r>
        <r>  0.2126  0.0032  0.0000  0.0000  0.0000  0.0000  0.0000  0.0000  0.0000 </r>
       </set>
       <set comment="band 2">
        <r>  0.0966  0.1493  0.0000  0.0000  0.0000  0.0000  0.0000  0.0000  0.0000 </r>
        <r>  0.0966  0.1493  0.0000  0.0000  0.0000  0.0000  0.0000  0.0000  0.0000 </r>
       </set>
       <set comment="band 3">
        <r>  0.0000  0.0000  0.1629  0.0429  0.0000  0.0000  0.0000  0.0000  0.0000 </r>
        <r>  0.0000  0.0000  0.1629  0.0429  0.0000  0.0000  0.0000  0.0000  0.0000 </r>
       </set>
       <set comment="band 4">
        <r>  0.0000  0.0000  0.0432  0.1613  0.0000  0.0000  0.0000  0.0000  0.0000 </r>
        <r>  0.0000  0.0000  0.0432  0.1613  0.0000  0.0000  0.0000  0.0000  0.0000 </r>
       </set>
       <set comment="band 5">
        <r>  0.0212  0.1168  0.0000  0.0000  0.0000  0.0000  0.0000  0.0000  0.0000 </r>
        <r>  0.0212  0.1168  0.0000  0.0000  0.0000  0.0000  0.0000  0.0000  0.0000 </r>
       </set>
       <set comment="band 6">
        <r>  0.0000  0.0000  0.0568  0.1082  0.0000  0.0000  0.0000  0.0000  0.0000 </r>
        <r>  0.0000  0.0000  0.0567  0.1082  0.0000  0.0000  0.0000  0.0000  0.0000 </r>
       </set>
       <set comment="band 7">
        <r>  0.0000  0.0000  0.1063  0.0571  0.0000  0.0000  0.0000  0.0000  0.0000 </r>
        <r>  0.0000  0.0000  0.1063  0.0571  0.0000  0.0000  0.0000  0.0000  0.0000 </r>
       </set>
       <set comment="band 8">
        <r>  0.2084  0.0728  0.0000  0.0000  0.0000  0.0000  0.0000  0.0000  0.0000 </r>
        <r>  0.2084  0.0728  0.0000  0.0000  0.0000  0.0000  0.0000  0.0000  0.0000 </r>
       </set>
      </set>
      <set comment="kpoint 52">
       <set comment="band 1">
        <r>  0.2123  0.0039  0.0000  0.0000  0.0000  0.0000  0.0000  0.0000  0.0000 </r>
        <r>  0.2123  0.0039  0.0000  0.0000  0.0000  0.0000  0.0000  0.0000  0.0000 </r>
       </set>
       <set comment="band 2">
        <r>  0.1051  0.1430  0.0000  0.0000  0.0000  0.0000  0.0000  0.0000  0.0000 </r>
        <r>  0.1051  0.1430  0.0000  0.0000  0.0000  0.0000  0.0000  0.0000  0.0000 </r>
       </set>
       <set comment="band 3">
        <r>  0.0000  0.0000  0.1581  0.0468  0.0000  0.0000  0.0000  0.0000  0.0000 </r>
        <r>  0.0000  0.0000  0.1581  0.0468  0.0000  0.0000  0.0000  0.0000  0.0000 </r>
       </set>
       <set comment="band 4">
        <r>  0.0000  0.0000  0.0470  0.1566  0.0000  0.0000  0.0000  0.0000  0.0000 </r>
        <r>  0.0000  0.0000  0.0470  0.1566  0.0000  0.0000  0.0000  0.0000  0.0000 </r>
       </set>
       <set comment="band 5">
        <r>  0.0240  0.1120  0.0000  0.0000  0.0000  0.0000  0.0000  0.0000  0.0000 </r>
        <r>  0.0240  0.1120  0.0000  0.0000  0.0000  0.0000  0.0000  0.0000  0.0000 </r>
       </set>
       <set comment="band 6">
        <r>  0.0000  0.0000  0.0618  0.1039  0.0000  0.0000  0.0000  0.0000  0.0000 </r>
        <r>  0.0000  0.0000  0.0618  0.1039  0.0000  0.0000  0.0000  0.0000  0.0000 </r>
       </set>
       <set comment="band 7">
        <r>  0.0000  0.0000  0.1023  0.0620  0.0000  0.0000  0.0000  0.0000  0.0000 </r>
        <r>  0.0000  0.0000  0.1023  0.0620  0.0000  0.0000  0.0000  0.0000  0.0000 </r>
       </set>
       <set comment="band 8">
        <r>  0.1729  0.0716  0.0000  0.0000  0.0000  0.0000  0.0000  0.0000  0.0000 </r>
        <r>  0.1729  0.0716  0.0000  0.0000  0.0000  0.0000  0.0000  0.0000  0.0000 </r>
       </set>
      </set>
      <set comment="kpoint 53">
       <set comment="band 1">
        <r>  0.2119  0.0046  0.0000  0.0000  0.0000  0.0000  0.0000  0.0000  0.0000 </r>
        <r>  0.2119  0.0046  0.0000  0.0000  0.0000  0.0000  0.0000  0.0000  0.0000 </r>
       </set>
       <set comment="band 2">
        <r>  0.1129  0.1371  0.0000  0.0000  0.0000  0.0000  0.0000  0.0000  0.0000 </r>
        <r>  0.1129  0.1371  0.0000  0.0000  0.0000  0.0000  0.0000  0.0000  0.0000 </r>
       </set>
       <set comment="band 3">
        <r>  0.0000  0.0000  0.1537  0.0503  0.0000  0.0000  0.0000  0.0000  0.0000 </r>
        <r>  0.0000  0.0000  0.1537  0.0503  0.0000  0.0000  0.0000  0.0000  0.0000 </r>
       </set>
       <set comment="band 4">
        <r>  0.0000  0.0000  0.0505  0.1524  0.0000  0.0000  0.0000  0.0000  0.0000 </r>
        <r>  0.0000  0.0000  0.0505  0.1524  0.0000  0.0000  0.0000  0.0000  0.0000 </r>
       </set>
       <set comment="band 5">
        <r>  0.0267  0.1073  0.0000  0.0000  0.0000  0.0000  0.0000  0.0000  0.0000 </r>
        <r>  0.0267  0.1073  0.0000  0.0000  0.0000  0.0000  0.0000  0.0000  0.0000 </r>
       </set>
       <set comment="band 6">
        <r>  0.0000  0.0000  0.0664  0.0999  0.0000  0.0000  0.0000  0.0000  0.0000 </r>
        <r>  0.0000  0.0000  0.0664  0.0999  0.0000  0.0000  0.0000  0.0000  0.0000 </r>
       </set>
       <set comment="band 7">
        <r>  0.0000  0.0000  0.0984  0.0665  0.0000  0.0000  0.0000  0.0000  0.0000 </r>
        <r>  0.0000  0.0000  0.0984  0.0665  0.0000  0.0000  0.0000  0.0000  0.0000 </r>
       </set>
       <set comment="band 8">
        <r>  0.1386  0.0668  0.0000  0.0000  0.0000  0.0000  0.0000  0.0000  0.0000 </r>
        <r>  0.1386  0.0668  0.0000  0.0000  0.0000  0.0000  0.0000  0.0000  0.0000 </r>
       </set>
      </set>
      <set comment="kpoint 54">
       <set comment="band 1">
        <r>  0.2115  0.0054  0.0000  0.0000  0.0000  0.0000  0.0000  0.0000  0.0000 </r>
        <r>  0.2115  0.0054  0.0000  0.0000  0.0000  0.0000  0.0000  0.0000  0.0000 </r>
       </set>
       <set comment="band 2">
        <r>  0.1200  0.1315  0.0000  0.0000  0.0000  0.0000  0.0000  0.0000  0.0000 </r>
        <r>  0.1200  0.1315  0.0000  0.0000  0.0000  0.0000  0.0000  0.0000  0.0000 </r>
       </set>
       <set comment="band 3">
        <r>  0.0000  0.0000  0.1497  0.0536  0.0000  0.0000  0.0000  0.0000  0.0000 </r>
        <r>  0.0000  0.0000  0.1497  0.0536  0.0000  0.0000  0.0000  0.0000  0.0000 </r>
       </set>
       <set comment="band 4">
        <r>  0.0000  0.0000  0.0537  0.1485  0.0000  0.0000  0.0000  0.0000  0.0000 </r>
        <r>  0.0000  0.0000  0.0537  0.1485  0.0000  0.0000  0.0000  0.0000  0.0000 </r>
       </set>
       <set comment="band 5">
        <r>  0.0294  0.1027  0.0000  0.0000  0.0000  0.0000  0.0000  0.0000  0.0000 </r>
        <r>  0.0294  0.1027  0.0000  0.0000  0.0000  0.0000  0.0000  0.0000  0.0000 </r>
       </set>
       <set comment="band 6">
        <r>  0.0000  0.0000  0.0707  0.0963  0.0000  0.0000  0.0000  0.0000  0.0000 </r>
        <r>  0.0000  0.0000  0.0707  0.0963  0.0000  0.0000  0.0000  0.0000  0.0000 </r>
       </set>
       <set comment="band 7">
        <r>  0.1102  0.0604  0.0000  0.0000  0.0000  0.0000  0.0000  0.0000  0.0000 </r>
        <r>  0.1102  0.0604  0.0000  0.0000  0.0000  0.0000  0.0000  0.0000  0.0000 </r>
       </set>
       <set comment="band 8">
        <r>  0.0000  0.0000  0.0948  0.0706  0.0000  0.0000  0.0000  0.0000  0.0000 </r>
        <r>  0.0000  0.0000  0.0948  0.0706  0.0000  0.0000  0.0000  0.0000  0.0000 </r>
       </set>
      </set>
      <set comment="kpoint 55">
       <set comment="band 1">
        <r>  0.2111  0.0063  0.0000  0.0000  0.0000  0.0000  0.0000  0.0000  0.0000 </r>
        <r>  0.2111  0.0063  0.0000  0.0000  0.0000  0.0000  0.0000  0.0000  0.0000 </r>
       </set>
       <set comment="band 2">
        <r>  0.1264  0.1261  0.0000  0.0000  0.0000  0.0000  0.0000  0.0000  0.0000 </r>
        <r>  0.1264  0.1261  0.0000  0.0000  0.0000  0.0000  0.0000  0.0000  0.0000 </r>
       </set>
       <set comment="band 3">
        <r>  0.0000  0.0000  0.1461  0.0567  0.0000  0.0000  0.0000  0.0000  0.0000 </r>
        <r>  0.0000  0.0000  0.1461  0.0567  0.0000  0.0000  0.0000  0.0000  0.0000 </r>
       </set>
       <set comment="band 4">
        <r>  0.0000  0.0000  0.0567  0.1450  0.0000  0.0000  0.0000  0.0000  0.0000 </r>
        <r>  0.0000  0.0000  0.0567  0.1450  0.0000  0.0000  0.0000  0.0000  0.0000 </r>
       </set>
       <set comment="band 5">
        <r>  0.0319  0.0982  0.0000  0.0000  0.0000  0.0000  0.0000  0.0000  0.0000 </r>
        <r>  0.0319  0.0982  0.0000  0.0000  0.0000  0.0000  0.0000  0.0000  0.0000 </r>
       </set>
       <set comment="band 6">
        <r>  0.0893  0.0539  0.0000  0.0000  0.0000  0.0000  0.0000  0.0000  0.0000 </r>
        <r>  0.0893  0.0539  0.0000  0.0000  0.0000  0.0000  0.0000  0.0000  0.0000 </r>
       </set>
       <set comment="band 7">
        <r>  0.0000  0.0000  0.0746  0.0927  0.0000  0.0000  0.0000  0.0000  0.0000 </r>
        <r>  0.0000  0.0000  0.0746  0.0927  0.0000  0.0000  0.0000  0.0000  0.0000 </r>
       </set>
       <set comment="band 8">
        <r>  0.0000  0.0000  0.0914  0.0744  0.0000  0.0000  0.0000  0.0000  0.0000 </r>
        <r>  0.0000  0.0000  0.0914  0.0744  0.0000  0.0000  0.0000  0.0000  0.0000 </r>
       </set>
      </set>
      <set comment="kpoint 56">
       <set comment="band 1">
        <r>  0.2107  0.0072  0.0000  0.0000  0.0000  0.0000  0.0000  0.0000  0.0000 </r>
        <r>  0.2107  0.0072  0.0000  0.0000  0.0000  0.0000  0.0000  0.0000  0.0000 </r>
       </set>
       <set comment="band 2">
        <r>  0.1323  0.1212  0.0000  0.0000  0.0000  0.0000  0.0000  0.0000  0.0000 </r>
        <r>  0.1323  0.1212  0.0000  0.0000  0.0000  0.0000  0.0000  0.0000  0.0000 </r>
       </set>
       <set comment="band 3">
        <r>  0.0000  0.0000  0.1427  0.0595  0.0000  0.0000  0.0000  0.0000  0.0000 </r>
        <r>  0.0000  0.0000  0.1427  0.0595  0.0000  0.0000  0.0000  0.0000  0.0000 </r>
       </set>
       <set comment="band 4">
        <r>  0.0000  0.0000  0.0595  0.1417  0.0000  0.0000  0.0000  0.0000  0.0000 </r>
        <r>  0.0000  0.0000  0.0595  0.1417  0.0000  0.0000  0.0000  0.0000  0.0000 </r>
       </set>
       <set comment="band 5">
        <r>  0.0343  0.0939  0.0000  0.0000  0.0000  0.0000  0.0000  0.0000  0.0000 </r>
        <r>  0.0343  0.0939  0.0000  0.0000  0.0000  0.0000  0.0000  0.0000  0.0000 </r>
       </set>
       <set comment="band 6">
        <r>  0.0746  0.0487  0.0000  0.0000  0.0000  0.0000  0.0000  0.0000  0.0000 </r>
        <r>  0.0746  0.0487  0.0000  0.0000  0.0000  0.0000  0.0000  0.0000  0.0000 </r>
       </set>
       <set comment="band 7">
        <r>  0.0000  0.0000  0.0781  0.0894  0.0000  0.0000  0.0000  0.0000  0.0000 </r>
        <r>  0.0000  0.0000  0.0781  0.0894  0.0000  0.0000  0.0000  0.0000  0.0000 </r>
       </set>
       <set comment="band 8">
        <r>  0.0000  0.0000  0.0883  0.0778  0.0000  0.0000  0.0000  0.0000  0.0000 </r>
        <r>  0.0000  0.0000  0.0883  0.0778  0.0000  0.0000  0.0000  0.0000  0.0000 </r>
       </set>
      </set>
      <set comment="kpoint 57">
       <set comment="band 1">
        <r>  0.2102  0.0082  0.0000  0.0000  0.0000  0.0000  0.0000  0.0000  0.0000 </r>
        <r>  0.2102  0.0082  0.0000  0.0000  0.0000  0.0000  0.0000  0.0000  0.0000 </r>
       </set>
       <set comment="band 2">
        <r>  0.1378  0.1167  0.0000  0.0000  0.0000  0.0000  0.0000  0.0000  0.0000 </r>
        <r>  0.1378  0.1167  0.0000  0.0000  0.0000  0.0000  0.0000  0.0000  0.0000 </r>
       </set>
       <set comment="band 3">
        <r>  0.0000  0.0000  0.1397  0.0622  0.0000  0.0000  0.0000  0.0000  0.0000 </r>
        <r>  0.0000  0.0000  0.1397  0.0622  0.0000  0.0000  0.0000  0.0000  0.0000 </r>
       </set>
       <set comment="band 4">
        <r>  0.0000  0.0000  0.0621  0.1388  0.0000  0.0000  0.0000  0.0000  0.0000 </r>
        <r>  0.0000  0.0000  0.0621  0.1388  0.0000  0.0000  0.0000  0.0000  0.0000 </r>
       </set>
       <set comment="band 5">
        <r>  0.0365  0.0898  0.0000  0.0000  0.0000  0.0000  0.0000  0.0000  0.0000 </r>
        <r>  0.0365  0.0898  0.0000  0.0000  0.0000  0.0000  0.0000  0.0000  0.0000 </r>
       </set>
       <set comment="band 6">
        <r>  0.0644  0.0445  0.0000  0.0000  0.0000  0.0000  0.0000  0.0000  0.0000 </r>
        <r>  0.0644  0.0445  0.0000  0.0000  0.0000  0.0000  0.0000  0.0000  0.0000 </r>
       </set>
       <set comment="band 7">
        <r>  0.0000  0.0000  0.0814  0.0863  0.0000  0.0000  0.0000  0.0000  0.0000 </r>
        <r>  0.0000  0.0000  0.0814  0.0863  0.0000  0.0000  0.0000  0.0000  0.0000 </r>
       </set>
       <set comment="band 8">
        <r>  0.0000  0.0000  0.0853  0.0809  0.0000  0.0000  0.0000  0.0000  0.0000 </r>
        <r>  0.0000  0.0000  0.0853  0.0809  0.0000  0.0000  0.0000  0.0000  0.0000 </r>
       </set>
      </set>
      <set comment="kpoint 58">
       <set comment="band 1">
        <r>  0.2097  0.0092  0.0000  0.0000  0.0000  0.0000  0.0000  0.0000  0.0000 </r>
        <r>  0.2097  0.0092  0.0000  0.0000  0.0000  0.0000  0.0000  0.0000  0.0000 </r>
       </set>
       <set comment="band 2">
        <r>  0.1428  0.1124  0.0000  0.0000  0.0000  0.0000  0.0000  0.0000  0.0000 </r>
        <r>  0.1428  0.1124  0.0000  0.0000  0.0000  0.0000  0.0000  0.0000  0.0000 </r>
       </set>
       <set comment="band 3">
        <r>  0.0000  0.0000  0.1368  0.0646  0.0000  0.0000  0.0000  0.0000  0.0000 </r>
        <r>  0.0000  0.0000  0.1368  0.0646  0.0000  0.0000  0.0000  0.0000  0.0000 </r>
       </set>
       <set comment="band 4">
        <r>  0.0000  0.0000  0.0645  0.1361  0.0000  0.0000  0.0000  0.0000  0.0000 </r>
        <r>  0.0000  0.0000  0.0645  0.1361  0.0000  0.0000  0.0000  0.0000  0.0000 </r>
       </set>
       <set comment="band 5">
        <r>  0.0386  0.0858  0.0000  0.0000  0.0000  0.0000  0.0000  0.0000  0.0000 </r>
        <r>  0.0386  0.0858  0.0000  0.0000  0.0000  0.0000  0.0000  0.0000  0.0000 </r>
       </set>
       <set comment="band 6">
        <r>  0.0574  0.0411  0.0000  0.0000  0.0000  0.0000  0.0000  0.0000  0.0000 </r>
        <r>  0.0574  0.0411  0.0000  0.0000  0.0000  0.0000  0.0000  0.0000  0.0000 </r>
       </set>
       <set comment="band 7">
        <r>  0.0000  0.0000  0.0844  0.0834  0.0000  0.0000  0.0000  0.0000  0.0000 </r>
        <r>  0.0000  0.0000  0.0844  0.0834  0.0000  0.0000  0.0000  0.0000  0.0000 </r>
       </set>
       <set comment="band 8">
        <r>  0.0000  0.0000  0.0825  0.0840  0.0000  0.0000  0.0000  0.0000  0.0000 </r>
        <r>  0.0000  0.0000  0.0825  0.0840  0.0000  0.0000  0.0000  0.0000  0.0000 </r>
       </set>
      </set>
      <set comment="kpoint 59">
       <set comment="band 1">
        <r>  0.2092  0.0103  0.0000  0.0000  0.0000  0.0000  0.0000  0.0000  0.0000 </r>
        <r>  0.2092  0.0103  0.0000  0.0000  0.0000  0.0000  0.0000  0.0000  0.0000 </r>
       </set>
       <set comment="band 2">
        <r>  0.1474  0.1083  0.0000  0.0000  0.0000  0.0000  0.0000  0.0000  0.0000 </r>
        <r>  0.1474  0.1083  0.0000  0.0000  0.0000  0.0000  0.0000  0.0000  0.0000 </r>
       </set>
       <set comment="band 3">
        <r>  0.0000  0.0000  0.1342  0.0670  0.0000  0.0000  0.0000  0.0000  0.0000 </r>
        <r>  0.0000  0.0000  0.1342  0.0670  0.0000  0.0000  0.0000  0.0000  0.0000 </r>
       </set>
       <set comment="band 4">
        <r>  0.0000  0.0000  0.0668  0.1335  0.0000  0.0000  0.0000  0.0000  0.0000 </r>
        <r>  0.0000  0.0000  0.0668  0.1335  0.0000  0.0000  0.0000  0.0000  0.0000 </r>
       </set>
       <set comment="band 5">
        <r>  0.0405  0.0820  0.0000  0.0000  0.0000  0.0000  0.0000  0.0000  0.0000 </r>
        <r>  0.0405  0.0820  0.0000  0.0000  0.0000  0.0000  0.0000  0.0000  0.0000 </r>
       </set>
       <set comment="band 6">
        <r>  0.0525  0.0385  0.0000  0.0000  0.0000  0.0000  0.0000  0.0000  0.0000 </r>
        <r>  0.0525  0.0385  0.0000  0.0000  0.0000  0.0000  0.0000  0.0000  0.0000 </r>
       </set>
       <set comment="band 7">
        <r>  0.0000  0.0000  0.0871  0.0806  0.0000  0.0000  0.0000  0.0000  0.0000 </r>
        <r>  0.0000  0.0000  0.0870  0.0806  0.0000  0.0000  0.0000  0.0000  0.0000 </r>
       </set>
       <set comment="band 8">
        <r>  0.0000  0.0000  0.0798  0.0866  0.0000  0.0000  0.0000  0.0000  0.0000 </r>
        <r>  0.0000  0.0000  0.0798  0.0867  0.0000  0.0000  0.0000  0.0000  0.0000 </r>
       </set>
      </set>
      <set comment="kpoint 60">
       <set comment="band 1">
        <r>  0.2087  0.0115  0.0000  0.0000  0.0000  0.0000  0.0000  0.0000  0.0000 </r>
        <r>  0.2087  0.0115  0.0000  0.0000  0.0000  0.0000  0.0000  0.0000  0.0000 </r>
       </set>
       <set comment="band 2">
        <r>  0.1515  0.1043  0.0000  0.0000  0.0000  0.0000  0.0000  0.0000  0.0000 </r>
        <r>  0.1515  0.1043  0.0000  0.0000  0.0000  0.0000  0.0000  0.0000  0.0000 </r>
       </set>
       <set comment="band 3">
        <r>  0.0000  0.0000  0.1317  0.0692  0.0000  0.0000  0.0000  0.0000  0.0000 </r>
        <r>  0.0000  0.0000  0.1317  0.0692  0.0000  0.0000  0.0000  0.0000  0.0000 </r>
       </set>
       <set comment="band 4">
        <r>  0.0000  0.0000  0.0690  0.1311  0.0000  0.0000  0.0000  0.0000  0.0000 </r>
        <r>  0.0000  0.0000  0.0690  0.1311  0.0000  0.0000  0.0000  0.0000  0.0000 </r>
       </set>
       <set comment="band 5">
        <r>  0.0423  0.0783  0.0000  0.0000  0.0000  0.0000  0.0000  0.0000  0.0000 </r>
        <r>  0.0423  0.0783  0.0000  0.0000  0.0000  0.0000  0.0000  0.0000  0.0000 </r>
       </set>
       <set comment="band 6">
        <r>  0.0491  0.0363  0.0000  0.0000  0.0000  0.0000  0.0000  0.0000  0.0000 </r>
        <r>  0.0491  0.0363  0.0000  0.0000  0.0000  0.0000  0.0000  0.0000  0.0000 </r>
       </set>
       <set comment="band 7">
        <r>  0.0000  0.0000  0.0896  0.0780  0.0000  0.0000  0.0000  0.0000  0.0000 </r>
        <r>  0.0000  0.0000  0.0896  0.0780  0.0000  0.0000  0.0000  0.0000  0.0000 </r>
       </set>
       <set comment="band 8">
        <r>  0.0000  0.0000  0.0773  0.0892  0.0000  0.0000  0.0000  0.0000  0.0000 </r>
        <r>  0.0000  0.0000  0.0773  0.0892  0.0000  0.0000  0.0000  0.0000  0.0000 </r>
       </set>
      </set>
      <set comment="kpoint 61">
       <set comment="band 1">
        <r>  0.2081  0.0127  0.0000  0.0000  0.0000  0.0000  0.0000  0.0000  0.0000 </r>
        <r>  0.2081  0.0127  0.0000  0.0000  0.0000  0.0000  0.0000  0.0000  0.0000 </r>
       </set>
       <set comment="band 2">
        <r>  0.1554  0.1005  0.0000  0.0000  0.0000  0.0000  0.0000  0.0000  0.0000 </r>
        <r>  0.1554  0.1005  0.0000  0.0000  0.0000  0.0000  0.0000  0.0000  0.0000 </r>
       </set>
       <set comment="band 3">
        <r>  0.0000  0.0000  0.1294  0.0713  0.0000  0.0000  0.0000  0.0000  0.0000 </r>
        <r>  0.0000  0.0000  0.1294  0.0713  0.0000  0.0000  0.0000  0.0000  0.0000 </r>
       </set>
       <set comment="band 4">
        <r>  0.0000  0.0000  0.0711  0.1289  0.0000  0.0000  0.0000  0.0000  0.0000 </r>
        <r>  0.0000  0.0000  0.0711  0.1289  0.0000  0.0000  0.0000  0.0000  0.0000 </r>
       </set>
       <set comment="band 5">
        <r>  0.0439  0.0749  0.0000  0.0000  0.0000  0.0000  0.0000  0.0000  0.0000 </r>
        <r>  0.0439  0.0749  0.0000  0.0000  0.0000  0.0000  0.0000  0.0000  0.0000 </r>
       </set>
       <set comment="band 6">
        <r>  0.0468  0.0345  0.0000  0.0000  0.0000  0.0000  0.0000  0.0000  0.0000 </r>
        <r>  0.0468  0.0345  0.0000  0.0000  0.0000  0.0000  0.0000  0.0000  0.0000 </r>
       </set>
       <set comment="band 7">
        <r>  0.0000  0.0000  0.0919  0.0756  0.0000  0.0000  0.0000  0.0000  0.0000 </r>
        <r>  0.0000  0.0000  0.0919  0.0756  0.0000  0.0000  0.0000  0.0000  0.0000 </r>
       </set>
       <set comment="band 8">
        <r>  0.0000  0.0000  0.0749  0.0914  0.0000  0.0000  0.0000  0.0000  0.0000 </r>
        <r>  0.0000  0.0000  0.0749  0.0914  0.0000  0.0000  0.0000  0.0000  0.0000 </r>
       </set>
      </set>
      <set comment="kpoint 62">
       <set comment="band 1">
        <r>  0.2076  0.0140  0.0000  0.0000  0.0000  0.0000  0.0000  0.0000  0.0000 </r>
        <r>  0.2076  0.0140  0.0000  0.0000  0.0000  0.0000  0.0000  0.0000  0.0000 </r>
       </set>
       <set comment="band 2">
        <r>  0.1590  0.0969  0.0000  0.0000  0.0000  0.0000  0.0000  0.0000  0.0000 </r>
        <r>  0.1590  0.0969  0.0000  0.0000  0.0000  0.0000  0.0000  0.0000  0.0000 </r>
       </set>
       <set comment="band 3">
        <r>  0.0000  0.0000  0.1272  0.0732  0.0000  0.0000  0.0000  0.0000  0.0000 </r>
        <r>  0.0000  0.0000  0.1272  0.0732  0.0000  0.0000  0.0000  0.0000  0.0000 </r>
       </set>
       <set comment="band 4">
        <r>  0.0000  0.0000  0.0730  0.1268  0.0000  0.0000  0.0000  0.0000  0.0000 </r>
        <r>  0.0000  0.0000  0.0730  0.1268  0.0000  0.0000  0.0000  0.0000  0.0000 </r>
       </set>
       <set comment="band 5">
        <r>  0.0454  0.0716  0.0000  0.0000  0.0000  0.0000  0.0000  0.0000  0.0000 </r>
        <r>  0.0454  0.0716  0.0000  0.0000  0.0000  0.0000  0.0000  0.0000  0.0000 </r>
       </set>
       <set comment="band 6">
        <r>  0.0452  0.0331  0.0000  0.0000  0.0000  0.0000  0.0000  0.0000  0.0000 </r>
        <r>  0.0452  0.0331  0.0000  0.0000  0.0000  0.0000  0.0000  0.0000  0.0000 </r>
       </set>
       <set comment="band 7">
        <r>  0.0000  0.0000  0.0940  0.0732  0.0000  0.0000  0.0000  0.0000  0.0000 </r>
        <r>  0.0000  0.0000  0.0940  0.0732  0.0000  0.0000  0.0000  0.0000  0.0000 </r>
       </set>
       <set comment="band 8">
        <r>  0.0000  0.0000  0.0727  0.0935  0.0000  0.0000  0.0000  0.0000  0.0000 </r>
        <r>  0.0000  0.0000  0.0727  0.0935  0.0000  0.0000  0.0000  0.0000  0.0000 </r>
       </set>
      </set>
      <set comment="kpoint 63">
       <set comment="band 1">
        <r>  0.2069  0.0154  0.0000  0.0000  0.0000  0.0000  0.0000  0.0000  0.0000 </r>
        <r>  0.2069  0.0154  0.0000  0.0000  0.0000  0.0000  0.0000  0.0000  0.0000 </r>
       </set>
       <set comment="band 2">
        <r>  0.1623  0.0934  0.0000  0.0000  0.0000  0.0000  0.0000  0.0000  0.0000 </r>
        <r>  0.1623  0.0934  0.0000  0.0000  0.0000  0.0000  0.0000  0.0000  0.0000 </r>
       </set>
       <set comment="band 3">
        <r>  0.0000  0.0000  0.1251  0.0752  0.0000  0.0000  0.0000  0.0000  0.0000 </r>
        <r>  0.0000  0.0000  0.1251  0.0752  0.0000  0.0000  0.0000  0.0000  0.0000 </r>
       </set>
       <set comment="band 4">
        <r>  0.0000  0.0000  0.0749  0.1248  0.0000  0.0000  0.0000  0.0000  0.0000 </r>
        <r>  0.0000  0.0000  0.0749  0.1248  0.0000  0.0000  0.0000  0.0000  0.0000 </r>
       </set>
       <set comment="band 5">
        <r>  0.0468  0.0684  0.0000  0.0000  0.0000  0.0000  0.0000  0.0000  0.0000 </r>
        <r>  0.0468  0.0684  0.0000  0.0000  0.0000  0.0000  0.0000  0.0000  0.0000 </r>
       </set>
       <set comment="band 6">
        <r>  0.0442  0.0319  0.0000  0.0000  0.0000  0.0000  0.0000  0.0000  0.0000 </r>
        <r>  0.0442  0.0319  0.0000  0.0000  0.0000  0.0000  0.0000  0.0000  0.0000 </r>
       </set>
       <set comment="band 7">
        <r>  0.0000  0.0000  0.0958  0.0710  0.0000  0.0000  0.0000  0.0000  0.0000 </r>
        <r>  0.0000  0.0000  0.0959  0.0709  0.0000  0.0000  0.0000  0.0000  0.0000 </r>
       </set>
       <set comment="band 8">
        <r>  0.0000  0.0000  0.0706  0.0953  0.0000  0.0000  0.0000  0.0000  0.0000 </r>
        <r>  0.0000  0.0000  0.0706  0.0953  0.0000  0.0000  0.0000  0.0000  0.0000 </r>
       </set>
      </set>
      <set comment="kpoint 64">
       <set comment="band 1">
        <r>  0.2063  0.0168  0.0000  0.0000  0.0000  0.0000  0.0000  0.0000  0.0000 </r>
        <r>  0.2063  0.0168  0.0000  0.0000  0.0000  0.0000  0.0000  0.0000  0.0000 </r>
       </set>
       <set comment="band 2">
        <r>  0.1653  0.0901  0.0000  0.0000  0.0000  0.0000  0.0000  0.0000  0.0000 </r>
        <r>  0.1653  0.0901  0.0000  0.0000  0.0000  0.0000  0.0000  0.0000  0.0000 </r>
       </set>
       <set comment="band 3">
        <r>  0.0000  0.0000  0.1232  0.0770  0.0000  0.0000  0.0000  0.0000  0.0000 </r>
        <r>  0.0000  0.0000  0.1232  0.0770  0.0000  0.0000  0.0000  0.0000  0.0000 </r>
       </set>
       <set comment="band 4">
        <r>  0.0000  0.0000  0.0766  0.1229  0.0000  0.0000  0.0000  0.0000  0.0000 </r>
        <r>  0.0000  0.0000  0.0766  0.1229  0.0000  0.0000  0.0000  0.0000  0.0000 </r>
       </set>
       <set comment="band 5">
        <r>  0.0480  0.0654  0.0000  0.0000  0.0000  0.0000  0.0000  0.0000  0.0000 </r>
        <r>  0.0480  0.0654  0.0000  0.0000  0.0000  0.0000  0.0000  0.0000  0.0000 </r>
       </set>
       <set comment="band 6">
        <r>  0.0437  0.0310  0.0000  0.0000  0.0000  0.0000  0.0000  0.0000  0.0000 </r>
        <r>  0.0437  0.0310  0.0000  0.0000  0.0000  0.0000  0.0000  0.0000  0.0000 </r>
       </set>
       <set comment="band 7">
        <r>  0.0000  0.0000  0.0978  0.0689  0.0000  0.0000  0.0000  0.0000  0.0000 </r>
        <r>  0.0000  0.0000  0.0978  0.0689  0.0000  0.0000  0.0000  0.0000  0.0000 </r>
       </set>
       <set comment="band 8">
        <r>  0.0000  0.0000  0.0687  0.0970  0.0000  0.0000  0.0000  0.0000  0.0000 </r>
        <r>  0.0000  0.0000  0.0687  0.0970  0.0000  0.0000  0.0000  0.0000  0.0000 </r>
       </set>
      </set>
      <set comment="kpoint 65">
       <set comment="band 1">
        <r>  0.2056  0.0182  0.0000  0.0000  0.0000  0.0000  0.0000  0.0000  0.0000 </r>
        <r>  0.2056  0.0182  0.0000  0.0000  0.0000  0.0000  0.0000  0.0000  0.0000 </r>
       </set>
       <set comment="band 2">
        <r>  0.1681  0.0868  0.0000  0.0000  0.0000  0.0000  0.0000  0.0000  0.0000 </r>
        <r>  0.1681  0.0868  0.0000  0.0000  0.0000  0.0000  0.0000  0.0000  0.0000 </r>
       </set>
       <set comment="band 3">
        <r>  0.0000  0.0000  0.1214  0.0787  0.0000  0.0000  0.0000  0.0000  0.0000 </r>
        <r>  0.0000  0.0000  0.1214  0.0787  0.0000  0.0000  0.0000  0.0000  0.0000 </r>
       </set>
       <set comment="band 4">
        <r>  0.0000  0.0000  0.0783  0.1212  0.0000  0.0000  0.0000  0.0000  0.0000 </r>
        <r>  0.0000  0.0000  0.0783  0.1212  0.0000  0.0000  0.0000  0.0000  0.0000 </r>
       </set>
       <set comment="band 5">
        <r>  0.0492  0.0626  0.0000  0.0000  0.0000  0.0000  0.0000  0.0000  0.0000 </r>
        <r>  0.0492  0.0626  0.0000  0.0000  0.0000  0.0000  0.0000  0.0000  0.0000 </r>
       </set>
       <set comment="band 6">
        <r>  0.0435  0.0302  0.0000  0.0000  0.0000  0.0000  0.0000  0.0000  0.0000 </r>
        <r>  0.0435  0.0302  0.0000  0.0000  0.0000  0.0000  0.0000  0.0000  0.0000 </r>
       </set>
       <set comment="band 7">
        <r>  0.0000  0.0000  0.0993  0.0669  0.0000  0.0000  0.0000  0.0000  0.0000 </r>
        <r>  0.0000  0.0000  0.0992  0.0669  0.0000  0.0000  0.0000  0.0000  0.0000 </r>
       </set>
       <set comment="band 8">
        <r>  0.0000  0.0000  0.0668  0.0985  0.0000  0.0000  0.0000  0.0000  0.0000 </r>
        <r>  0.0000  0.0000  0.0668  0.0985  0.0000  0.0000  0.0000  0.0000  0.0000 </r>
       </set>
      </set>
      <set comment="kpoint 66">
       <set comment="band 1">
        <r>  0.2049  0.0197  0.0000  0.0000  0.0000  0.0000  0.0000  0.0000  0.0000 </r>
        <r>  0.2049  0.0197  0.0000  0.0000  0.0000  0.0000  0.0000  0.0000  0.0000 </r>
       </set>
       <set comment="band 2">
        <r>  0.1707  0.0837  0.0000  0.0000  0.0000  0.0000  0.0000  0.0000  0.0000 </r>
        <r>  0.1707  0.0837  0.0000  0.0000  0.0000  0.0000  0.0000  0.0000  0.0000 </r>
       </set>
       <set comment="band 3">
        <r>  0.0000  0.0000  0.1196  0.0804  0.0000  0.0000  0.0000  0.0000  0.0000 </r>
        <r>  0.0000  0.0000  0.1196  0.0804  0.0000  0.0000  0.0000  0.0000  0.0000 </r>
       </set>
       <set comment="band 4">
        <r>  0.0000  0.0000  0.0800  0.1195  0.0000  0.0000  0.0000  0.0000  0.0000 </r>
        <r>  0.0000  0.0000  0.0800  0.1195  0.0000  0.0000  0.0000  0.0000  0.0000 </r>
       </set>
       <set comment="band 5">
        <r>  0.0502  0.0598  0.0000  0.0000  0.0000  0.0000  0.0000  0.0000  0.0000 </r>
        <r>  0.0502  0.0598  0.0000  0.0000  0.0000  0.0000  0.0000  0.0000  0.0000 </r>
       </set>
       <set comment="band 6">
        <r>  0.0435  0.0296  0.0000  0.0000  0.0000  0.0000  0.0000  0.0000  0.0000 </r>
        <r>  0.0435  0.0296  0.0000  0.0000  0.0000  0.0000  0.0000  0.0000  0.0000 </r>
       </set>
       <set comment="band 7">
        <r>  0.0000  0.0000  0.1006  0.0651  0.0000  0.0000  0.0000  0.0000  0.0000 </r>
        <r>  0.0000  0.0000  0.1006  0.0651  0.0000  0.0000  0.0000  0.0000  0.0000 </r>
       </set>
       <set comment="band 8">
        <r>  0.0000  0.0000  0.0651  0.0998  0.0000  0.0000  0.0000  0.0000  0.0000 </r>
        <r>  0.0000  0.0000  0.0651  0.0998  0.0000  0.0000  0.0000  0.0000  0.0000 </r>
       </set>
      </set>
      <set comment="kpoint 67">
       <set comment="band 1">
        <r>  0.2042  0.0213  0.0000  0.0000  0.0000  0.0000  0.0000  0.0000  0.0000 </r>
        <r>  0.2042  0.0213  0.0000  0.0000  0.0000  0.0000  0.0000  0.0000  0.0000 </r>
       </set>
       <set comment="band 2">
        <r>  0.1731  0.0806  0.0000  0.0000  0.0000  0.0000  0.0000  0.0000  0.0000 </r>
        <r>  0.1731  0.0806  0.0000  0.0000  0.0000  0.0000  0.0000  0.0000  0.0000 </r>
       </set>
       <set comment="band 3">
        <r>  0.0000  0.0000  0.1179  0.0820  0.0000  0.0000  0.0000  0.0000  0.0000 </r>
        <r>  0.0000  0.0000  0.1179  0.0820  0.0000  0.0000  0.0000  0.0000  0.0000 </r>
       </set>
       <set comment="band 4">
        <r>  0.0000  0.0000  0.0816  0.1178  0.0000  0.0000  0.0000  0.0000  0.0000 </r>
        <r>  0.0000  0.0000  0.0816  0.1178  0.0000  0.0000  0.0000  0.0000  0.0000 </r>
       </set>
       <set comment="band 5">
        <r>  0.0510  0.0572  0.0000  0.0000  0.0000  0.0000  0.0000  0.0000  0.0000 </r>
        <r>  0.0510  0.0572  0.0000  0.0000  0.0000  0.0000  0.0000  0.0000  0.0000 </r>
       </set>
       <set comment="band 6">
        <r>  0.0438  0.0292  0.0000  0.0000  0.0000  0.0000  0.0000  0.0000  0.0000 </r>
        <r>  0.0438  0.0292  0.0000  0.0000  0.0000  0.0000  0.0000  0.0000  0.0000 </r>
       </set>
       <set comment="band 7">
        <r>  0.0000  0.0000  0.1018  0.0634  0.0000  0.0000  0.0000  0.0000  0.0000 </r>
        <r>  0.0000  0.0000  0.1018  0.0634  0.0000  0.0000  0.0000  0.0000  0.0000 </r>
       </set>
       <set comment="band 8">
        <r>  0.0000  0.0000  0.0635  0.1011  0.0000  0.0000  0.0000  0.0000  0.0000 </r>
        <r>  0.0000  0.0000  0.0636  0.1011  0.0000  0.0000  0.0000  0.0000  0.0000 </r>
       </set>
      </set>
      <set comment="kpoint 68">
       <set comment="band 1">
        <r>  0.2035  0.0229  0.0000  0.0000  0.0000  0.0000  0.0000  0.0000  0.0000 </r>
        <r>  0.2035  0.0229  0.0000  0.0000  0.0000  0.0000  0.0000  0.0000  0.0000 </r>
       </set>
       <set comment="band 2">
        <r>  0.1753  0.0776  0.0000  0.0000  0.0000  0.0000  0.0000  0.0000  0.0000 </r>
        <r>  0.1753  0.0776  0.0000  0.0000  0.0000  0.0000  0.0000  0.0000  0.0000 </r>
       </set>
       <set comment="band 3">
        <r>  0.0000  0.0000  0.1163  0.0836  0.0000  0.0000  0.0000  0.0000  0.0000 </r>
        <r>  0.0000  0.0000  0.1163  0.0836  0.0000  0.0000  0.0000  0.0000  0.0000 </r>
       </set>
       <set comment="band 4">
        <r>  0.0000  0.0000  0.0832  0.1163  0.0000  0.0000  0.0000  0.0000  0.0000 </r>
        <r>  0.0000  0.0000  0.0832  0.1163  0.0000  0.0000  0.0000  0.0000  0.0000 </r>
       </set>
       <set comment="band 5">
        <r>  0.0518  0.0547  0.0000  0.0000  0.0000  0.0000  0.0000  0.0000  0.0000 </r>
        <r>  0.0518  0.0547  0.0000  0.0000  0.0000  0.0000  0.0000  0.0000  0.0000 </r>
       </set>
       <set comment="band 6">
        <r>  0.0442  0.0289  0.0000  0.0000  0.0000  0.0000  0.0000  0.0000  0.0000 </r>
        <r>  0.0442  0.0289  0.0000  0.0000  0.0000  0.0000  0.0000  0.0000  0.0000 </r>
       </set>
       <set comment="band 7">
        <r>  0.0000  0.0000  0.1029  0.0620  0.0000  0.0000  0.0000  0.0000  0.0000 </r>
        <r>  0.0000  0.0000  0.1029  0.0620  0.0000  0.0000  0.0000  0.0000  0.0000 </r>
       </set>
       <set comment="band 8">
        <r>  0.0000  0.0000  0.0622  0.1022  0.0000  0.0000  0.0000  0.0000  0.0000 </r>
        <r>  0.0000  0.0000  0.0622  0.1022  0.0000  0.0000  0.0000  0.0000  0.0000 </r>
       </set>
      </set>
      <set comment="kpoint 69">
       <set comment="band 1">
        <r>  0.2028  0.0246  0.0000  0.0000  0.0000  0.0000  0.0000  0.0000  0.0000 </r>
        <r>  0.2028  0.0246  0.0000  0.0000  0.0000  0.0000  0.0000  0.0000  0.0000 </r>
       </set>
       <set comment="band 2">
        <r>  0.1773  0.0747  0.0000  0.0000  0.0000  0.0000  0.0000  0.0000  0.0000 </r>
        <r>  0.1773  0.0747  0.0000  0.0000  0.0000  0.0000  0.0000  0.0000  0.0000 </r>
       </set>
       <set comment="band 3">
        <r>  0.0000  0.0000  0.1147  0.0851  0.0000  0.0000  0.0000  0.0000  0.0000 </r>
        <r>  0.0000  0.0000  0.1147  0.0851  0.0000  0.0000  0.0000  0.0000  0.0000 </r>
       </set>
       <set comment="band 4">
        <r>  0.0000  0.0000  0.0847  0.1147  0.0000  0.0000  0.0000  0.0000  0.0000 </r>
        <r>  0.0000  0.0000  0.0847  0.1147  0.0000  0.0000  0.0000  0.0000  0.0000 </r>
       </set>
       <set comment="band 5">
        <r>  0.0524  0.0523  0.0000  0.0000  0.0000  0.0000  0.0000  0.0000  0.0000 </r>
        <r>  0.0524  0.0523  0.0000  0.0000  0.0000  0.0000  0.0000  0.0000  0.0000 </r>
       </set>
       <set comment="band 6">
        <r>  0.0448  0.0287  0.0000  0.0000  0.0000  0.0000  0.0000  0.0000  0.0000 </r>
        <r>  0.0448  0.0287  0.0000  0.0000  0.0000  0.0000  0.0000  0.0000  0.0000 </r>
       </set>
       <set comment="band 7">
        <r>  0.0000  0.0000  0.1039  0.0606  0.0000  0.0000  0.0000  0.0000  0.0000 </r>
        <r>  0.0000  0.0000  0.1038  0.0606  0.0000  0.0000  0.0000  0.0000  0.0000 </r>
       </set>
       <set comment="band 8">
        <r>  0.0000  0.0000  0.0610  0.1032  0.0000  0.0000  0.0000  0.0000  0.0000 </r>
        <r>  0.0000  0.0000  0.0610  0.1032  0.0000  0.0000  0.0000  0.0000  0.0000 </r>
       </set>
      </set>
      <set comment="kpoint 70">
       <set comment="band 1">
        <r>  0.2020  0.0263  0.0000  0.0000  0.0000  0.0000  0.0000  0.0000  0.0000 </r>
        <r>  0.2020  0.0263  0.0000  0.0000  0.0000  0.0000  0.0000  0.0000  0.0000 </r>
       </set>
       <set comment="band 2">
        <r>  0.1792  0.0718  0.0000  0.0000  0.0000  0.0000  0.0000  0.0000  0.0000 </r>
        <r>  0.1792  0.0718  0.0000  0.0000  0.0000  0.0000  0.0000  0.0000  0.0000 </r>
       </set>
       <set comment="band 3">
        <r>  0.0000  0.0000  0.1132  0.0866  0.0000  0.0000  0.0000  0.0000  0.0000 </r>
        <r>  0.0000  0.0000  0.1132  0.0866  0.0000  0.0000  0.0000  0.0000  0.0000 </r>
       </set>
       <set comment="band 4">
        <r>  0.0000  0.0000  0.0862  0.1133  0.0000  0.0000  0.0000  0.0000  0.0000 </r>
        <r>  0.0000  0.0000  0.0862  0.1133  0.0000  0.0000  0.0000  0.0000  0.0000 </r>
       </set>
       <set comment="band 5">
        <r>  0.0529  0.0501  0.0000  0.0000  0.0000  0.0000  0.0000  0.0000  0.0000 </r>
        <r>  0.0529  0.0501  0.0000  0.0000  0.0000  0.0000  0.0000  0.0000  0.0000 </r>
       </set>
       <set comment="band 6">
        <r>  0.0454  0.0287  0.0000  0.0000  0.0000  0.0000  0.0000  0.0000  0.0000 </r>
        <r>  0.0454  0.0287  0.0000  0.0000  0.0000  0.0000  0.0000  0.0000  0.0000 </r>
       </set>
       <set comment="band 7">
        <r>  0.0000  0.0000  0.1047  0.0595  0.0000  0.0000  0.0000  0.0000  0.0000 </r>
        <r>  0.0000  0.0000  0.1047  0.0595  0.0000  0.0000  0.0000  0.0000  0.0000 </r>
       </set>
       <set comment="band 8">
        <r>  0.0000  0.0000  0.0600  0.1042  0.0000  0.0000  0.0000  0.0000  0.0000 </r>
        <r>  0.0000  0.0000  0.0600  0.1042  0.0000  0.0000  0.0000  0.0000  0.0000 </r>
       </set>
      </set>
      <set comment="kpoint 71">
       <set comment="band 1">
        <r>  0.2012  0.0281  0.0000  0.0000  0.0000  0.0000  0.0000  0.0000  0.0000 </r>
        <r>  0.2012  0.0281  0.0000  0.0000  0.0000  0.0000  0.0000  0.0000  0.0000 </r>
       </set>
       <set comment="band 2">
        <r>  0.1810  0.0690  0.0000  0.0000  0.0000  0.0000  0.0000  0.0000  0.0000 </r>
        <r>  0.1810  0.0690  0.0000  0.0000  0.0000  0.0000  0.0000  0.0000  0.0000 </r>
       </set>
       <set comment="band 3">
        <r>  0.0000  0.0000  0.1117  0.0880  0.0000  0.0000  0.0000  0.0000  0.0000 </r>
        <r>  0.0000  0.0000  0.1117  0.0880  0.0000  0.0000  0.0000  0.0000  0.0000 </r>
       </set>
       <set comment="band 4">
        <r>  0.0000  0.0000  0.0876  0.1118  0.0000  0.0000  0.0000  0.0000  0.0000 </r>
        <r>  0.0000  0.0000  0.0876  0.1118  0.0000  0.0000  0.0000  0.0000  0.0000 </r>
       </set>
       <set comment="band 5">
        <r>  0.0533  0.0480  0.0000  0.0000  0.0000  0.0000  0.0000  0.0000  0.0000 </r>
        <r>  0.0533  0.0480  0.0000  0.0000  0.0000  0.0000  0.0000  0.0000  0.0000 </r>
       </set>
       <set comment="band 6">
        <r>  0.0461  0.0287  0.0000  0.0000  0.0000  0.0000  0.0000  0.0000  0.0000 </r>
        <r>  0.0461  0.0287  0.0000  0.0000  0.0000  0.0000  0.0000  0.0000  0.0000 </r>
       </set>
       <set comment="band 7">
        <r>  0.0000  0.0000  0.1056  0.0586  0.0000  0.0000  0.0000  0.0000  0.0000 </r>
        <r>  0.0000  0.0000  0.1056  0.0586  0.0000  0.0000  0.0000  0.0000  0.0000 </r>
       </set>
       <set comment="band 8">
        <r>  0.0000  0.0000  0.0595  0.1052  0.0000  0.0000  0.0000  0.0000  0.0000 </r>
        <r>  0.0000  0.0000  0.0596  0.1052  0.0000  0.0000  0.0000  0.0000  0.0000 </r>
       </set>
      </set>
      <set comment="kpoint 72">
       <set comment="band 1">
        <r>  0.2004  0.0299  0.0000  0.0000  0.0000  0.0000  0.0000  0.0000  0.0000 </r>
        <r>  0.2004  0.0299  0.0000  0.0000  0.0000  0.0000  0.0000  0.0000  0.0000 </r>
       </set>
       <set comment="band 2">
        <r>  0.1827  0.0663  0.0000  0.0000  0.0000  0.0000  0.0000  0.0000  0.0000 </r>
        <r>  0.1827  0.0663  0.0000  0.0000  0.0000  0.0000  0.0000  0.0000  0.0000 </r>
       </set>
       <set comment="band 3">
        <r>  0.0000  0.0000  0.1102  0.0894  0.0000  0.0000  0.0000  0.0000  0.0000 </r>
        <r>  0.0000  0.0000  0.1102  0.0894  0.0000  0.0000  0.0000  0.0000  0.0000 </r>
       </set>
       <set comment="band 4">
        <r>  0.0000  0.0000  0.0890  0.1104  0.0000  0.0000  0.0000  0.0000  0.0000 </r>
        <r>  0.0000  0.0000  0.0890  0.1104  0.0000  0.0000  0.0000  0.0000  0.0000 </r>
       </set>
       <set comment="band 5">
        <r>  0.0535  0.0461  0.0000  0.0000  0.0000  0.0000  0.0000  0.0000  0.0000 </r>
        <r>  0.0535  0.0461  0.0000  0.0000  0.0000  0.0000  0.0000  0.0000  0.0000 </r>
       </set>
       <set comment="band 6">
        <r>  0.0468  0.0289  0.0000  0.0000  0.0000  0.0000  0.0000  0.0000  0.0000 </r>
        <r>  0.0468  0.0289  0.0000  0.0000  0.0000  0.0000  0.0000  0.0000  0.0000 </r>
       </set>
       <set comment="band 7">
        <r>  0.0000  0.0000  0.1065  0.0581  0.0000  0.0000  0.0000  0.0000  0.0000 </r>
        <r>  0.0000  0.0000  0.1066  0.0580  0.0000  0.0000  0.0000  0.0000  0.0000 </r>
       </set>
       <set comment="band 8">
        <r>  0.0000  0.0000  0.0593  0.1063  0.0000  0.0000  0.0000  0.0000  0.0000 </r>
        <r>  0.0000  0.0000  0.0593  0.1063  0.0000  0.0000  0.0000  0.0000  0.0000 </r>
       </set>
      </set>
      <set comment="kpoint 73">
       <set comment="band 1">
        <r>  0.1996  0.0318  0.0000  0.0000  0.0000  0.0000  0.0000  0.0000  0.0000 </r>
        <r>  0.1996  0.0318  0.0000  0.0000  0.0000  0.0000  0.0000  0.0000  0.0000 </r>
       </set>
       <set comment="band 2">
        <r>  0.1842  0.0636  0.0000  0.0000  0.0000  0.0000  0.0000  0.0000  0.0000 </r>
        <r>  0.1842  0.0636  0.0000  0.0000  0.0000  0.0000  0.0000  0.0000  0.0000 </r>
       </set>
       <set comment="band 3">
        <r>  0.0000  0.0000  0.1088  0.0908  0.0000  0.0000  0.0000  0.0000  0.0000 </r>
        <r>  0.0000  0.0000  0.1088  0.0908  0.0000  0.0000  0.0000  0.0000  0.0000 </r>
       </set>
       <set comment="band 4">
        <r>  0.0000  0.0000  0.0904  0.1091  0.0000  0.0000  0.0000  0.0000  0.0000 </r>
        <r>  0.0000  0.0000  0.0904  0.1091  0.0000  0.0000  0.0000  0.0000  0.0000 </r>
       </set>
       <set comment="band 5">
        <r>  0.0537  0.0442  0.0000  0.0000  0.0000  0.0000  0.0000  0.0000  0.0000 </r>
        <r>  0.0537  0.0442  0.0000  0.0000  0.0000  0.0000  0.0000  0.0000  0.0000 </r>
       </set>
       <set comment="band 6">
        <r>  0.0476  0.0291  0.0000  0.0000  0.0000  0.0000  0.0000  0.0000  0.0000 </r>
        <r>  0.0476  0.0291  0.0000  0.0000  0.0000  0.0000  0.0000  0.0000  0.0000 </r>
       </set>
       <set comment="band 7">
        <r>  0.0000  0.0000  0.1074  0.0578  0.0000  0.0000  0.0000  0.0000  0.0000 </r>
        <r>  0.0000  0.0000  0.1074  0.0578  0.0000  0.0000  0.0000  0.0000  0.0000 </r>
       </set>
       <set comment="band 8">
        <r>  0.0000  0.0000  0.0595  0.1076  0.0000  0.0000  0.0000  0.0000  0.0000 </r>
        <r>  0.0000  0.0000  0.0595  0.1076  0.0000  0.0000  0.0000  0.0000  0.0000 </r>
       </set>
      </set>
      <set comment="kpoint 74">
       <set comment="band 1">
        <r>  0.1987  0.0337  0.0000  0.0000  0.0000  0.0000  0.0000  0.0000  0.0000 </r>
        <r>  0.1987  0.0337  0.0000  0.0000  0.0000  0.0000  0.0000  0.0000  0.0000 </r>
       </set>
       <set comment="band 2">
        <r>  0.1857  0.0610  0.0000  0.0000  0.0000  0.0000  0.0000  0.0000  0.0000 </r>
        <r>  0.1857  0.0610  0.0000  0.0000  0.0000  0.0000  0.0000  0.0000  0.0000 </r>
       </set>
       <set comment="band 3">
        <r>  0.0000  0.0000  0.1074  0.0922  0.0000  0.0000  0.0000  0.0000  0.0000 </r>
        <r>  0.0000  0.0000  0.1074  0.0922  0.0000  0.0000  0.0000  0.0000  0.0000 </r>
       </set>
       <set comment="band 4">
        <r>  0.0000  0.0000  0.0917  0.1077  0.0000  0.0000  0.0000  0.0000  0.0000 </r>
        <r>  0.0000  0.0000  0.0917  0.1077  0.0000  0.0000  0.0000  0.0000  0.0000 </r>
       </set>
       <set comment="band 5">
        <r>  0.0538  0.0424  0.0000  0.0000  0.0000  0.0000  0.0000  0.0000  0.0000 </r>
        <r>  0.0538  0.0424  0.0000  0.0000  0.0000  0.0000  0.0000  0.0000  0.0000 </r>
       </set>
       <set comment="band 6">
        <r>  0.0483  0.0295  0.0000  0.0000  0.0000  0.0000  0.0000  0.0000  0.0000 </r>
        <r>  0.0483  0.0295  0.0000  0.0000  0.0000  0.0000  0.0000  0.0000  0.0000 </r>
       </set>
       <set comment="band 7">
        <r>  0.0000  0.0000  0.1087  0.0581  0.0000  0.0000  0.0000  0.0000  0.0000 </r>
        <r>  0.0000  0.0000  0.1087  0.0582  0.0000  0.0000  0.0000  0.0000  0.0000 </r>
       </set>
       <set comment="band 8">
        <r>  0.0000  0.0000  0.0604  0.1091  0.0000  0.0000  0.0000  0.0000  0.0000 </r>
        <r>  0.0000  0.0000  0.0604  0.1092  0.0000  0.0000  0.0000  0.0000  0.0000 </r>
       </set>
      </set>
      <set comment="kpoint 75">
       <set comment="band 1">
        <r>  0.1978  0.0357  0.0000  0.0000  0.0000  0.0000  0.0000  0.0000  0.0000 </r>
        <r>  0.1978  0.0357  0.0000  0.0000  0.0000  0.0000  0.0000  0.0000  0.0000 </r>
       </set>
       <set comment="band 2">
        <r>  0.1871  0.0584  0.0000  0.0000  0.0000  0.0000  0.0000  0.0000  0.0000 </r>
        <r>  0.1871  0.0584  0.0000  0.0000  0.0000  0.0000  0.0000  0.0000  0.0000 </r>
       </set>
       <set comment="band 3">
        <r>  0.0000  0.0000  0.1061  0.0935  0.0000  0.0000  0.0000  0.0000  0.0000 </r>
        <r>  0.0000  0.0000  0.1061  0.0935  0.0000  0.0000  0.0000  0.0000  0.0000 </r>
       </set>
       <set comment="band 4">
        <r>  0.0000  0.0000  0.0930  0.1064  0.0000  0.0000  0.0000  0.0000  0.0000 </r>
        <r>  0.0000  0.0000  0.0930  0.1064  0.0000  0.0000  0.0000  0.0000  0.0000 </r>
       </set>
       <set comment="band 5">
        <r>  0.0538  0.0407  0.0000  0.0000  0.0000  0.0000  0.0000  0.0000  0.0000 </r>
        <r>  0.0538  0.0407  0.0000  0.0000  0.0000  0.0000  0.0000  0.0000  0.0000 </r>
       </set>
       <set comment="band 6">
        <r>  0.0491  0.0300  0.0000  0.0000  0.0000  0.0000  0.0000  0.0000  0.0000 </r>
        <r>  0.0491  0.0300  0.0000  0.0000  0.0000  0.0000  0.0000  0.0000  0.0000 </r>
       </set>
       <set comment="band 7">
        <r>  0.0000  0.0000  0.1100  0.0593  0.0000  0.0000  0.0000  0.0000  0.0000 </r>
        <r>  0.0000  0.0000  0.1101  0.0592  0.0000  0.0000  0.0000  0.0000  0.0000 </r>
       </set>
       <set comment="band 8">
        <r>  0.0000  0.0000  0.0625  0.1111  0.0000  0.0000  0.0000  0.0000  0.0000 </r>
        <r>  0.0000  0.0000  0.0625  0.1111  0.0000  0.0000  0.0000  0.0000  0.0000 </r>
       </set>
      </set>
      <set comment="kpoint 76">
       <set comment="band 1">
        <r>  0.1969  0.0378  0.0000  0.0000  0.0000  0.0000  0.0000  0.0000  0.0000 </r>
        <r>  0.1969  0.0378  0.0000  0.0000  0.0000  0.0000  0.0000  0.0000  0.0000 </r>
       </set>
       <set comment="band 2">
        <r>  0.1884  0.0559  0.0000  0.0000  0.0000  0.0000  0.0000  0.0000  0.0000 </r>
        <r>  0.1884  0.0559  0.0000  0.0000  0.0000  0.0000  0.0000  0.0000  0.0000 </r>
       </set>
       <set comment="band 3">
        <r>  0.0000  0.0000  0.1047  0.0949  0.0000  0.0000  0.0000  0.0000  0.0000 </r>
        <r>  0.0000  0.0000  0.1047  0.0949  0.0000  0.0000  0.0000  0.0000  0.0000 </r>
       </set>
       <set comment="band 4">
        <r>  0.0000  0.0000  0.0943  0.1051  0.0000  0.0000  0.0000  0.0000  0.0000 </r>
        <r>  0.0000  0.0000  0.0943  0.1051  0.0000  0.0000  0.0000  0.0000  0.0000 </r>
       </set>
       <set comment="band 5">
        <r>  0.0536  0.0392  0.0000  0.0000  0.0000  0.0000  0.0000  0.0000  0.0000 </r>
        <r>  0.0536  0.0392  0.0000  0.0000  0.0000  0.0000  0.0000  0.0000  0.0000 </r>
       </set>
       <set comment="band 6">
        <r>  0.0498  0.0307  0.0000  0.0000  0.0000  0.0000  0.0000  0.0000  0.0000 </r>
        <r>  0.0498  0.0307  0.0000  0.0000  0.0000  0.0000  0.0000  0.0000  0.0000 </r>
       </set>
       <set comment="band 7">
        <r>  0.0000  0.0000  0.1123  0.0612  0.0000  0.0000  0.0000  0.0000  0.0000 </r>
        <r>  0.0000  0.0000  0.1113  0.0615  0.0000  0.0000  0.0000  0.0000  0.0000 </r>
       </set>
       <set comment="band 8">
        <r>  0.0000  0.0000  0.0663  0.1139  0.0000  0.0000  0.0000  0.0000  0.0000 </r>
        <r>  0.0000  0.0000  0.0664  0.1137  0.0000  0.0000  0.0000  0.0000  0.0000 </r>
       </set>
      </set>
      <set comment="kpoint 77">
       <set comment="band 1">
        <r>  0.1960  0.0399  0.0000  0.0000  0.0000  0.0000  0.0000  0.0000  0.0000 </r>
        <r>  0.1960  0.0399  0.0000  0.0000  0.0000  0.0000  0.0000  0.0000  0.0000 </r>
       </set>
       <set comment="band 2">
        <r>  0.1896  0.0535  0.0000  0.0000  0.0000  0.0000  0.0000  0.0000  0.0000 </r>
        <r>  0.1896  0.0535  0.0000  0.0000  0.0000  0.0000  0.0000  0.0000  0.0000 </r>
       </set>
       <set comment="band 3">
        <r>  0.0000  0.0000  0.1034  0.0961  0.0000  0.0000  0.0000  0.0000  0.0000 </r>
        <r>  0.0000  0.0000  0.1034  0.0961  0.0000  0.0000  0.0000  0.0000  0.0000 </r>
       </set>
       <set comment="band 4">
        <r>  0.0000  0.0000  0.0957  0.1038  0.0000  0.0000  0.0000  0.0000  0.0000 </r>
        <r>  0.0000  0.0000  0.0957  0.1038  0.0000  0.0000  0.0000  0.0000  0.0000 </r>
       </set>
       <set comment="band 5">
        <r>  0.0534  0.0377  0.0000  0.0000  0.0000  0.0000  0.0000  0.0000  0.0000 </r>
        <r>  0.0534  0.0377  0.0000  0.0000  0.0000  0.0000  0.0000  0.0000  0.0000 </r>
       </set>
       <set comment="band 6">
        <r>  0.0505  0.0314  0.0000  0.0000  0.0000  0.0000  0.0000  0.0000  0.0000 </r>
        <r>  0.0505  0.0314  0.0000  0.0000  0.0000  0.0000  0.0000  0.0000  0.0000 </r>
       </set>
       <set comment="band 7">
        <r>  0.0000  0.0000  0.1144  0.0654  0.0000  0.0000  0.0000  0.0000  0.0000 </r>
        <r>  0.0000  0.0000  0.1147  0.0655  0.0000  0.0000  0.0000  0.0000  0.0000 </r>
       </set>
       <set comment="band 8">
        <r>  0.0000  0.0000  0.0739  0.1184  0.0000  0.0000  0.0000  0.0000  0.0000 </r>
        <r>  0.0000  0.0000  0.0744  0.1178  0.0000  0.0000  0.0000  0.0000  0.0000 </r>
       </set>
      </set>
      <set comment="kpoint 78">
       <set comment="band 1">
        <r>  0.1950  0.0420  0.0000  0.0000  0.0000  0.0000  0.0000  0.0000  0.0000 </r>
        <r>  0.1950  0.0420  0.0000  0.0000  0.0000  0.0000  0.0000  0.0000  0.0000 </r>
       </set>
       <set comment="band 2">
        <r>  0.1908  0.0511  0.0000  0.0000  0.0000  0.0000  0.0000  0.0000  0.0000 </r>
        <r>  0.1908  0.0511  0.0000  0.0000  0.0000  0.0000  0.0000  0.0000  0.0000 </r>
       </set>
       <set comment="band 3">
        <r>  0.0000  0.0000  0.1021  0.0974  0.0000  0.0000  0.0000  0.0000  0.0000 </r>
        <r>  0.0000  0.0000  0.1021  0.0974  0.0000  0.0000  0.0000  0.0000  0.0000 </r>
       </set>
       <set comment="band 4">
        <r>  0.0000  0.0000  0.0969  0.1025  0.0000  0.0000  0.0000  0.0000  0.0000 </r>
        <r>  0.0000  0.0000  0.0969  0.1025  0.0000  0.0000  0.0000  0.0000  0.0000 </r>
       </set>
       <set comment="band 5">
        <r>  0.0531  0.0364  0.0000  0.0000  0.0000  0.0000  0.0000  0.0000  0.0000 </r>
        <r>  0.0531  0.0364  0.0000  0.0000  0.0000  0.0000  0.0000  0.0000  0.0000 </r>
       </set>
       <set comment="band 6">
        <r>  0.0511  0.0322  0.0000  0.0000  0.0000  0.0000  0.0000  0.0000  0.0000 </r>
        <r>  0.0511  0.0322  0.0000  0.0000  0.0000  0.0000  0.0000  0.0000  0.0000 </r>
       </set>
       <set comment="band 7">
        <r>  0.0000  0.0000  0.1186  0.0728  0.0000  0.0000  0.0000  0.0000  0.0000 </r>
        <r>  0.0000  0.0000  0.1188  0.0728  0.0000  0.0000  0.0000  0.0000  0.0000 </r>
       </set>
       <set comment="band 8">
        <r>  0.0000  0.0000  0.0874  0.1235  0.0000  0.0000  0.0000  0.0000  0.0000 </r>
        <r>  0.0000  0.0000  0.0871  0.1239  0.0000  0.0000  0.0000  0.0000  0.0000 </r>
       </set>
      </set>
      <set comment="kpoint 79">
       <set comment="band 1">
        <r>  0.1940  0.0442  0.0000  0.0000  0.0000  0.0000  0.0000  0.0000  0.0000 </r>
        <r>  0.1940  0.0442  0.0000  0.0000  0.0000  0.0000  0.0000  0.0000  0.0000 </r>
       </set>
       <set comment="band 2">
        <r>  0.1919  0.0487  0.0000  0.0000  0.0000  0.0000  0.0000  0.0000  0.0000 </r>
        <r>  0.1919  0.0487  0.0000  0.0000  0.0000  0.0000  0.0000  0.0000  0.0000 </r>
       </set>
       <set comment="band 3">
        <r>  0.0000  0.0000  0.1008  0.0987  0.0000  0.0000  0.0000  0.0000  0.0000 </r>
        <r>  0.0000  0.0000  0.1008  0.0987  0.0000  0.0000  0.0000  0.0000  0.0000 </r>
       </set>
       <set comment="band 4">
        <r>  0.0000  0.0000  0.0982  0.1012  0.0000  0.0000  0.0000  0.0000  0.0000 </r>
        <r>  0.0000  0.0000  0.0982  0.1012  0.0000  0.0000  0.0000  0.0000  0.0000 </r>
       </set>
       <set comment="band 5">
        <r>  0.0527  0.0352  0.0000  0.0000  0.0000  0.0000  0.0000  0.0000  0.0000 </r>
        <r>  0.0527  0.0352  0.0000  0.0000  0.0000  0.0000  0.0000  0.0000  0.0000 </r>
       </set>
       <set comment="band 6">
        <r>  0.0517  0.0331  0.0000  0.0000  0.0000  0.0000  0.0000  0.0000  0.0000 </r>
        <r>  0.0517  0.0331  0.0000  0.0000  0.0000  0.0000  0.0000  0.0000  0.0000 </r>
       </set>
       <set comment="band 7">
        <r>  0.0000  0.0000  0.1242  0.0879  0.0000  0.0000  0.0000  0.0000  0.0000 </r>
        <r>  0.0000  0.0000  0.1252  0.0874  0.0000  0.0000  0.0000  0.0000  0.0000 </r>
       </set>
       <set comment="band 8">
        <r>  0.0000  0.0000  0.1104  0.1248  0.0000  0.0000  0.0000  0.0000  0.0000 </r>
        <r>  0.0000  0.0000  0.1094  0.1273  0.0000  0.0000  0.0000  0.0000  0.0000 </r>
       </set>
      </set>
      <set comment="kpoint 80">
       <set comment="band 1">
        <r>  0.3062  0.0192  0.0000  0.0000  0.0000  0.0000  0.0000  0.0000  0.0000 </r>
        <r>  0.0797  0.0737  0.0000  0.0000  0.0000  0.0000  0.0000  0.0000  0.0000 </r>
       </set>
       <set comment="band 2">
        <r>  0.0797  0.0737  0.0000  0.0000  0.0000  0.0000  0.0000  0.0000  0.0000 </r>
        <r>  0.3062  0.0192  0.0000  0.0000  0.0000  0.0000  0.0000  0.0000  0.0000 </r>
       </set>
       <set comment="band 3">
        <r>  0.0000  0.0000  0.1061  0.0934  0.0000  0.0000  0.0000  0.0000  0.0000 </r>
        <r>  0.0000  0.0000  0.0930  0.1066  0.0000  0.0000  0.0000  0.0000  0.0000 </r>
       </set>
       <set comment="band 4">
        <r>  0.0000  0.0000  0.0930  0.1066  0.0000  0.0000  0.0000  0.0000  0.0000 </r>
        <r>  0.0000  0.0000  0.1061  0.0934  0.0000  0.0000  0.0000  0.0000  0.0000 </r>
       </set>
       <set comment="band 5">
        <r>  0.0135  0.0594  0.0000  0.0000  0.0000  0.0000  0.0000  0.0000  0.0000 </r>
        <r>  0.0911  0.0088  0.0000  0.0000  0.0000  0.0000  0.0000  0.0000  0.0000 </r>
       </set>
       <set comment="band 6">
        <r>  0.0911  0.0088  0.0000  0.0000  0.0000  0.0000  0.0000  0.0000  0.0000 </r>
        <r>  0.0135  0.0594  0.0000  0.0000  0.0000  0.0000  0.0000  0.0000  0.0000 </r>
       </set>
       <set comment="band 7">
        <r>  0.0000  0.0000  0.1924  0.0524  0.0000  0.0000  0.0000  0.0000  0.0000 </r>
        <r>  0.0000  0.0000  0.0606  0.1684  0.0000  0.0000  0.0000  0.0000  0.0000 </r>
       </set>
       <set comment="band 8">
        <r>  0.0000  0.0000  0.0607  0.1617  0.0000  0.0000  0.0000  0.0000  0.0000 </r>
        <r>  0.0000  0.0000  0.1932  0.0531  0.0000  0.0000  0.0000  0.0000  0.0000 </r>
       </set>
      </set>
     </set>
    </set>
   </array>
  </projected>
 </calculation>
 <structure name="finalpos" >
  <crystal>
   <varray name="basis" >
    <v>       0.00000000       2.71500000       2.71500000 </v>
    <v>       2.68785000       0.00000000       2.71500000 </v>
    <v>       2.68785000       2.71500000       0.00000000 </v>
   </varray>
   <i name="volume">     39.62549423 </i>
   <varray name="rec_basis" >
    <v>      -0.18602229       0.18416206       0.18416206 </v>
    <v>       0.18602229      -0.18416206       0.18416206 </v>
    <v>       0.18602229       0.18416206      -0.18416206 </v>
   </varray>
  </crystal>
  <varray name="positions" >
   <v>       0.00000000       0.00000000       0.00000000 </v>
   <v>       0.25000000       0.25000000       0.25000000 </v>
  </varray>
 </structure>
</modeling>
